LAMMPS (2 Aug 2023 - Update 3)
OMP_NUM_THREADS environment is not set. Defaulting to 1 thread. (src/comm.cpp:98)
  using 1 OpenMP thread(s) per MPI task

# 1------general---------------
units                             metal      #单位为lammps 中的metel 类型
dimension                    3          #模拟的维度 三维
boundary                    p p p      #周期边界条件
atom_style                  atomic   #原子类型自动
atom_modify              map array sort 100 2.0
neighbor                    3.0 bin
neigh_modify            every 1 delay 0 check yes
#2 -----global variable-------定义全局变量，方便统一修改；
variable temperature equal 300
variable tstep equal 0.001
variable pressure equal 0
variable thermalstep equal 100
variable dumpstep equal 1000
variable relaxtime equal 0
variable totaltime equal 100000
variable deformrate equal 5e-3
#3 -------model------------
#box tilt large
read_data     1.lmp
Reading data file ...
  orthogonal box = (-100 -100 -2.1416495) to (100 100 39.081159)
  4 by 4 by 1 MPI processor grid
  reading atoms ...
  1620 atoms
  read_data CPU = 0.007 seconds
replicate 1 1 13
Replication is creating a 1x1x13 = 13 times larger system...
  orthogonal box = (-100 -100 -2.1416495) to (100 100 533.75487)
  2 by 2 by 4 MPI processor grid
  21060 atoms
  replicate CPU = 0.001 seconds
write_data h.data
System init for write_data ...
WARNING: Communication cutoff is 0.0. No ghost atoms will be generated. Atoms may get lost. (src/comm_brick.cpp:210)
pair_style hybrid airebo 3.0 airebo 3.0 airebo 3.0 lj/cut 10
pair_coeff * * airebo 1 CH.airebo C NULL NULL
Reading airebo potential file CH.airebo with DATE: 2011-10-25
pair_coeff * * airebo 2 CH.airebo NULL C NULL
Reading airebo potential file CH.airebo with DATE: 2011-10-25
pair_coeff * * airebo 3 CH.airebo NULL NULL C
Reading airebo potential file CH.airebo with DATE: 2011-10-25
pair_coeff 1 2 lj/cut 0.00456 3.431
pair_coeff 1 3 lj/cut 0.00456 3.431
pair_coeff 2 3 lj/cut 0.00456 3.431

# 5------minimize -----------
min_style      sd
minimize       1.0e-4 1.0e-6 100 1000
Neighbor list info ...
  update: every = 1 steps, delay = 0 steps, check = yes
  max neighbors/atom: 2000, page size: 100000
  master list distance cutoff = 13.2
  ghost atom cutoff = 13.2
  binsize = 6.6, bins = 31 31 82
  6 neighbor lists, perpetual/occasional/extra = 6 0 0
  (1) pair airebo, perpetual, skip from (5)
      attributes: full, newton on, ghost
      pair build: skip/ghost
      stencil: none
      bin: none
  (2) pair airebo, perpetual, skip from (5)
      attributes: full, newton on, ghost
      pair build: skip/ghost
      stencil: none
      bin: none
  (3) pair airebo, perpetual, skip from (5)
      attributes: full, newton on, ghost
      pair build: skip/ghost
      stencil: none
      bin: none
  (4) pair lj/cut, perpetual, skip from (6)
      attributes: half, newton on, cut 13
      pair build: skip
      stencil: none
      bin: none
  (5) neighbor class addition, perpetual
      attributes: full, newton on, ghost
      pair build: full/bin/ghost
      stencil: full/ghost/bin/3d
      bin: standard
  (6) neighbor class addition, perpetual
      attributes: half, newton on, cut 13
      pair build: half/bin/atomonly/newton
      stencil: half/bin/3d
      bin: standard
Per MPI rank memory allocation (min/avg/max) = 15.03 | 15.55 | 16.18 Mbytes
   Step          Temp          E_pair         E_mol          TotEng         Press     
         0   0             -141046.69      0             -141046.69      3997.0868    
        24   0             -151287.16      0             -151287.16      81.021641    
Loop time of 1.08903 on 16 procs for 24 steps with 21060 atoms

97.5% CPU use with 16 MPI tasks x 1 OpenMP threads

Minimization stats:
  Stopping criterion = energy tolerance
  Energy initial, next-to-last, final = 
     -141046.690587025  -151275.211070984   -151287.15892856
  Force two-norm initial, final = 3011.6203 40.654494
  Force max component initial, final = 177.24911 2.7877205
  Final line search alpha, max atom move = 0.017949923 0.050039368
  Iterations, force evaluations = 24 43

MPI task timing breakdown:
Section |  min time  |  avg time  |  max time  |%varavg| %total
---------------------------------------------------------------
Pair    | 0.94817    | 1.0128     | 1.0751     |   3.7 | 93.00
Neigh   | 0          | 0          | 0          |   0.0 |  0.00
Comm    | 0.0079781  | 0.069711   | 0.13506    |  14.1 |  6.40
Output  | 0          | 0          | 0          |   0.0 |  0.00
Modify  | 0          | 0          | 0          |   0.0 |  0.00
Other   |            | 0.006564   |            |       |  0.60

Nlocal:        1316.25 ave        1381 max        1230 min
Histogram: 4 0 0 0 0 2 2 6 0 2
Nghost:        4992.75 ave        5095 max        4942 min
Histogram: 6 0 4 2 0 0 0 2 0 2
Neighs:              0 ave           0 max           0 min
Histogram: 16 0 0 0 0 0 0 0 0 0

Total # of neighbors = 0
Ave neighs/atom = 0
Neighbor list builds = 0
Dangerous builds = 0
#6----define computes------
variable nums equal count(all) #计算原子数目
variable toval equal 20.535*20.0413*lz #计算系统总体积，单层石墨烯厚度为0.335nm
variable vol equal ${toval} #体系的初始体积
variable vol equal 220547.190956433 
variable vatom equal v_vol/v_nums #单个原子体积
compute 1 all stress/atom NULL #计算体系中单原子应力
compute xalls all reduce sum c_1[1]
variable xstress equal (c_xalls)/(v_toval*10000)
compute yalls all reduce sum c_1[2]
variable ystress equal (c_yalls)/(v_toval*10000)
compute zalls all reduce sum c_1[3]
variable zstress equal (c_zalls)/(v_toval*10000)
#7---------relaxation-------------------------
timestep ${tstep}
timestep 0.001
velocity all create ${temperature} 231743 units box dist gaussian
velocity all create 300 231743 units box dist gaussian
dump   1 all atom 100 all-cy.lammpstrj
#fix    1 all npt temp 300 300  0.1 aniso 0 0 10 drag 1  #三个方向独立控压
fix  1 all npt temp ${temperature} ${temperature} 0.1 x ${pressure} ${pressure} 10 y ${pressure} ${pressure} 10
fix  1 all npt temp 300 ${temperature} 0.1 x ${pressure} ${pressure} 10 y ${pressure} ${pressure} 10
fix  1 all npt temp 300 300 0.1 x ${pressure} ${pressure} 10 y ${pressure} ${pressure} 10
fix  1 all npt temp 300 300 0.1 x 0 ${pressure} 10 y ${pressure} ${pressure} 10
fix  1 all npt temp 300 300 0.1 x 0 0 10 y ${pressure} ${pressure} 10
fix  1 all npt temp 300 300 0.1 x 0 0 10 y 0 ${pressure} 10
fix  1 all npt temp 300 300 0.1 x 0 0 10 y 0 0 10
compute  2 all pe/atom
compute  pe all reduce sum c_2
variable PE equal "c_pe"
fix    pe all print 100 "${PE} " file PE.txt screen no
thermo  ${thermalstep}
thermo  100
#thermo_style  custom step pe ke etotal lx ly lz
run   ${relaxtime}
run   0
Per MPI rank memory allocation (min/avg/max) = 15.65 | 16.18 | 16.8 Mbytes
   Step          Temp          E_pair         E_mol          TotEng         Press          Volume    
        24   300           -151287.16      0             -150470.53      121.71296      21435861     
Loop time of 2.6899e-05 on 16 procs for 0 steps with 21060 atoms

92.7% CPU use with 16 MPI tasks x 1 OpenMP threads

MPI task timing breakdown:
Section |  min time  |  avg time  |  max time  |%varavg| %total
---------------------------------------------------------------
Pair    | 0          | 0          | 0          |   0.0 |  0.00
Neigh   | 0          | 0          | 0          |   0.0 |  0.00
Comm    | 0          | 0          | 0          |   0.0 |  0.00
Output  | 0          | 0          | 0          |   0.0 |  0.00
Modify  | 0          | 0          | 0          |   0.0 |  0.00
Other   |            | 2.69e-05   |            |       |100.00

Nlocal:        1316.25 ave        1378 max        1248 min
Histogram: 3 1 0 0 3 1 2 4 0 2
Nghost:         4992.5 ave        5076 max        4946 min
Histogram: 5 1 3 1 1 1 2 0 0 2
Neighs:              0 ave           0 max           0 min
Histogram: 16 0 0 0 0 0 0 0 0 0

Total # of neighbors = 0
Ave neighs/atom = 0
Neighbor list builds = 0
Dangerous builds = 0
#8 -------tension-----------------------------
unfix  1
undump  1
unfix  pe
reset_timestep 0
fix avestress all ave/atom 1 ${dumpstep} ${dumpstep} c_1[1] c_1[2] c_1[3] c_1[4] c_1[5] c_1[6]
fix avestress all ave/atom 1 1000 ${dumpstep} c_1[1] c_1[2] c_1[3] c_1[4] c_1[5] c_1[6]
fix avestress all ave/atom 1 1000 1000 c_1[1] c_1[2] c_1[3] c_1[4] c_1[5] c_1[6]

#-----calculation of strain and Cumulative compression--------
variable                tmp equal "lz"
variable                L0 equal ${tmp}
variable                L0 equal 535.896517
variable                strain equal "(lz - v_L0)/v_L0"
variable                Cumulativels equal "(lz - v_L0)/10"
fix Step all print 100 "${strain} ${Cumulativels} ${zstress}" file grapoten.txt screen no

dump 2 all custom ${dumpstep} tension.xyz type x y z f_avestress[1] f_avestress[2] f_avestress[3] f_avestress[4] f_avestress[5] f_avestress[6]
dump 2 all custom 1000 tension.xyz type x y z f_avestress[1] f_avestress[2] f_avestress[3] f_avestress[4] f_avestress[5] f_avestress[6]

fix  1 all npt temp ${temperature} ${temperature} 0.1 y ${pressure} ${pressure} 10 x ${pressure} ${pressure} 10
fix  1 all npt temp 300 ${temperature} 0.1 y ${pressure} ${pressure} 10 x ${pressure} ${pressure} 10
fix  1 all npt temp 300 300 0.1 y ${pressure} ${pressure} 10 x ${pressure} ${pressure} 10
fix  1 all npt temp 300 300 0.1 y 0 ${pressure} 10 x ${pressure} ${pressure} 10
fix  1 all npt temp 300 300 0.1 y 0 0 10 x ${pressure} ${pressure} 10
fix  1 all npt temp 300 300 0.1 y 0 0 10 x 0 ${pressure} 10
fix  1 all npt temp 300 300 0.1 y 0 0 10 x 0 0 10

thermo_style custom step pe ke etotal lx ly lz
fix   2 all deform 1 z erate ${deformrate} remap x units box
fix   2 all deform 1 z erate 0.005 remap x units box
fix   3 all ave/time 2 500 1000 v_xstress v_ystress v_zstress file pressure.out
run   ${totaltime}
run   100000
WARNING: Dump 2 includes no atom IDs and is not sorted by ID. This may complicate post-processing tasks or visualization (src/dump.cpp:221)
Per MPI rank memory allocation (min/avg/max) = 17.15 | 17.68 | 18.3 Mbytes
   Step         PotEng         KinEng         TotEng           Lx             Ly             Lz      
         0  -151287.16      816.62682     -150470.53      200            200            535.89652    
       100  -150960.05      543.69674     -150416.36      199.98533      199.98652      536.16447    
       200  -150956.75      607.88511     -150348.87      199.91711      199.92041      536.43241    
       300  -150954.99      683.37246     -150271.61      200.00547      200.01218      536.70036    
       400  -150915.18      722.23184     -150192.95      200.00594      200.02121      536.96831    
       500  -150844.92      715.64512     -150129.28      199.91662      199.9424       537.23626    
       600  -150881.39      819.07565     -150062.31      199.96649      200.00325      537.50421    
       700  -150871.46      866.27247     -150005.19      199.99313      200.04043      537.77215    
       800  -150836.79      848.01518     -149988.78      199.93113      199.98612      538.0401     
       900  -150796.56      815.45308     -149981.11      199.94142      200.00851      538.30805    
      1000  -150794.57      819.77739     -149974.8       199.95055      200.02013      538.576      
      1100  -150822.14      822.16123     -149999.98      199.9531       200.02197      538.84395    
      1200  -150822.4       804.91071     -150017.49      199.92283      199.99817      539.1119     
      1300  -150810.02      802.70521     -150007.32      199.93877      200.02014      539.37984    
      1400  -150789.11      811.20474     -149977.91      199.96166      200.03947      539.64779    
      1500  -150783.57      811.69885     -149971.87      199.92443      199.9994       539.91574    
      1600  -150794.47      809.50709     -149984.97      199.93989      200.02204      540.18369    
      1700  -150812.68      817.01995     -149995.66      199.93318      200.01859      540.45164    
      1800  -150811.66      811.80925     -149999.85      199.92577      200.01944      540.71959    
      1900  -150811.64      823.07284     -149988.56      199.92227      200.03248      540.98753    
      2000  -150793.58      819.89522     -149973.68      199.90696      200.02349      541.25548    
      2100  -150791.96      823.86003     -149968.1       199.91473      200.03066      541.52343    
      2200  -150787.21      814.56019     -149972.65      199.90717      200.02984      541.79138    
      2300  -150808.39      826.22063     -149982.17      199.90345      200.03007      542.05933    
      2400  -150800.52      809.71978     -149990.8       199.90118      200.03046      542.32728    
      2500  -150806.86      814.80475     -149992.05      199.9          200.02673      542.59522    
      2600  -150803.71      817.86757     -149985.84      199.90022      200.02977      542.86317    
      2700  -150798.59      816.93782     -149981.65      199.89425      200.02595      543.13112    
      2800  -150804.2       820.84471     -149983.36      199.88975      200.0268       543.39907    
      2900  -150812.05      820.25277     -149991.8       199.88863      200.02808      543.66702    
      3000  -150809.33      811.26315     -149998.07      199.88273      200.02408      543.93496    
      3100  -150809.19      812.80394     -149996.39      199.87594      200.02566      544.20291    
      3200  -150812.64      823.61704     -149989.02      199.86911      200.02926      544.47086    
      3300  -150804.36      818.19581     -149986.16      199.86393      200.03413      544.73881    
      3400  -150793.86      810.1011      -149983.76      199.8609       200.0346       545.00676    
      3500  -150797.35      820.72063     -149976.63      199.85536      200.02828      545.27471    
      3600  -150798.12      825.26824     -149972.85      199.85268      200.01924      545.54265    
      3700  -150801.57      820.89412     -149980.67      199.85998      200.0183       545.8106     
      3800  -150798.43      810.00538     -149988.42      199.86747      200.01097      546.07855    
      3900  -150795.16      810.93337     -149984.23      199.86739      199.99842      546.3465     
      4000  -150779.12      814.17173     -149964.95      199.86989      199.99142      546.61445    
      4100  -150770.85      825.24504     -149945.6       199.87008      199.98616      546.8824     
      4200  -150769.05      830.20114     -149938.85      199.86408      199.97883      547.15034    
      4300  -150769.75      821.91196     -149947.84      199.86011      199.97442      547.41829    
      4400  -150760.17      806.87702     -149953.3       199.85862      199.97353      547.68624    
      4500  -150750.34      810.43283     -149939.91      199.85657      199.97491      547.95419    
      4600  -150737.4       821.71821     -149915.69      199.85472      199.97557      548.22214    
      4700  -150723.35      824.00765     -149899.34      199.85133      199.97381      548.49009    
      4800  -150719.8       824.84818     -149894.95      199.84527      199.96723      548.75803    
      4900  -150716.44      815.90347     -149900.53      199.83635      199.95803      549.02598    
      5000  -150711.4       810.72016     -149900.68      199.83027      199.95838      549.29393    
      5100  -150710.7       816.42835     -149894.27      199.81939      199.96237      549.56188    
      5200  -150704.62      818.94136     -149885.68      199.80719      199.96616      549.82983    
      5300  -150694         816.32215     -149877.68      199.79951      199.975        550.09777    
      5400  -150686.1       817.94766     -149868.15      199.78823      199.97809      550.36572    
      5500  -150667.1       810.83595     -149856.26      199.78056      199.97756      550.63367    
      5600  -150652.11      814.78489     -149837.33      199.77349      199.96767      550.90162    
      5700  -150652.94      828.78872     -149824.15      199.77089      199.95804      551.16957    
      5800  -150652.17      823.38616     -149828.79      199.77459      199.9559       551.43752    
      5900  -150650.1       814.30762     -149835.79      199.77162      199.94634      551.70546    
      6000  -150637.33      802.69011     -149834.64      199.7704       199.9385       551.97341    
      6100  -150625.56      813.15535     -149812.41      199.77016      199.93196      552.24136    
      6200  -150598.3       809.7357      -149788.57      199.76889      199.92333      552.50931    
      6300  -150597.62      825.75825     -149771.86      199.7656       199.91819      552.77726    
      6400  -150592.12      822.63538     -149769.48      199.76199      199.91687      553.04521    
      6500  -150579.22      810.95949     -149768.26      199.75088      199.91212      553.31315    
      6600  -150571.26      815.1428      -149756.11      199.73936      199.90976      553.5811     
      6700  -150551.58      812.97689     -149738.6       199.73152      199.91027      553.84905    
      6800  -150548.47      827.32512     -149721.15      199.72157      199.90806      554.117      
      6900  -150530.73      819.71107     -149711.02      199.71486      199.90599      554.38495    
      7000  -150523.47      815.66424     -149707.8       199.7076       199.90038      554.6529     
      7100  -150505.05      804.52394     -149700.52      199.70031      199.89155      554.92084    
      7200  -150502.81      816.39779     -149686.42      199.69347      199.88412      555.18879    
      7300  -150492.77      822.23671     -149670.53      199.68808      199.87812      555.45674    
      7400  -150482.8       819.68114     -149663.12      199.68479      199.87445      555.72469    
      7500  -150483.91      822.03623     -149661.87      199.67968      199.86695      555.99264    
      7600  -150468.94      813.16791     -149655.77      199.67292      199.85713      556.26058    
      7700  -150459.3       820.7907      -149638.5       199.66585      199.84861      556.52853    
      7800  -150450.39      827.65832     -149622.73      199.65917      199.84483      556.79648    
      7900  -150429.2       816.02451     -149613.18      199.65165      199.83952      557.06443    
      8000  -150415.96      810.98874     -149604.98      199.6458       199.83475      557.33238    
      8100  -150408.68      815.60909     -149593.07      199.63632      199.82501      557.60033    
      8200  -150394.66      819.03219     -149575.63      199.62662      199.81439      557.86827    
      8300  -150377.08      818.42763     -149558.65      199.62116      199.81197      558.13622    
      8400  -150375.39      827.0439      -149548.34      199.61414      199.8052       558.40417    
      8500  -150366.58      818.123       -149548.46      199.60584      199.79277      558.67212    
      8600  -150352.78      811.66568     -149541.12      199.6027       199.78395      558.94007    
      8700  -150341.33      812.80353     -149528.53      199.59974      199.77459      559.20802    
      8800  -150327.85      818.5382      -149509.31      199.59232      199.75954      559.47596    
      8900  -150318.32      828.09969     -149490.23      199.58752      199.75151      559.74391    
      9000  -150306.87      824.99393     -149481.87      199.57897      199.74312      560.01186    
      9100  -150286.47      806.91788     -149479.55      199.56802      199.73577      560.27981    
      9200  -150277.3       816.99607     -149460.3       199.56297      199.731        560.54776    
      9300  -150255.68      816.30421     -149439.38      199.55729      199.71679      560.81571    
      9400  -150238.46      813.89402     -149424.57      199.55204      199.69763      561.08365    
      9500  -150232.74      816.77183     -149415.97      199.552        199.68387      561.3516     
      9600  -150223.65      809.73416     -149413.91      199.5515       199.66926      561.61955    
      9700  -150213.17      817.00521     -149396.16      199.54427      199.65263      561.8875     
      9800  -150191.06      816.53869     -149374.52      199.53825      199.64138      562.15545    
      9900  -150167.87      812.20074     -149355.67      199.53392      199.63049      562.42339    
     10000  -150167.64      820.22632     -149347.41      199.52718      199.61855      562.69134    
     10100  -150155.97      815.15358     -149340.82      199.52154      199.60879      562.95929    
     10200  -150138.78      813.35149     -149325.43      199.51273      199.59561      563.22724    
     10300  -150125.78      819.24707     -149306.53      199.50286      199.58122      563.49519    
     10400  -150108.45      820.75822     -149287.69      199.49685      199.57117      563.76314    
     10500  -150088.76      824.32144     -149264.43      199.49009      199.55476      564.03108    
     10600  -150069.1       819.98013     -149249.12      199.48615      199.54039      564.29903    
     10700  -150062.72      817.11168     -149245.61      199.481        199.5264       564.56698    
     10800  -150047.11      813.73322     -149233.38      199.47081      199.50591      564.83493    
     10900  -150028.73      812.64478     -149216.08      199.4665       199.49281      565.10288    
     11000  -150005.98      816.5118      -149189.46      199.45966      199.48015      565.37083    
     11100  -149995.17      823.95411     -149171.21      199.44972      199.46232      565.63877    
     11200  -149988.71      828.77985     -149159.93      199.44212      199.44485      565.90672    
     11300  -149965.08      814.92484     -149150.16      199.43119      199.42578      566.17467    
     11400  -149950.71      815.87507     -149134.83      199.42283      199.40888      566.44262    
     11500  -149925.39      805.87126     -149119.52      199.41855      199.40109      566.71057    
     11600  -149918.05      823.97465     -149094.08      199.40844      199.388        566.97851    
     11700  -149892.04      821.75581     -149070.28      199.3963       199.37203      567.24646    
     11800  -149877.85      818.23543     -149059.62      199.38865      199.35671      567.51441    
     11900  -149863.24      813.89588     -149049.35      199.38396      199.33762      567.78236    
     12000  -149847.86      815.71553     -149032.15      199.37766      199.3181       568.05031    
     12100  -149828.71      816.81734     -149011.89      199.36699      199.29883      568.31826    
     12200  -149811.59      823.56537     -148988.02      199.35736      199.2825       568.5862     
     12300  -149792.92      825.4154      -148967.5       199.34798      199.26856      568.85415    
     12400  -149774.84      814.48842     -148960.35      199.33648      199.2546       569.1221     
     12500  -149760.33      812.78915     -148947.54      199.32343      199.24267      569.39005    
     12600  -149745.79      818.94147     -148926.85      199.30739      199.23063      569.658      
     12700  -149726.29      825.30345     -148900.98      199.29205      199.2182       569.92595    
     12800  -149696.46      816.63449     -148879.82      199.27806      199.20562      570.19389    
     12900  -149689.51      818.03158     -148871.48      199.26311      199.18913      570.46184    
     13000  -149665.77      805.93702     -148859.84      199.24926      199.17336      570.72979    
     13100  -149659.19      821.24716     -148837.94      199.23569      199.16196      570.99774    
     13200  -149636.14      821.29743     -148814.85      199.22044      199.15039      571.26569    
     13300  -149619.61      815.87246     -148803.73      199.2044       199.14019      571.53364    
     13400  -149608.14      814.33729     -148793.8       199.18617      199.13281      571.80158    
     13500  -149591.82      817.90701     -148773.91      199.16296      199.12109      572.06953    
     13600  -149572.97      820.2094      -148752.76      199.13918      199.11172      572.33748    
     13700  -149554.8       820.24357     -148734.55      199.11676      199.10531      572.60543    
     13800  -149536.18      815.30562     -148720.88      199.09126      199.09254      572.87338    
     13900  -149509.14      810.64247     -148698.5       199.06793      199.08007      573.14132    
     14000  -149491.07      820.64883     -148670.42      199.04997      199.07326      573.40927    
     14100  -149468.55      818.87309     -148649.68      199.02757      199.06392      573.67722    
     14200  -149453.49      812.47127     -148641.02      199.00386      199.05575      573.94517    
     14300  -149438.33      809.93003     -148628.4       198.98296      199.05429      574.21312    
     14400  -149422.79      817.00608     -148605.78      198.95587      199.04374      574.48107    
     14500  -149401.96      821.11974     -148580.84      198.93144      199.03731      574.74901    
     14600  -149380.21      821.52165     -148558.69      198.90665      199.03102      575.01696    
     14700  -149364.88      816.95722     -148547.92      198.87734      199.01532      575.28491    
     14800  -149345.17      810.63239     -148534.54      198.85365      199.00515      575.55286    
     14900  -149329.22      815.02511     -148514.19      198.83153      198.9987       575.82081    
     15000  -149302.72      817.61431     -148485.11      198.80412      198.98383      576.08876    
     15100  -149283.9       822.27888     -148461.63      198.78323      198.97466      576.3567     
     15200  -149273.66      819.10055     -148454.56      198.76436      198.96267      576.62465    
     15300  -149253.37      815.57005     -148437.8       198.74428      198.94786      576.8926     
     15400  -149222.14      811.33447     -148410.8       198.72529      198.93447      577.16055    
     15500  -149209.07      826.75326     -148382.31      198.70483      198.91567      577.4285     
     15600  -149181.49      817.30826     -148364.18      198.69021      198.89979      577.69645    
     15700  -149168.26      816.45        -148351.81      198.6754       198.88324      577.96439    
     15800  -149136.51      807.4889      -148329.02      198.65706      198.86038      578.23234    
     15900  -149119.8       816.91039     -148302.89      198.64025      198.84392      578.50029    
     16000  -149096.62      818.5198      -148278.1       198.62343      198.82961      578.76824    
     16100  -149068.51      817.67109     -148250.84      198.60382      198.80818      579.03619    
     16200  -149041.2       821.46984     -148219.73      198.58924      198.78943      579.30413    
     16300  -149021.13      819.18386     -148201.94      198.57588      198.7677       579.57208    
     16400  -149004.92      815.38816     -148189.54      198.56025      198.74516      579.84003    
     16500  -148986.62      817.0723      -148169.54      198.54642      198.73045      580.10798    
     16600  -148963.5       816.88447     -148146.62      198.52809      198.7145       580.37593    
     16700  -148933.32      816.83601     -148116.48      198.50702      198.6982       580.64388    
     16800  -148902.7       815.18908     -148087.51      198.48387      198.68297      580.91182    
     16900  -148889.18      821.47847     -148067.7       198.46065      198.66966      581.17977    
     17000  -148869.95      818.72833     -148051.22      198.43896      198.65611      581.44772    
     17100  -148847.54      814.89796     -148032.64      198.41534      198.63988      581.71567    
     17200  -148828.21      817.58711     -148010.63      198.39125      198.62348      581.98362    
     17300  -148801         819.87503     -147981.12      198.36763      198.6097       582.25157    
     17400  -148772.66      821.58244     -147951.07      198.3424       198.59722      582.51951    
     17500  -148753.59      819.53704     -147934.06      198.31475      198.58553      582.78746    
     17600  -148740.5       821.32692     -147919.17      198.28932      198.57573      583.05541    
     17700  -148718.94      817.79987     -147901.14      198.26292      198.56492      583.32336    
     17800  -148706.49      819.99173     -147886.49      198.23742      198.55558      583.59131    
     17900  -148680.87      812.69417     -147868.17      198.20888      198.54312      583.85926    
     18000  -148658.19      814.76206     -147843.43      198.18315      198.53299      584.1272     
     18100  -148630.47      812.05358     -147818.42      198.15958      198.52394      584.39515    
     18200  -148621.32      820.09009     -147801.23      198.13324      198.50691      584.6631     
     18300  -148599.77      812.3671      -147787.4       198.10963      198.49019      584.93105    
     18400  -148585.82      820.0223      -147765.8       198.08949      198.47598      585.199      
     18500  -148551.39      815.38443     -147736.01      198.0684       198.45925      585.46694    
     18600  -148521.84      820.15445     -147701.69      198.04704      198.44095      585.73489    
     18700  -148493.13      816.53429     -147676.6       198.02816      198.42535      586.00284    
     18800  -148469.51      816.75915     -147652.75      198.00951      198.40787      586.27079    
     18900  -148450.23      816.37837     -147633.85      197.99437      198.38876      586.53874    
     19000  -148431.97      810.95918     -147621.01      197.97996      198.36547      586.80669    
     19100  -148401.92      807.82331     -147594.1       197.96656      198.34089      587.07463    
     19200  -148377.59      816.30948     -147561.28      197.95282      198.31691      587.34258    
     19300  -148345.13      814.64003     -147530.49      197.93881      198.2927       587.61053    
     19400  -148312.39      811.04609     -147501.35      197.92572      198.2725       587.87848    
     19500  -148290.19      817.2218      -147472.97      197.91161      198.2504       588.14643    
     19600  -148262.78      821.09702     -147441.68      197.89759      198.22991      588.41438    
     19700  -148233.38      824.75815     -147408.62      197.88416      198.21165      588.68232    
     19800  -148201.71      812.41859     -147389.29      197.86821      198.19055      588.95027    
     19900  -148191.27      818.0651      -147373.21      197.85125      198.17108      589.21822    
     20000  -148161.56      813.57848     -147347.98      197.83353      198.15472      589.48617    
     20100  -148140.29      818.19264     -147322.1       197.81348      198.13511      589.75412    
     20200  -148112.56      813.59926     -147298.96      197.79623      198.11853      590.02207    
     20300  -148081.24      808.24704     -147272.99      197.7808       198.10176      590.29001    
     20400  -148054.29      814.48962     -147239.8       197.7631       198.08038      590.55796    
     20500  -148030.45      821.06119     -147209.39      197.74655      198.06331      590.82591    
     20600  -148004.63      816.91439     -147187.71      197.72997      198.04598      591.09386    
     20700  -147988.5       814.48773     -147174.01      197.7116       198.02558      591.36181    
     20800  -147959.01      810.73039     -147148.28      197.69486      198.01187      591.62975    
     20900  -147933.25      817.53222     -147115.72      197.6737       197.99542      591.8977     
     21000  -147906.13      819.04273     -147087.08      197.65118      197.9789       592.16565    
     21100  -147884.15      821.1246      -147063.03      197.63109      197.96572      592.4336     
     21200  -147860.42      814.75988     -147045.66      197.61146      197.94888      592.70155    
     21300  -147839.51      811.42488     -147028.08      197.5915       197.93029      592.9695     
     21400  -147806.56      811.61762     -146994.94      197.57168      197.91354      593.23744    
     21500  -147775.32      814.82106     -146960.49      197.55353      197.90255      593.50539    
     21600  -147742.71      811.4234      -146931.28      197.5342       197.89063      593.77334    
     21700  -147720.66      816.36319     -146904.29      197.51256      197.8748       594.04129    
     21800  -147693.91      812.00475     -146881.91      197.49394      197.8647       594.30924    
     21900  -147672         812.38942     -146859.62      197.47577      197.84867      594.57719    
     22000  -147648.91      817.81545     -146831.1       197.45952      197.82859      594.84513    
     22100  -147611.23      817.53134     -146793.7       197.44587      197.81073      595.11308    
     22200  -147588.29      823.51858     -146764.77      197.43231      197.79013      595.38103    
     22300  -147558.16      813.85625     -146744.3       197.42109      197.76904      595.64898    
     22400  -147536.24      815.43283     -146720.81      197.41119      197.7477       595.91693    
     22500  -147504.85      811.11503     -146693.74      197.40097      197.72511      596.18488    
     22600  -147474.54      815.13715     -146659.4       197.39186      197.70565      596.45282    
     22700  -147443.74      819.12227     -146624.61      197.38343      197.68792      596.72077    
     22800  -147417.7       818.9546      -146598.75      197.37398      197.67329      596.98872    
     22900  -147386.17      810.48788     -146575.68      197.36258      197.65611      597.25667    
     23000  -147360.54      813.65476     -146546.88      197.34924      197.6349       597.52462    
     23100  -147321.69      814.82028     -146506.87      197.33651      197.61628      597.79256    
     23200  -147292.99      819.21319     -146473.78      197.32092      197.5924       598.06051    
     23300  -147268.34      819.37805     -146448.96      197.30577      197.56948      598.32846    
     23400  -147243.29      815.87031     -146427.41      197.29341      197.55618      598.59641    
     23500  -147214.72      813.68205     -146401.04      197.27767      197.54387      598.86436    
     23600  -147187.58      816.84619     -146370.73      197.26134      197.5382       599.13231    
     23700  -147153.25      822.16472     -146331.09      197.24513      197.53048      599.40025    
     23800  -147123.92      821.78119     -146302.14      197.22675      197.51129      599.6682     
     23900  -147103.75      820.05742     -146283.69      197.21439      197.49607      599.93615    
     24000  -147080.46      821.63405     -146258.82      197.20043      197.47521      600.2041     
     24100  -147052.44      818.3764      -146234.07      197.18649      197.45074      600.47205    
     24200  -147027.59      817.30122     -146210.29      197.17637      197.43388      600.74       
     24300  -146993.44      811.06586     -146182.38      197.16421      197.41397      601.00794    
     24400  -146962.02      812.41508     -146149.61      197.15347      197.39558      601.27589    
     24500  -146939.29      827.28261     -146112.01      197.14694      197.37846      601.54384    
     24600  -146901.92      821.09064     -146080.83      197.14051      197.35724      601.81179    
     24700  -146869.81      811.38817     -146058.42      197.13401      197.3414       602.07974    
     24800  -146849.62      816.28863     -146033.33      197.12689      197.32667      602.34769    
     24900  -146810.34      813.20925     -145997.13      197.11506      197.3072       602.61563    
     25000  -146773.44      817.80702     -145955.63      197.10161      197.29155      602.88358    
     25100  -146745.76      817.93268     -145927.83      197.08892      197.2757       603.15153    
     25200  -146718.62      813.24846     -145905.37      197.07514      197.25375      603.41948    
     25300  -146688.72      808.64783     -145880.08      197.06446      197.23862      603.68743    
     25400  -146656.55      814.69486     -145841.85      197.05111      197.22103      603.95537    
     25500  -146624.15      818.6639      -145805.49      197.03575      197.20236      604.22332    
     25600  -146593.39      814.5491      -145778.84      197.02525      197.19323      604.49127    
     25700  -146570.43      815.81905     -145754.61      197.01107      197.1787       604.75922    
     25800  -146541.53      810.74418     -145730.79      196.99987      197.17009      605.02717    
     25900  -146517.5       814.38371     -145703.12      196.98897      197.16405      605.29512    
     26000  -146472.87      813.10973     -145659.76      196.97309      197.14892      605.56306    
     26100  -146443.48      820.08051     -145623.4       196.96065      197.13932      605.83101    
     26200  -146415.4       816.00215     -145599.4       196.94703      197.12559      606.09896    
     26300  -146394.36      816.72539     -145577.63      196.93087      197.10551      606.36691    
     26400  -146371.19      817.80269     -145553.39      196.91568      197.09349      606.63486    
     26500  -146339.79      812.4139      -145527.38      196.8975       197.07968      606.90281    
     26600  -146309.17      812.32244     -145496.84      196.87785      197.07049      607.17075    
     26700  -146272.76      818.65796     -145454.1       196.85994      197.0701       607.4387     
     26800  -146241.01      823.32284     -145417.68      196.83919      197.05873      607.70665    
     26900  -146214.37      818.79721     -145395.57      196.82279      197.04771      607.9746     
     27000  -146179.38      808.6091      -145370.78      196.81288      197.03695      608.24255    
     27100  -146155.11      815.55849     -145339.56      196.80227      197.01073      608.5105     
     27200  -146124.11      818.79562     -145305.31      196.80003      196.99292      608.77844    
     27300  -146083.18      821.07761     -145262.11      196.79907      196.97488      609.04639    
     27400  -146050.69      821.61802     -145229.07      196.79509      196.95425      609.31434    
     27500  -146018.53      815.54799     -145202.99      196.79369      196.94739      609.58229    
     27600  -145988.98      815.36024     -145173.62      196.78473      196.93224      609.85024    
     27700  -145951.71      811.70489     -145140         196.77336      196.91567      610.11818    
     27800  -145911.06      817.33362     -145093.73      196.7643       196.90435      610.38613    
     27900  -145885.16      824.28668     -145060.87      196.74932      196.88188      610.65408    
     28000  -145849.27      810.59103     -145038.68      196.73591      196.86606      610.92203    
     28100  -145829.12      816.85829     -145012.27      196.7225       196.85523      611.18998    
     28200  -145796.42      811.82565     -144984.59      196.70504      196.84007      611.45793    
     28300  -145773.5       815.211       -144958.29      196.69093      196.83401      611.72587    
     28400  -145749.27      814.1191      -144935.15      196.67479      196.82536      611.99382    
     28500  -145715.85      806.44378     -144909.41      196.65704      196.81604      612.26177    
     28600  -145679.11      811.83911     -144867.27      196.64371      196.81054      612.52972    
     28700  -145646.85      821.33735     -144825.51      196.63086      196.79311      612.79767    
     28800  -145613.05      820.466       -144792.58      196.6219       196.77385      613.06562    
     28900  -145587.44      821.22379     -144766.21      196.61549      196.759        613.33356    
     29000  -145554.63      813.56502     -144741.06      196.60704      196.74253      613.60151    
     29100  -145517.53      811.39528     -144706.13      196.59865      196.73019      613.86946    
     29200  -145477.29      814.24525     -144663.04      196.5866       196.71697      614.13741    
     29300  -145451.23      820.6363      -144630.59      196.57248      196.70318      614.40536    
     29400  -145416.94      816.82767     -144600.11      196.55986      196.6931       614.6733     
     29500  -145386.75      814.88796     -144571.87      196.54581      196.67927      614.94125    
     29600  -145352.56      807.74513     -144544.82      196.53479      196.66753      615.2092     
     29700  -145315.19      808.03444     -144507.16      196.52566      196.65281      615.47715    
     29800  -145283.38      819.92018     -144463.46      196.51591      196.63339      615.7451     
     29900  -145247.88      818.88614     -144428.99      196.50691      196.619        616.01305    
     30000  -145215.8       814.0866      -144401.71      196.49606      196.60441      616.28099    
     30100  -145184.46      808.95261     -144375.51      196.48406      196.59018      616.54894    
     30200  -145149.19      813.17744     -144336.01      196.4748       196.58027      616.81689    
     30300  -145115.22      821.9719      -144293.25      196.4643       196.56476      617.08484    
     30400  -145082.99      820.84456     -144262.14      196.45427      196.55016      617.35279    
     30500  -145053.38      817.56709     -144235.82      196.44705      196.53869      617.62074    
     30600  -145021.2       814.26488     -144206.94      196.43701      196.51975      617.88868    
     30700  -144983.81      815.15279     -144168.66      196.42738      196.50242      618.15663    
     30800  -144951.24      826.10263     -144125.14      196.41894      196.48909      618.42458    
     30900  -144914.58      819.97426     -144094.6       196.40603      196.47081      618.69253    
     31000  -144887.22      819.53897     -144067.68      196.39378      196.45719      618.96048    
     31100  -144852.78      814.48746     -144038.29      196.38322      196.44603      619.22843    
     31200  -144820.98      816.11159     -144004.87      196.37071      196.42698      619.49637    
     31300  -144771.73      805.52203     -143966.21      196.36163      196.41265      619.76432    
     31400  -144744.97      823.17716     -143921.79      196.35377      196.39891      620.03227    
     31500  -144708.61      820.78558     -143887.82      196.34325      196.38019      620.30022    
     31600  -144678.78      819.11869     -143859.66      196.33492      196.36556      620.56817    
     31700  -144650.72      812.66908     -143838.05      196.32586      196.35119      620.83611    
     31800  -144611.78      809.08264     -143802.7       196.31573      196.33784      621.10406    
     31900  -144567.72      808.18651     -143759.53      196.30901      196.32941      621.37201    
     32000  -144528.09      811.89623     -143716.19      196.30134      196.31318      621.63996    
     32100  -144482.67      807.77321     -143674.9       196.29449      196.29655      621.90791    
     32200  -144447.52      814.23294     -143633.29      196.28829      196.28282      622.17586    
     32300  -144411.5       816.77054     -143594.73      196.2791       196.2667       622.4438     
     32400  -144376.19      815.08468     -143561.1       196.26819      196.25348      622.71175    
     32500  -144351.19      812.11603     -143539.08      196.25454      196.24381      622.9797     
     32600  -144322.01      812.94341     -143509.07      196.23906      196.23802      623.24765    
     32700  -144279.93      809.47489     -143470.45      196.22308      196.23162      623.5156     
     32800  -144240.42      813.63607     -143426.78      196.20567      196.21952      623.78355    
     32900  -144219.36      828.05042     -143391.31      196.18918      196.20612      624.05149    
     33000  -144180.75      818.7995      -143361.95      196.17233      196.18983      624.31944    
     33100  -144143.01      812.48074     -143330.53      196.15475      196.1735       624.58739    
     33200  -144115.14      818.96232     -143296.18      196.13963      196.16261      624.85534    
     33300  -144076.39      813.82505     -143262.57      196.12582      196.15341      625.12329    
     33400  -144044.63      812.60495     -143232.03      196.11514      196.14461      625.39124    
     33500  -144017.93      816.79836     -143201.13      196.10702      196.13376      625.65918    
     33600  -143970.69      809.26836     -143161.42      196.0993       196.11516      625.92713    
     33700  -143934.8       818.5122      -143116.29      196.09449      196.09407      626.19508    
     33800  -143892.8       816.60276     -143076.19      196.09029      196.07186      626.46303    
     33900  -143856.45      816.8752      -143039.58      196.08386      196.04862      626.73098    
     34000  -143819.82      813.41221     -143006.4       196.0776       196.03273      626.99892    
     34100  -143788.09      815.22677     -142972.86      196.06727      196.01618      627.26687    
     34200  -143746.59      813.09886     -142933.49      196.05567      196.00132      627.53482    
     34300  -143711.93      821.64485     -142890.29      196.04416      195.98826      627.80277    
     34400  -143674.72      824.51102     -142850.21      196.03138      195.97062      628.07072    
     34500  -143639.74      819.36695     -142820.38      196.01958      195.95355      628.33867    
     34600  -143610.49      814.78563     -142795.7       196.0079       195.93599      628.60661    
     34700  -143572.82      812.54327     -142760.28      195.99647      195.91714      628.87456    
     34800  -143543.7       824.2152      -142719.49      195.98625      195.90061      629.14251    
     34900  -143504.59      825.38362     -142679.2       195.97576      195.88601      629.41046    
     35000  -143455.45      814.7963      -142640.65      195.96509      195.87236      629.67841    
     35100  -143420.67      819.83475     -142600.84      195.95585      195.85871      629.94636    
     35200  -143389.67      823.99175     -142565.68      195.94748      195.84243      630.2143     
     35300  -143355.52      817.65974     -142537.86      195.94016      195.82364      630.48225    
     35400  -143314.98      809.14784     -142505.84      195.93304      195.80377      630.7502     
     35500  -143283.85      818.47553     -142465.37      195.9249       195.78385      631.01815    
     35600  -143244.6       826.99663     -142417.61      195.91483      195.76419      631.2861     
     35700  -143197.31      815.48161     -142381.83      195.9042       195.74789      631.55405    
     35800  -143163.42      813.8256      -142349.59      195.89195      195.73263      631.82199    
     35900  -143120.89      802.84732     -142318.05      195.87898      195.71824      632.08994    
     36000  -143092.82      807.58936     -142285.23      195.86686      195.70578      632.35789    
     36100  -143057.76      815.4763      -142242.28      195.85612      195.69027      632.62584    
     36200  -143015.81      820.0271      -142195.78      195.84682      195.67124      632.89379    
     36300  -142977.22      821.09637     -142156.12      195.83997      195.65327      633.16173    
     36400  -142935.9       813.4284      -142122.48      195.83237      195.63405      633.42968    
     36500  -142902.91      807.59103     -142095.32      195.82291      195.61636      633.69763    
     36600  -142871.68      811.5552      -142060.12      195.81222      195.60403      633.96558    
     36700  -142828.48      816.96707     -142011.51      195.7994       195.59212      634.23353    
     36800  -142786.71      814.45952     -141972.26      195.78464      195.57935      634.50148    
     36900  -142752.93      815.16601     -141937.76      195.76959      195.56681      634.76942    
     37000  -142718.32      814.95719     -141903.37      195.75479      195.55349      635.03737    
     37100  -142689.93      817.24447     -141872.69      195.74019      195.53921      635.30532    
     37200  -142652.28      808.70852     -141843.57      195.72563      195.52457      635.57327    
     37300  -142619.23      815.44533     -141803.78      195.71109      195.50954      635.84122    
     37400  -142571.44      817.98893     -141753.45      195.69728      195.49323      636.10917    
     37500  -142533.09      817.28962     -141715.8       195.68562      195.47872      636.37711    
     37600  -142500.77      817.62487     -141683.15      195.67415      195.46166      636.64506    
     37700  -142468.06      815.2411      -141652.82      195.66451      195.44577      636.91301    
     37800  -142427.38      813.96862     -141613.41      195.65657      195.43132      637.18096    
     37900  -142381.25      818.49196     -141562.76      195.64676      195.41071      637.44891    
     38000  -142338.76      815.60295     -141523.16      195.63839      195.39387      637.71686    
     38100  -142295.81      813.72384     -141482.09      195.62937      195.37882      637.9848     
     38200  -142263.38      824.01951     -141439.36      195.618        195.36031      638.25275    
     38300  -142226.97      823.64631     -141403.32      195.60858      195.34715      638.5207     
     38400  -142189.38      811.97315     -141377.41      195.59681      195.33298      638.78865    
     38500  -142154.49      813.67654     -141340.81      195.58086      195.31563      639.0566     
     38600  -142109.48      812.51417     -141296.97      195.56577      195.30329      639.32454    
     38700  -142070.98      815.23737     -141255.75      195.54864      195.28911      639.59249    
     38800  -142042.94      825.55641     -141217.38      195.53003      195.27349      639.86044    
     38900  -141998.24      817.83879     -141180.4       195.51247      195.26067      640.12839    
     39000  -141971.57      823.16726     -141148.41      195.49369      195.2471       640.39634    
     39100  -141930.41      808.70617     -141121.7       195.47549      195.23569      640.66429    
     39200  -141893.58      809.22805     -141084.35      195.45972      195.22462      640.93223    
     39300  -141854.03      815.30413     -141038.72      195.4453       195.21062      641.20018    
     39400  -141819.47      821.19785     -140998.28      195.43252      195.19678      641.46813    
     39500  -141776.05      813.8083      -140962.24      195.42038      195.18276      641.73608    
     39600  -141739.24      813.25237     -140925.99      195.40828      195.16716      642.00403    
     39700  -141698.68      811.08735     -140887.6       195.39714      195.1509       642.27198    
     39800  -141666.34      824.31168     -140842.03      195.38664      195.13212      642.53992    
     39900  -141617.72      817.31262     -140800.41      195.37652      195.11241      642.80787    
     40000  -141580.78      813.14416     -140767.63      195.36645      195.09496      643.07582    
     40100  -141552.61      814.55267     -140738.06      195.35368      195.07628      643.34377    
     40200  -141505.36      808.5346      -140696.82      195.34231      195.05993      643.61172    
     40300  -141462.34      816.68896     -140645.65      195.33163      195.0441       643.87967    
     40400  -141425.8       819.21292     -140606.58      195.31949      195.02575      644.14761    
     40500  -141386.73      817.55442     -140569.17      195.30937      195.01084      644.41556    
     40600  -141349.52      817.98139     -140531.54      195.30009      194.99602      644.68351    
     40700  -141309.25      818.22765     -140491.02      195.28987      194.9769       644.95146    
     40800  -141263.06      818.1703      -140444.89      195.28085      194.95895      645.21941    
     40900  -141221.83      818.91357     -140402.92      195.27005      194.93893      645.48735    
     41000  -141193.08      818.15116     -140374.93      195.25794      194.91901      645.7553     
     41100  -141155.93      812.3981      -140343.53      195.24758      194.90402      646.02325    
     41200  -141113.03      808.82997     -140304.2       195.23498      194.88551      646.2912     
     41300  -141076.5       816.42269     -140260.08      195.22211      194.8666       646.55915    
     41400  -141040.55      825.85649     -140214.69      195.20944      194.85186      646.8271     
     41500  -140999.2       824.88605     -140174.31      195.19403      194.83401      647.09504    
     41600  -140965.73      818.75836     -140146.98      195.17977      194.81538      647.36299    
     41700  -140931.27      815.79826     -140115.47      195.16811      194.79841      647.63094    
     41800  -140893.16      818.27307     -140074.89      195.15657      194.77765      647.89889    
     41900  -140844.63      816.69412     -140027.93      195.14801      194.75754      648.16684    
     42000  -140805.51      822.3762      -139983.13      195.14063      194.73894      648.43479    
     42100  -140763.7       819.40407     -139944.3       195.13153      194.71938      648.70273    
     42200  -140721         814.2324      -139906.77      195.12302      194.70243      648.97068    
     42300  -140683.23      814.98366     -139868.24      195.11312      194.68674      649.23863    
     42400  -140652.78      823.97067     -139828.81      195.09985      194.67089      649.50658    
     42500  -140606.98      818.76119     -139788.21      195.08622      194.65866      649.77453    
     42600  -140573.44      821.33308     -139752.11      195.07172      194.64629      650.04248    
     42700  -140536.44      814.34682     -139722.1       195.05477      194.63035      650.31042    
     42800  -140499.35      812.45539     -139686.89      195.03924      194.61649      650.57837    
     42900  -140456.05      814.60606     -139641.44      195.02334      194.60056      650.84632    
     43000  -140413.57      819.50976     -139594.06      195.00638      194.58242      651.11427    
     43100  -140376.82      819.98316     -139556.84      194.99187      194.56803      651.38222    
     43200  -140345.66      822.93287     -139522.73      194.97849      194.55185      651.65016    
     43300  -140305.34      816.67776     -139488.66      194.96452      194.53331      651.91811    
     43400  -140264.58      814.23974     -139450.34      194.95249      194.51952      652.18606    
     43500  -140226.76      817.89125     -139408.87      194.94002      194.50469      652.45401    
     43600  -140186.59      819.40445     -139367.18      194.92743      194.48857      652.72196    
     43700  -140142.35      815.77977     -139326.57      194.91683      194.47277      652.98991    
     43800  -140103.73      818.72321     -139285.01      194.9061       194.45156      653.25785    
     43900  -140063.68      828.27327     -139235.41      194.89624      194.42972      653.5258     
     44000  -140017.71      826.11638     -139191.59      194.88536      194.41157      653.79375    
     44100  -139975.86      814.2774      -139161.58      194.87213      194.39493      654.0617     
     44200  -139944.04      816.93482     -139127.11      194.85727      194.3803       654.32965    
     44300  -139903.44      816.84579     -139086.59      194.84235      194.36761      654.5976     
     44400  -139865.43      820.50279     -139044.93      194.82601      194.35506      654.86554    
     44500  -139818.44      818.09872     -139000.34      194.80943      194.34265      655.13349    
     44600  -139781.34      825.22803     -138956.11      194.79377      194.33049      655.40144    
     44700  -139738.47      819.85202     -138918.62      194.77876      194.31522      655.66939    
     44800  -139708.04      817.32134     -138890.72      194.76539      194.29777      655.93734    
     44900  -139666.06      811.45253     -138854.6       194.75142      194.27905      656.20529    
     45000  -139636.34      822.26041     -138814.08      194.73563      194.26265      656.47323    
     45100  -139592.43      820.65335     -138771.78      194.71848      194.25085      656.74118    
     45200  -139542.7       812.48085     -138730.21      194.70042      194.24105      657.00913    
     45300  -139517.41      823.93892     -138693.47      194.68224      194.23078      657.27708    
     45400  -139474.93      813.17638     -138661.75      194.66504      194.21878      657.54503    
     45500  -139439.02      812.68658     -138626.33      194.64993      194.20608      657.81297    
     45600  -139401.45      818.56406     -138582.89      194.63565      194.19148      658.08092    
     45700  -139354.17      823.90203     -138530.27      194.62284      194.17186      658.34887    
     45800  -139307.17      816.5044      -138490.67      194.61366      194.15185      658.61682    
     45900  -139270.95      814.0913      -138456.86      194.60523      194.13017      658.88477    
     46000  -139228.27      808.07444     -138420.19      194.59606      194.10873      659.15272    
     46100  -139191.82      813.43722     -138378.38      194.5878       194.09225      659.42066    
     46200  -139151.53      816.66037     -138334.87      194.57802      194.07613      659.68861    
     46300  -139107.96      815.22959     -138292.73      194.56765      194.06048      659.95656    
     46400  -139069.78      817.45547     -138252.33      194.55736      194.04665      660.22451    
     46500  -139029.39      816.635       -138212.75      194.54602      194.03042      660.49246    
     46600  -138986.03      812.54616     -138173.48      194.53446      194.01188      660.76041    
     46700  -138952.04      816.94375     -138135.1       194.52385      193.99423      661.02835    
     46800  -138909.95      811.4235      -138098.53      194.51183      193.97394      661.2963     
     46900  -138868.56      807.74894     -138060.82      194.49887      193.95315      661.56425    
     47000  -138843.02      822.55209     -138020.47      194.4864       193.93554      661.8322     
     47100  -138795.22      821.17503     -137974.05      194.47259      193.91847      662.10015    
     47200  -138751.6       824.82382     -137926.78      194.4583       193.90243      662.3681     
     47300  -138716.39      826.23152     -137890.16      194.44553      193.88847      662.63604    
     47400  -138679.4       817.35745     -137862.04      194.43444      193.87452      662.90399    
     47500  -138640.58      819.20265     -137821.38      194.42511      193.85853      663.17194    
     47600  -138597.31      818.91754     -137778.4       194.41724      193.84156      663.43989    
     47700  -138548.98      818.52462     -137730.45      194.40934      193.82258      663.70784    
     47800  -138503.88      820.07724     -137683.8       194.40052      193.80335      663.97578    
     47900  -138470.51      819.78618     -137650.73      194.3903       193.7846       664.24373    
     48000  -138438.98      818.36128     -137620.62      194.37837      193.76572      664.51168    
     48100  -138387.41      808.66283     -137578.75      194.36538      193.74845      664.77963    
     48200  -138347.01      815.65099     -137531.36      194.35169      193.73331      665.04758    
     48300  -138308.05      823.03492     -137485.01      194.33742      193.71906      665.31553    
     48400  -138269.13      822.00407     -137447.12      194.32254      193.70622      665.58347    
     48500  -138230.29      809.86937     -137420.42      194.30692      193.6927       665.85142    
     48600  -138196.71      817.85099     -137378.86      194.29246      193.67883      666.11937    
     48700  -138151.87      821.48324     -137330.39      194.27985      193.66564      666.38732    
     48800  -138105.02      818.81949     -137286.2       194.26767      193.65094      666.65527    
     48900  -138069.25      814.90748     -137254.34      194.25642      193.6348       666.92322    
     49000  -138037.01      816.32559     -137220.69      194.24538      193.61871      667.19116    
     49100  -137988.92      811.46674     -137177.46      194.23354      193.60229      667.45911    
     49200  -137953.3       820.20946     -137133.09      194.22021      193.58492      667.72706    
     49300  -137906.41      813.75361     -137092.66      194.20578      193.56757      667.99501    
     49400  -137877.26      816.05287     -137061.21      194.1909       193.55137      668.26296    
     49500  -137834.18      809.99728     -137024.19      194.17632      193.53426      668.5309     
     49600  -137792.63      815.43701     -136977.19      194.16137      193.51576      668.79885    
     49700  -137743.79      815.46018     -136928.33      194.1481       193.49937      669.0668     
     49800  -137711.74      824.11566     -136887.62      194.13733      193.48415      669.33475    
     49900  -137664.27      815.49891     -136848.77      194.12775      193.46737      669.6027     
     50000  -137627.93      817.52209     -136810.41      194.11877      193.45224      669.87065    
     50100  -137584.42      807.37767     -136777.04      194.11006      193.43871      670.13859    
     50200  -137548.98      808.09328     -136740.89      194.09912      193.42367      670.40654    
     50300  -137504.75      816.70776     -136688.05      194.08684      193.41172      670.67449    
     50400  -137462.29      821.19525     -136641.09      194.07274      193.40091      670.94244    
     50500  -137416.22      816.96239     -136599.26      194.05615      193.38797      671.21039    
     50600  -137379.6       818.18657     -136561.42      194.03932      193.37571      671.47834    
     50700  -137346.65      817.80213     -136528.85      194.02267      193.36353      671.74628    
     50800  -137305.91      816.92891     -136488.98      194.00512      193.34967      672.01423    
     50900  -137260.15      815.45038     -136444.69      193.98742      193.33827      672.28218    
     51000  -137213.61      816.28658     -136397.33      193.97022      193.32659      672.55013    
     51100  -137179.12      826.31397     -136352.81      193.95301      193.31243      672.81808    
     51200  -137145.27      822.21662     -136323.06      193.93705      193.29857      673.08603    
     51300  -137105.79      815.94132     -136289.85      193.9226       193.28409      673.35397    
     51400  -137059.63      806.61487     -136253.01      193.90909      193.26686      673.62192    
     51500  -137023.23      814.36986     -136208.86      193.89824      193.2511       673.88987    
     51600  -136982.61      824.46706     -136158.14      193.88853      193.23434      674.15782    
     51700  -136936.15      822.70899     -136113.44      193.87965      193.2149       674.42577    
     51800  -136902.59      817.4147      -136085.17      193.87142      193.19639      674.69371    
     51900  -136861.65      814.17103     -136047.48      193.8622       193.17837      674.96166    
     52000  -136814.49      812.30446     -136002.18      193.85251      193.16107      675.22961    
     52100  -136772.89      819.63847     -135953.25      193.84262      193.14474      675.49756    
     52200  -136732.9       825.97146     -135906.93      193.83181      193.1276       675.76551    
     52300  -136690.54      819.99292     -135870.55      193.82128      193.11171      676.03346    
     52400  -136652.67      813.53302     -135839.14      193.81001      193.09644      676.3014     
     52500  -136605.54      808.90203     -135796.64      193.79822      193.08069      676.56935    
     52600  -136567.17      817.63087     -135749.54      193.78727      193.0676       676.8373     
     52700  -136523.46      820.55049     -135702.91      193.77439      193.05148      677.10525    
     52800  -136477.1       812.86465     -135664.23      193.76152      193.03547      677.3732     
     52900  -136448.05      815.48999     -135632.56      193.74997      193.02058      677.64115    
     53000  -136408.34      815.24252     -135593.1       193.73767      193.00066      677.90909    
     53100  -136368.28      821.09729     -135547.18      193.72651      192.98196      678.17704    
     53200  -136320.09      820.91374     -135499.18      193.7158       192.96496      678.44499    
     53300  -136272.58      813.48632     -135459.1       193.70517      192.94678      678.71294    
     53400  -136243.6       816.28908     -135427.31      193.696        192.92963      678.98089    
     53500  -136203.79      816.29905     -135387.49      193.68641      192.91107      679.24884    
     53600  -136157.2       813.82713     -135343.38      193.67599      192.89381      679.51678    
     53700  -136120.75      826.60362     -135294.15      193.66533      192.87998      679.78473    
     53800  -136073.83      829.99251     -135243.83      193.65302      192.86383      680.05268    
     53900  -136027.06      818.04011     -135209.02      193.64136      192.84852      680.32063    
     54000  -135995.24      820.94131     -135174.3       193.63015      192.83379      680.58858    
     54100  -135956.95      822.67753     -135134.27      193.61643      192.81541      680.85652    
     54200  -135914.75      820.1757      -135094.57      193.60367      192.80019      681.12447    
     54300  -135875.46      818.4671      -135057         193.59017      192.78535      681.39242    
     54400  -135835.69      812.94322     -135022.74      193.5756       192.76869      681.66037    
     54500  -135793.75      814.55945     -134979.19      193.56248      192.75269      681.92832    
     54600  -135744.43      821.89437     -134922.54      193.54905      192.73481      682.19627    
     54700  -135702.8       826.4495      -134876.35      193.53574      192.71878      682.46421    
     54800  -135661.53      820.06873     -134841.46      193.52349      192.705        682.73216    
     54900  -135626.51      819.07426     -134807.43      193.51085      192.68916      683.00011    
     55000  -135588.36      817.77091     -134770.58      193.49897      192.67473      683.26806    
     55100  -135548.89      817.03184     -134731.86      193.48785      192.66096      683.53601    
     55200  -135501.39      812.70888     -134688.68      193.47544      192.64264      683.80396    
     55300  -135454.01      816.96953     -134637.04      193.46424      192.62786      684.0719     
     55400  -135413.22      827.68481     -134585.54      193.45206      192.61177      684.33985    
     55500  -135363.32      814.16385     -134549.16      193.43977      192.5946       684.6078     
     55600  -135323.48      810.85583     -134512.63      193.42927      192.58041      684.87575    
     55700  -135285.77      814.80423     -134470.96      193.41738      192.56209      685.1437     
     55800  -135248.61      819.70554     -134428.9       193.40545      192.54453      685.41165    
     55900  -135203.12      813.79077     -134389.33      193.39405      192.53164      685.67959    
     56000  -135165.68      809.8526      -134355.83      193.37922      192.5159       685.94754    
     56100  -135123.87      812.17559     -134311.69      193.36413      192.50301      686.21549    
     56200  -135077.09      813.80626     -134263.28      193.34892      192.49303      686.48344    
     56300  -135035.98      817.8805      -134218.1       193.33111      192.47799      686.75139    
     56400  -134994.91      817.72265     -134177.18      193.31496      192.46538      687.01933    
     56500  -134963.8       825.44692     -134138.35      193.29903      192.45409      687.28728    
     56600  -134921.19      820.21397     -134100.97      193.28164      192.43849      687.55523    
     56700  -134882.42      820.44475     -134061.97      193.26664      192.42534      687.82318    
     56800  -134843.12      820.74574     -134022.37      193.25183      192.41128      688.09113    
     56900  -134802.51      821.43861     -133981.07      193.23736      192.39455      688.35908    
     57000  -134754.38      817.03057     -133937.35      193.22519      192.37882      688.62702    
     57100  -134706.39      811.93106     -133894.46      193.21241      192.362        688.89497    
     57200  -134675.87      823.12951     -133852.74      193.19914      192.34604      689.16292    
     57300  -134633.52      820.28817     -133813.23      193.1856       192.33242      689.43087    
     57400  -134583.1       807.64863     -133775.45      193.17177      192.31733      689.69882    
     57500  -134553.96      818.96432     -133735         193.15879      192.30295      689.96677    
     57600  -134502.97      808.99549     -133693.98      193.14737      192.28752      690.23471    
     57700  -134464.62      811.05818     -133653.56      193.1377       192.27008      690.50266    
     57800  -134419.99      818.09465     -133601.89      193.12991      192.25234      690.77061    
     57900  -134371.15      821.89029     -133549.26      193.12173      192.23187      691.03856    
     58000  -134325.98      824.24947     -133501.73      193.11324      192.21155      691.30651    
     58100  -134285.93      820.19709     -133465.74      193.10371      192.19134      691.57446    
     58200  -134246.93      820.93503     -133426         193.09276      192.17013      691.8424     
     58300  -134205.77      821.80985     -133383.96      193.08068      192.15188      692.11035    
     58400  -134155.76      811.53146     -133344.22      193.06701      192.13518      692.3783     
     58500  -134114.68      811.26213     -133303.41      193.0529       192.12005      692.64625    
     58600  -134081.97      818.37256     -133263.59      193.03889      192.10529      692.9142     
     58700  -134035.23      804.66597     -133230.56      193.02399      192.08818      693.18214    
     58800  -133999.22      817.14734     -133182.07      193.01112      192.07284      693.45009    
     58900  -133954.03      824.38538     -133129.64      192.99836      192.05562      693.71804    
     59000  -133904.62      822.15862     -133082.46      192.98541      192.037        693.98599    
     59100  -133859.63      810.9718      -133048.66      192.97442      192.01942      694.25394    
     59200  -133824.31      817.24939     -133007.06      192.96384      191.9996       694.52189    
     59300  -133775.26      814.95795     -132960.3       192.95313      191.9786       694.78983    
     59400  -133729.79      817.35212     -132912.44      192.94391      191.96069      695.05778    
     59500  -133689.72      817.86574     -132871.86      192.93364      191.94021      695.32573    
     59600  -133642.71      809.18218     -132833.53      192.92303      191.92174      695.59368    
     59700  -133601.12      813.72435     -132787.39      192.91182      191.90595      695.86163    
     59800  -133555.27      815.49027     -132739.78      192.89865      191.88721      696.12958    
     59900  -133519.97      820.34446     -132699.63      192.88584      191.87234      696.39752    
     60000  -133480.97      818.12059     -132662.85      192.87174      191.85772      696.66547    
     60100  -133436.9       818.89627     -132618         192.85576      191.84118      696.93342    
     60200  -133387.9       816.65516     -132571.24      192.84118      191.82768      697.20137    
     60300  -133344.69      814.32487     -132530.37      192.82594      191.8099       697.46932    
     60400  -133305.21      813.68849     -132491.53      192.8113       191.79056      697.73727    
     60500  -133255.35      810.93099     -132444.42      192.79865      191.77446      698.00521    
     60600  -133210.41      814.2679      -132396.14      192.78399      191.75517      698.27316    
     60700  -133168.28      815.30623     -132352.97      192.77035      191.73902      698.54111    
     60800  -133134.96      818.02207     -132316.94      192.75785      191.72359      698.80906    
     60900  -133084.41      814.50507     -132269.91      192.74392      191.70465      699.07701    
     61000  -133033.04      813.48028     -132219.56      192.73148      191.68948      699.34495    
     61100  -132985.25      815.8828      -132169.36      192.71904      191.67343      699.6129     
     61200  -132946.35      818.68863     -132127.66      192.70639      191.65466      699.88085    
     61300  -132904         817.70088     -132086.3       192.69462      191.63718      700.1488     
     61400  -132856.36      816.08723     -132040.27      192.68231      191.61803      700.41675    
     61500  -132819.8       824.88088     -131994.92      192.66987      191.59892      700.6847     
     61600  -132769.71      813.91101     -131955.79      192.65604      191.58027      700.95264    
     61700  -132721.6       810.36365     -131911.23      192.64202      191.56405      701.22059    
     61800  -132673.81      813.72682     -131860.08      192.62592      191.54924      701.48854    
     61900  -132624.01      813.7301      -131810.28      192.60806      191.53712      701.75649    
     62000  -132588.11      821.38578     -131766.73      192.59018      191.52727      702.02444    
     62100  -132539.34      814.34415     -131724.99      192.57137      191.51339      702.29239    
     62200  -132495.12      817.28847     -131677.83      192.55285      191.49771      702.56033    
     62300  -132457.99      823.68838     -131634.3       192.53666      191.48178      702.82828    
     62400  -132417.36      825.99258     -131591.37      192.52047      191.46072      703.09623    
     62500  -132359.11      813.95719     -131545.15      192.50655      191.44226      703.36418    
     62600  -132319.07      818.99151     -131500.08      192.49318      191.42307      703.63213    
     62700  -132274.84      819.39606     -131455.45      192.47963      191.40324      703.90008    
     62800  -132222.41      815.2188      -131407.2       192.46701      191.38859      704.16802    
     62900  -132174.99      815.43814     -131359.56      192.45275      191.37164      704.43597    
     63000  -132134.52      821.62763     -131312.9       192.44016      191.35627      704.70392    
     63100  -132079.92      814.55825     -131265.36      192.42854      191.33836      704.97187    
     63200  -132032.77      816.42626     -131216.34      192.41674      191.31543      705.23982    
     63300  -131984.39      817.51408     -131166.88      192.40715      191.29519      705.50776    
     63400  -131938.88      818.36066     -131120.52      192.39659      191.27157      705.77571    
     63500  -131888.28      815.34902     -131072.93      192.38539      191.24829      706.04366    
     63600  -131843.32      818.94373     -131024.37      192.37355      191.22719      706.31161    
     63700  -131793.92      816.14383     -130977.78      192.3601       191.20707      706.57956    
     63800  -131742.95      813.56675     -130929.38      192.34574      191.19047      706.84751    
     63900  -131699.8       818.25018     -130881.55      192.3309       191.17602      707.11545    
     64000  -131658.43      824.06127     -130834.37      192.31606      191.16034      707.3834     
     64100  -131608.39      822.21066     -130786.18      192.30158      191.14336      707.65135    
     64200  -131556.62      818.70061     -130737.91      192.28826      191.12487      707.9193     
     64300  -131506.8       816.53525     -130690.27      192.27596      191.10453      708.18725    
     64400  -131460.94      819.63274     -130641.31      192.26401      191.08273      708.4552     
     64500  -131413.72      821.89774     -130591.82      192.25222      191.06025      708.72314    
     64600  -131357.97      815.07171     -130542.9       192.23959      191.03785      708.99109    
     64700  -131310.53      817.729       -130492.8       192.22625      191.0165       709.25904    
     64800  -131264.15      821.28612     -130442.87      192.21214      190.99691      709.52699    
     64900  -131217.41      824.04177     -130393.36      192.19689      190.97773      709.79494    
     65000  -131165.28      823.02999     -130342.25      192.18309      190.96113      710.06289    
     65100  -131113.84      820.77954     -130293.06      192.17069      190.94331      710.33083    
     65200  -131056.42      814.53763     -130241.88      192.15868      190.92364      710.59878    
     65300  -131011.69      820.37825     -130191.31      192.14765      190.90397      710.86673    
     65400  -130967.04      825.15743     -130141.88      192.13547      190.88096      711.13468    
     65500  -130904.96      814.40317     -130090.56      192.12256      190.85785      711.40263    
     65600  -130857.71      818.49829     -130039.22      192.1091       190.83705      711.67057    
     65700  -130807.94      819.80886     -129988.13      192.09282      190.81613      711.93852    
     65800  -130757.22      820.5703      -129936.65      192.077        190.80088      712.20647    
     65900  -130700         814.49299     -129885.51      192.06046      190.78648      712.47442    
     66000  -130649.54      816.59435     -129832.94      192.04381      190.77131      712.74237    
     66100  -130595.48      813.63759     -129781.84      192.02789      190.75494      713.01032    
     66200  -130556.89      826.09275     -129730.8       192.01288      190.73579      713.27826    
     66300  -130493.24      814.9464      -129678.3       191.99964      190.71415      713.54621    
     66400  -130442.78      817.38892     -129625.39      191.98663      190.69057      713.81416    
     66500  -130391.63      820.18273     -129571.45      191.9735       190.66823      714.08211    
     66600  -130341.2       823.45927     -129517.74      191.96021      190.64926      714.35006    
     66700  -130284.53      821.62662     -129462.91      191.94486      190.63153      714.61801    
     66800  -130231.66      822.43023     -129409.23      191.92867      190.6153       714.88595    
     66900  -130181.96      827.02662     -129354.93      191.91302      190.59957      715.1539     
     67000  -130117.84      816.20141     -129301.64      191.89635      190.58108      715.42185    
     67100  -130073.25      824.48736     -129248.76      191.88068      190.56365      715.6898     
     67200  -130014.32      821.72848     -129192.59      191.86455      190.54437      715.95775    
     67300  -129960.22      821.82326     -129138.4       191.84903      190.52519      716.22569    
     67400  -129908.74      824.703       -129084.03      191.83331      190.50632      716.49364    
     67500  -129849.42      821.21403     -129028.21      191.81703      190.48718      716.76159    
     67600  -129788.15      815.31398     -128972.84      191.8013       190.47001      717.02954    
     67700  -129738.52      819.03306     -128919.49      191.78415      190.45249      717.29749    
     67800  -129687.82      822.18299     -128865.63      191.76745      190.43624      717.56544    
     67900  -129631.16      820.72984     -128810.43      191.75179      190.4178       717.83338    
     68000  -129573.51      820.7684      -128752.74      191.73784      190.39653      718.10133    
     68100  -129520.58      823.96723     -128696.62      191.72463      190.37559      718.36928    
     68200  -129462.97      822.71172     -128640.26      191.70979      190.35362      718.63723    
     68300  -129411.9       829.72728     -128582.17      191.69506      190.33391      718.90518    
     68400  -129341.34      818.58746     -128522.76      191.67998      190.31349      719.17313    
     68500  -129289.44      824.74802     -128464.7       191.66533      190.29339      719.44107    
     68600  -129229.59      824.31125     -128405.28      191.65262      190.27494      719.70902    
     68700  -129170.31      822.52706     -128347.78      191.63942      190.25392      719.97697    
     68800  -129112.34      823.6621      -128288.67      191.62745      190.23611      720.24492    
     68900  -129060.1       828.21992     -128231.88      191.6125       190.21449      720.51287    
     69000  -128994.17      821.01813     -128173.16      191.59757      190.19185      720.78082    
     69100  -128934.36      820.69024     -128113.67      191.58396      190.17015      721.04876    
     69200  -128882.11      827.39741     -128054.71      191.56812      190.14647      721.31671    
     69300  -128816.84      822.77625     -127994.06      191.55388      190.12864      721.58466    
     69400  -128765         830.97931     -127934.02      191.53855      190.1081       721.85261    
     69500  -128697.07      823.82479     -127873.25      191.52455      190.08876      722.12056    
     69600  -128631.86      819.72523     -127812.13      191.51099      190.07032      722.3885     
     69700  -128577.79      824.97913     -127752.81      191.49673      190.04828      722.65645    
     69800  -128515.46      825.46558     -127690         191.48428      190.02879      722.9244     
     69900  -128460.24      830.34768     -127629.89      191.47033      190.00742      723.19235    
     70000  -128395.9       825.80881     -127570.09      191.45623      189.98672      723.4603     
     70100  -128332.89      825.10158     -127507.79      191.44213      189.9655       723.72825    
     70200  -128273.65      827.99714     -127445.65      191.427        189.94285      723.99619    
     70300  -128211.61      828.28562     -127383.33      191.41242      189.92257      724.26414    
     70400  -128148.71      831.03689     -127317.67      191.39746      189.90032      724.53209    
     70500  -128081.88      826.61767     -127255.26      191.38385      189.87935      724.80004    
     70600  -128023.49      832.05807     -127191.43      191.37034      189.85954      725.06799    
     70700  -127958.31      831.14258     -127127.17      191.35647      189.84036      725.33594    
     70800  -127895.36      833.28662     -127062.07      191.34246      189.82089      725.60388    
     70900  -127830.24      831.4089      -126998.83      191.32782      189.80051      725.87183    
     71000  -127769.17      832.96237     -126936.21      191.31221      189.77897      726.13978    
     71100  -127707.17      836.07145     -126871.1       191.29676      189.75756      726.40773    
     71200  -127644.32      836.21472     -126808.1       191.28189      189.73583      726.67568    
     71300  -127573.29      832.67293     -126740.62      191.26739      189.71401      726.94363    
     71400  -127507.84      830.47443     -126677.37      191.25258      189.69388      727.21157    
     71500  -127449.62      838.67634     -126610.94      191.23807      189.67603      727.47952    
     71600  -127380.96      836.96851     -126543.99      191.22301      189.65574      727.74747    
     71700  -127320.21      843.76163     -126476.45      191.20856      189.63621      728.01542    
     71800  -127243.63      834.35386     -126409.28      191.19411      189.6166       728.28337    
     71900  -127179.25      837.27217     -126341.98      191.17948      189.59559      728.55131    
     72000  -127116.89      839.93613     -126276.96      191.16545      189.5758       728.81926    
     72100  -127056.52      846.06196     -126210.46      191.14996      189.55472      729.08721    
     72200  -126983.34      840.94581     -126142.39      191.13394      189.5322       729.35516    
     72300  -126913.44      838.24243     -126075.2       191.11808      189.51067      729.62311    
     72400  -126850.76      845.48768     -126005.28      191.10155      189.48947      729.89106    
     72500  -126778.97      842.23057     -125936.73      191.08545      189.47086      730.159      
     72600  -126720.25      856.30885     -125863.94      191.07075      189.45496      730.42695    
     72700  -126643.1       851.40218     -125791.69      191.05556      189.43583      730.6949     
     72800  -126576.44      852.83147     -125723.61      191.04097      189.41667      730.96285    
     72900  -126499.8       848.67335     -125651.13      191.02609      189.39666      731.2308     
     73000  -126427.43      845.82668     -125581.6       191.01058      189.37447      731.49875    
     73100  -126364.4       853.04116     -125511.36      190.99623      189.35467      731.76669    
     73200  -126295.89      852.32519     -125443.57      190.98081      189.33374      732.03464    
     73300  -126226.23      858.66105     -125367.57      190.96509      189.31302      732.30259    
     73400  -126152.28      854.11633     -125298.17      190.94942      189.29349      732.57054    
     73500  -126086.22      857.66185     -125228.56      190.93319      189.27118      732.83849    
     73600  -126017.17      862.63353     -125154.54      190.91892      189.24967      733.10644    
     73700  -125947.49      863.87492     -125083.61      190.90614      189.22837      733.37438    
     73800  -125865.82      861.0754      -125004.74      190.89308      189.20574      733.64233    
     73900  -125797.5       867.9992      -124929.5       190.87965      189.18586      733.91028    
     74000  -125727.87      868.78575     -124859.08      190.86428      189.16557      734.17823    
     74100  -125644.01      861.80019     -124782.21      190.84823      189.14534      734.44618    
     74200  -125570.63      867.91105     -124702.72      190.83295      189.12577      734.71412    
     74300  -125500.28      871.67729     -124628.6       190.81821      189.10427      734.98207    
     74400  -125431.56      883.78245     -124547.77      190.80431      189.0823       735.25002    
     74500  -125352         886.84469     -124465.15      190.79012      189.06007      735.51797    
     74600  -125274.89      886.95539     -124387.94      190.77626      189.03826      735.78592    
     74700  -125202.17      887.08776     -124315.08      190.76193      189.01658      736.05387    
     74800  -125120.39      880.62053     -124239.77      190.7477       188.99751      736.32181    
     74900  -125052.08      889.63656     -124162.45      190.73302      188.97809      736.58976    
     75000  -124974.95      895.12694     -124079.82      190.71786      188.95681      736.85771    
     75100  -124900.44      896.06609     -124004.37      190.70395      188.93632      737.12566    
     75200  -124827.82      906.57168     -123921.24      190.68931      188.91283      737.39361    
     75300  -124728.35      888.17781     -123840.17      190.67546      188.89054      737.66156    
     75400  -124667         903.9505      -123763.05      190.66129      188.86849      737.9295     
     75500  -124586.33      909.94601     -123676.38      190.64619      188.84678      738.19745    
     75600  -124501.44      912.50064     -123588.94      190.63237      188.82797      738.4654     
     75700  -124427.11      921.02228     -123506.09      190.61814      188.80729      738.73335    
     75800  -124348.86      921.89908     -123426.96      190.60472      188.78683      739.0013     
     75900  -124266.9       929.04845     -123337.85      190.59126      188.76577      739.26925    
     76000  -124183.98      932.46117     -123251.52      190.57682      188.74205      739.53719    
     76100  -124145.66      986.63297     -123159.03      190.56285      188.72009      739.80514    
     76200  -124329.01      1203.5675     -123125.44      190.54861      188.69933      740.07309    
     76300  -124885.56      1642.759      -123242.8       190.53625      188.6827       740.34104    
     76400  -125742.35      2181.8679     -123560.48      190.52697      188.66822      740.60899    
     76500  -127135.59      2750.6209     -124384.97      190.52234      188.66045      740.87693    
     76600  -128737.58      3043.1657     -125694.42      190.52613      188.67039      741.14488    
     76700  -130145.85      2908.3361     -127237.52      190.53004      188.68566      741.41283    
     76800  -131411.56      2682.316      -128729.25      190.53417      188.70315      741.68078    
     76900  -132547.95      2452.1652     -130095.78      190.5381       188.72316      741.94873    
     77000  -133594.97      2253.5544     -131341.42      190.54221      188.74737      742.21668    
     77100  -134569.62      2094.471      -132475.15      190.5461       188.7764       742.48462    
     77200  -135466.1       1956.5427     -133509.56      190.54901      188.80658      742.75257    
     77300  -136306.63      1841.6017     -134465.03      190.55152      188.84023      743.02052    
     77400  -137089.15      1742.2302     -135346.92      190.5542       188.87638      743.28847    
     77500  -137807.13      1646.6403     -136160.49      190.55787      188.91572      743.55642    
     77600  -138474.36      1562.0716     -136912.28      190.56076      188.95662      743.82437    
     77700  -139099.74      1491.3534     -137608.38      190.56261      188.99859      744.09231    
     77800  -139687.47      1430.4043     -138257.06      190.56408      189.04195      744.36026    
     77900  -140235.68      1373.2474     -138862.43      190.56499      189.08697      744.62821    
     78000  -140757.41      1327.2974     -139430.12      190.56597      189.13287      744.89616    
     78100  -141256.02      1288.9899     -139967.03      190.56698      189.17895      745.16411    
     78200  -141735.14      1257.1655     -140477.98      190.56807      189.22477      745.43206    
     78300  -142198.46      1230.8525     -140967.61      190.56907      189.26826      745.7        
     78400  -142645.9       1206.956      -141438.94      190.57068      189.31105      745.96795    
     78500  -143077.57      1184.6232     -141892.94      190.5734       189.35322      746.2359     
     78600  -143495.06      1163.9464     -142331.12      190.57635      189.39258      746.50385    
     78700  -143896.75      1142.8984     -142753.85      190.57977      189.43029      746.7718     
     78800  -144291.19      1127.8535     -143163.33      190.58316      189.46624      747.03974    
     78900  -144677.3       1115.041      -143562.26      190.586        189.49937      747.30769    
     79000  -145054.16      1102.8227     -143951.33      190.58916      189.53216      747.57564    
     79100  -145420         1089.3045     -144330.7       190.59246      189.56379      747.84359    
     79200  -145778.39      1077.381      -144701.01      190.59601      189.594        748.11154    
     79300  -146129.54      1067.3105     -145062.23      190.60018      189.62418      748.37949    
     79400  -146472.72      1056.7797     -145415.94      190.60444      189.65373      748.64743    
     79500  -146811.55      1048.7583     -145762.79      190.60859      189.6829       748.91538    
     79600  -147145.47      1042.0411     -146103.43      190.61224      189.71164      749.18333    
     79700  -147474.15      1034.9706     -146439.18      190.61549      189.74001      749.45128    
     79800  -147798.78      1028.431      -146770.35      190.61904      189.76889      749.71923    
     79900  -148117.93      1022.0977     -147095.84      190.62291      189.79733      749.98718    
     80000  -148432.36      1016.1936     -147416.17      190.62708      189.82514      750.25512    
     80100  -148740.17      1007.9615     -147732.2       190.63153      189.85276      750.52307    
     80200  -149023.19      985.90826     -148037.28      190.63565      189.87976      750.79102    
     80300  -149287.64      963.96821     -148323.68      190.63956      189.90633      751.05897    
     80400  -149536.68      945.28638     -148591.39      190.64296      189.93239      751.32692    
     80500  -149767.71      926.11646     -148841.6       190.64589      189.95873      751.59487    
     80600  -149984.43      910.00519     -149074.42      190.64896      189.9862       751.86281    
     80700  -150184.43      893.80478     -149290.62      190.6521       190.01387      752.13076    
     80800  -150368.88      878.53839     -149490.34      190.65547      190.04219      752.39871    
     80900  -150538.35      864.60828     -149673.75      190.65918      190.07156      752.66666    
     81000  -150693.1       852.24333     -149840.86      190.66276      190.10104      752.93461    
     81100  -150832.85      841.24706     -149991.6       190.66609      190.13072      753.20255    
     81200  -150957.05      831.09743     -150125.96      190.66916      190.16054      753.4705     
     81300  -151063.94      821.40974     -150242.53      190.67218      190.19108      753.73845    
     81400  -151153.56      814.1149      -150339.44      190.67582      190.22321      754.0064     
     81500  -151223.37      807.98434     -150415.38      190.67975      190.25609      754.27435    
     81600  -151272.92      804.36788     -150468.55      190.68406      190.29046      754.5423     
     81700  -151302.26      804.92569     -150497.33      190.68851      190.32672      754.81024    
     81800  -151315.38      810.53162     -150504.85      190.69243      190.3611       755.07819    
     81900  -151312.59      811.86949     -150500.72      190.69654      190.39463      755.34614    
     82000  -151292.05      805.33486     -150486.71      190.70134      190.42684      755.61409    
     82100  -151249.22      797.57584     -150451.65      190.70646      190.45516      755.88204    
     82200  -151185.8       799.30981     -150386.49      190.71215      190.47883      756.14999    
     82300  -151095.5       796.36312     -150299.14      190.71775      190.49833      756.41793    
     82400  -150994.86      797.83144     -150197.03      190.72314      190.51494      756.68588    
     82500  -150883.33      794.51553     -150088.82      190.72685      190.5256       756.95383    
     82600  -150785.26      806.96673     -149978.29      190.73267      190.53842      757.22178    
     82700  -150697.49      820.75319     -149876.74      190.74274      190.54128      757.48973    
     82800  -150634.24      835.20258     -149799.04      190.75793      190.52063      757.75768    
     82900  -150607.19      842.67189     -149764.52      190.78618      190.49429      758.02562    
     83000  -150558.71      789.94846     -149768.77      190.82203      190.45435      758.29357    
     83100  -150518.29      785.55961     -149732.73      190.86575      190.43372      758.56152    
     83200  -150473.32      824.78158     -149648.54      190.90648      190.44101      758.82947    
     83300  -150409.52      829.78181     -149579.74      190.93386      190.45426      759.09742    
     83400  -150371.93      828.92035     -149543.01      190.94323      190.45507      759.36536    
     83500  -150344.32      817.92355     -149526.4       190.95032      190.46375      759.63331    
     83600  -150327.17      815.66674     -149511.5       190.95443      190.48403      759.90126    
     83700  -150331.48      831.43221     -149500.05      190.95868      190.51073      760.16921    
     83800  -150314.9       804.35695     -149510.55      190.96634      190.53752      760.43716    
     83900  -150299.21      799.72735     -149499.48      190.97115      190.55584      760.70511    
     84000  -150270.16      811.08856     -149459.07      190.98288      190.5701       760.97305    
     84100  -150257.16      842.93557     -149414.23      191.00915      190.59094      761.241      
     84200  -150239.41      831.43686     -149407.97      191.03539      190.61067      761.50895    
     84300  -150233.13      805.02567     -149428.1       191.05353      190.62576      761.7769     
     84400  -150220.35      795.50025     -149424.85      191.07194      190.64065      762.04485    
     84500  -150198.91      812.11295     -149386.79      191.09037      190.66004      762.3128     
     84600  -150191.62      844.40912     -149347.21      191.10818      190.68823      762.58074    
     84700  -150188.39      833.4295      -149354.96      191.12229      190.7176       762.84869    
     84800  -150198.91      804.50762     -149394.4       191.13025      190.75531      763.11664    
     84900  -150203.67      790.32647     -149413.35      191.13754      190.80201      763.38459    
     85000  -150185.16      799.51681     -149385.64      191.14366      190.85092      763.65254    
     85100  -150153.81      828.28798     -149325.53      191.15442      190.89932      763.92048    
     85200  -150118.92      836.25661     -149282.67      191.15982      190.9442       764.18843    
     85300  -150127.08      838.81516     -149288.26      191.16483      190.97668      764.45638    
     85400  -150132.5       808.68393     -149323.82      191.17622      191.00582      764.72433    
     85500  -150139.27      797.33833     -149341.93      191.18091      191.0292       764.99228    
     85600  -150133.61      804.64892     -149328.97      191.18186      191.05475      765.26023    
     85700  -150123.87      827.19925     -149296.67      191.18556      191.08832      765.52817    
     85800  -150121         834.19595     -149286.8       191.1936       191.12209      765.79612    
     85900  -150149.14      831.59678     -149317.54      191.20297      191.15252      766.06407    
     86000  -150157.52      791.78824     -149365.74      191.21861      191.18343      766.33202    
     86100  -150173.6       796.76744     -149376.83      191.23578      191.2022       766.59997    
     86200  -150146.56      799.16183     -149347.39      191.25115      191.22431      766.86792    
     86300  -150142.54      840.33393     -149302.21      191.27289      191.25303      767.13586    
     86400  -150140.55      841.26201     -149299.29      191.29108      191.27881      767.40381    
     86500  -150165.58      826.60134     -149338.98      191.30617      191.31102      767.67176    
     86600  -150183.05      795.25187     -149387.8       191.31583      191.34518      767.93971    
     86700  -150193.62      791.12784     -149402.49      191.33306      191.38525      768.20766    
     86800  -150178.62      809.60277     -149369.01      191.34758      191.41891      768.47561    
     86900  -150165.64      842.42399     -149323.21      191.35969      191.45359      768.74355    
     87000  -150164.02      837.59816     -149326.42      191.37883      191.49299      769.0115     
     87100  -150183.03      816.41503     -149366.62      191.40224      191.53214      769.27945    
     87200  -150191.64      793.89488     -149397.74      191.42593      191.57826      769.5474     
     87300  -150208.76      819.07709     -149389.68      191.44341      191.62662      769.81535    
     87400  -150193.01      824.8936      -149368.12      191.46507      191.67814      770.08329    
     87500  -150197.61      831.53431     -149366.08      191.48943      191.72665      770.35124    
     87600  -150212.13      824.83229     -149387.3       191.51131      191.7768       770.61919    
     87700  -150220.81      801.15276     -149419.66      191.53417      191.82902      770.88714    
     87800  -150224.37      794.06468     -149430.31      191.55603      191.878        771.15509    
     87900  -150220.73      815.66321     -149405.07      191.5809       191.93356      771.42304    
     88000  -150217.44      838.02337     -149379.41      191.60838      191.99287      771.69098    
     88100  -150224.66      830.77686     -149393.88      191.63435      192.0389       771.95893    
     88200  -150245.87      807.81507     -149438.05      191.66556      192.08131      772.22688    
     88300  -150267.26      796.7489      -149470.51      191.69591      192.12691      772.49483    
     88400  -150264.74      799.09295     -149465.64      191.72066      192.16729      772.76278    
     88500  -150265.33      832.91132     -149432.42      191.74575      192.21174      773.03073    
     88600  -150263.93      841.1058      -149422.83      191.76613      192.25304      773.29867    
     88700  -150273.56      815.58782     -149457.97      191.7874       192.30008      773.56662    
     88800  -150289.06      797.32497     -149491.73      191.81099      192.3551       773.83457    
     88900  -150295.22      798.63156     -149496.59      191.82325      192.39822      774.10252    
     89000  -150302.07      825.29342     -149476.78      191.82935      192.43844      774.37047    
     89100  -150291.04      832.83523     -149458.21      191.84175      192.48228      774.63842    
     89200  -150285.26      820.09885     -149465.16      191.85151      192.5216       774.90636    
     89300  -150291.25      804.82529     -149486.43      191.85786      192.55558      775.17431    
     89400  -150304.39      811.70782     -149492.69      191.86642      192.59405      775.44226    
     89500  -150296.23      810.02205     -149486.21      191.87612      192.63269      775.71021    
     89600  -150282.14      818.41325     -149463.73      191.8878       192.66196      775.97816    
     89700  -150273.5       833.51803     -149439.98      191.90104      192.68756      776.2461     
     89800  -150259.89      814.44568     -149445.45      191.9174       192.7145       776.51405    
     89900  -150268         809.9129      -149458.09      191.93946      192.73923      776.782      
     90000  -150274.12      816.07995     -149458.04      191.96369      192.76001      777.04995    
     90100  -150261.85      817.28369     -149444.56      191.99252      192.77852      777.3179     
     90200  -150258.63      831.18809     -149427.44      192.01986      192.79241      777.58585    
     90300  -150259.12      826.24568     -149432.88      192.04531      192.80382      777.85379    
     90400  -150277.85      821.3046      -149456.54      192.07364      192.81074      778.12174    
     90500  -150279.55      797.6206      -149481.93      192.1019       192.81733      778.38969    
     90600  -150283.49      803.92202     -149479.57      192.13065      192.82319      778.65764    
     90700  -150280.27      830.30218     -149449.97      192.15834      192.83086      778.92559    
     90800  -150277.02      843.17183     -149433.85      192.18565      192.83192      779.19354    
     90900  -150283.98      825.64019     -149458.34      192.2128       192.83001      779.46148    
     91000  -150300.77      805.25909     -149495.51      192.24052      192.83636      779.72943    
     91100  -150311.57      801.33211     -149510.24      192.26622      192.84306      779.99738    
     91200  -150301.07      808.48524     -149492.59      192.29439      192.85209      780.26533    
     91300  -150307.29      838.0095      -149469.28      192.32299      192.85905      780.53328    
     91400  -150310.09      829.53113     -149480.56      192.35225      192.86815      780.80123    
     91500  -150327.46      813.72818     -149513.73      192.38194      192.8822       781.06917    
     91600  -150335.25      798.09812     -149537.15      192.41081      192.89713      781.33712    
     91700  -150340.09      809.52111     -149530.57      192.43772      192.91242      781.60507    
     91800  -150330.12      821.5058      -149508.62      192.46439      192.92761      781.87302    
     91900  -150323.81      829.89429     -149493.92      192.49205      192.94118      782.14097    
     92000  -150325.81      822.69368     -149503.12      192.52274      192.95848      782.40891    
     92100  -150348.95      817.13183     -149531.81      192.5457       192.97551      782.67686    
     92200  -150357.14      801.91123     -149555.23      192.56728      192.99208      782.94481    
     92300  -150363.68      810.00998     -149553.67      192.58925      193.01469      783.21276    
     92400  -150363.4       825.0301      -149538.37      192.60824      193.04167      783.48071    
     92500  -150364.46      828.59815     -149535.86      192.62505      193.06411      783.74866    
     92600  -150378.76      820.44014     -149558.32      192.64821      193.09028      784.0166     
     92700  -150381.72      800.7907      -149580.93      192.67157      193.10754      784.28455    
     92800  -150386.83      806.66472     -149580.16      192.69384      193.12586      784.5525     
     92900  -150383.88      824.15702     -149559.72      192.71725      193.14783      784.82045    
     93000  -150381.56      832.51982     -149549.04      192.73592      193.16605      785.0884     
     93100  -150393.42      824.13233     -149569.28      192.75866      193.18757      785.35635    
     93200  -150407.51      803.14844     -149604.36      192.77857      193.20925      785.62429    
     93300  -150417.69      800.39456     -149617.3       192.79283      193.23078      785.89224    
     93400  -150405.7       806.10313     -149599.59      192.8064       193.25656      786.16019    
     93500  -150393.96      830.96704     -149563         192.8191       193.28338      786.42814    
     93600  -150392.68      835.25082     -149557.43      192.82835      193.30963      786.69609    
     93700  -150405.08      817.4892      -149587.59      192.8242       193.33178      786.96404    
     93800  -150402.74      789.57803     -149613.16      192.81876      193.36045      787.23198    
     93900  -150401.89      802.62317     -149599.27      192.81139      193.39391      787.49993    
     94000  -150382.12      823.32548     -149558.8       192.79714      193.43081      787.76788    
     94100  -150367.13      839.35466     -149527.78      192.78241      193.47152      788.03583    
     94200  -150366.34      830.7632      -149535.58      192.7648       193.50949      788.30378    
     94300  -150373.23      807.21997     -149566.01      192.74536      193.54935      788.57172    
     94400  -150376.84      803.20808     -149573.63      192.72605      193.58945      788.83967    
     94500  -150365.85      813.63674     -149552.21      192.70245      193.62992      789.10762    
     94600  -150353.76      833.68425     -149520.08      192.67916      193.67596      789.37557    
     94700  -150337.61      854.10464     -149483.5       192.65644      193.72419      789.64352    
     94800  -150349.89      813.58182     -149536.3       192.6298       193.77567      789.91147    
     94900  -150364.88      783.05633     -149581.83      192.59683      193.82545      790.17941    
     95000  -150365.32      792.92814     -149572.39      192.561        193.87574      790.44736    
     95100  -150349.15      825.33743     -149523.81      192.52574      193.93063      790.71531    
     95200  -150328.64      837.33543     -149491.31      192.48089      193.9754       790.98326    
     95300  -150339.56      835.70566     -149503.85      192.43645      194.01834      791.25121    
     95400  -150343.54      801.86682     -149541.67      192.39605      194.06426      791.51916    
     95500  -150345.99      795.70829     -149550.28      192.35769      194.10818      791.7871     
     95600  -150340.42      816.63904     -149523.78      192.32506      194.15663      792.05505    
     95700  -150321.45      829.96257     -149491.49      192.29256      194.20644      792.323      
     95800  -150308.93      823.95896     -149484.97      192.25895      194.24998      792.59095    
     95900  -150325.46      825.77787     -149499.68      192.22911      194.29014      792.8589     
     96000  -150330.11      805.37869     -149524.73      192.20176      194.32929      793.12685    
     96100  -150332.6       801.62348     -149530.98      192.17427      194.36443      793.39479    
     96200  -150328.69      816.07148     -149512.62      192.15469      194.39787      793.66274    
     96300  -150321.44      831.71366     -149489.72      192.14045      194.42372      793.93069    
     96400  -150316.68      829.42808     -149487.25      192.13199      194.44731      794.19864    
     96500  -150323.04      814.30645     -149508.73      192.12661      194.47747      794.46659    
     96600  -150338.63      807.85104     -149530.78      192.12264      194.51029      794.73453    
     96700  -150335.79      803.54305     -149532.25      192.12107      194.54472      795.00248    
     96800  -150331.95      820.24246     -149511.7       192.12239      194.57669      795.27043    
     96900  -150320.24      827.28077     -149492.96      192.12577      194.60332      795.53838    
     97000  -150326.14      828.65472     -149497.49      192.1354       194.62958      795.80633    
     97100  -150337.85      814.06605     -149523.79      192.14821      194.65167      796.07428    
     97200  -150348.4       802.77872     -149545.62      192.15994      194.66905      796.34222    
     97300  -150351.88      808.73741     -149543.15      192.17248      194.68734      796.61017    
     97400  -150346.31      817.78617     -149528.52      192.17939      194.7035       796.87812    
     97500  -150349.64      825.89878     -149523.75      192.18569      194.72223      797.14607    
     97600  -150359.55      819.37047     -149540.17      192.1906       194.73642      797.41402    
     97700  -150373.61      812.96162     -149560.65      192.19344      194.74627      797.68197    
     97800  -150379.43      812.87605     -149566.55      192.19835      194.75653      797.94991    
     97900  -150373.28      814.12094     -149559.16      192.20172      194.76604      798.21786    
     98000  -150373.18      822.22924     -149550.95      192.20225      194.77594      798.48581    
     98100  -150364.79      815.62214     -149549.17      192.20255      194.78301      798.75376    
     98200  -150376.52      818.49205     -149558.03      192.20575      194.79022      799.02171    
     98300  -150379.78      807.19349     -149572.58      192.20404      194.79537      799.28966    
     98400  -150381.57      807.20681     -149574.37      192.19803      194.79511      799.5576     
     98500  -150379.37      818.32986     -149561.04      192.19085      194.79077      799.82555    
     98600  -150371.03      823.29874     -149547.73      192.17746      194.78153      800.0935     
     98700  -150372.72      821.9777      -149550.74      192.16575      194.76903      800.36145    
     98800  -150378.62      813.1645      -149565.45      192.15379      194.75273      800.6294     
     98900  -150385.92      811.17868     -149574.74      192.13857      194.73114      800.89734    
     99000  -150387.73      818.19592     -149569.54      192.12502      194.70467      801.16529    
     99100  -150376.49      818.67601     -149557.81      192.10907      194.67306      801.43324    
     99200  -150372         820.70121     -149551.3       192.09005      194.63665      801.70119    
     99300  -150372.87      817.17165     -149555.7       192.07061      194.59879      801.96914    
     99400  -150375.79      813.9075      -149561.88      192.04414      194.55793      802.23709    
     99500  -150387.67      821.26778     -149566.4       192.01885      194.52025      802.50503    
     99600  -150378.61      810.40946     -149568.2       191.99951      194.48878      802.77298    
     99700  -150375.51      811.59069     -149563.92      191.97985      194.45607      803.04093    
     99800  -150381.54      822.62595     -149558.92      191.96146      194.43021      803.30888    
     99900  -150373.36      812.63027     -149560.72      191.93923      194.40743      803.57683    
    100000  -150387.53      819.86365     -149567.66      191.91136      194.37821      803.84478    
Loop time of 24167.3 on 16 procs for 100000 steps with 21060 atoms

Performance: 0.358 ns/day, 67.132 hours/ns, 4.138 timesteps/s, 87.142 katom-step/s
46.7% CPU use with 16 MPI tasks x 1 OpenMP threads

MPI task timing breakdown:
Section |  min time  |  avg time  |  max time  |%varavg| %total
---------------------------------------------------------------
Pair    | 3130.4     | 4078.7     | 5083.7     | 869.3 | 16.88
Neigh   | 33.279     | 54.992     | 72.202     | 173.9 |  0.23
Comm    | 2874.3     | 3759.5     | 4528.8     | 760.3 | 15.56
Output  | 64.003     | 66.515     | 69.395     |  19.6 |  0.28
Modify  | 14077      | 14376      | 14929      | 183.2 | 59.49
Other   |            | 1832       |            |       |  7.58

Nlocal:        1316.25 ave        3765 max         214 min
Histogram: 7 1 1 2 1 1 0 1 0 2
Nghost:         3043.5 ave        4574 max        1301 min
Histogram: 4 0 0 1 2 1 2 2 0 4
Neighs:              0 ave           0 max           0 min
Histogram: 16 0 0 0 0 0 0 0 0 0

Total # of neighbors = 0
Ave neighs/atom = 0
Neighbor list builds = 909
Dangerous builds = 0
Total wall time: 6:42:49
