LAMMPS (2 Aug 2023 - Update 3)
OMP_NUM_THREADS environment is not set. Defaulting to 1 thread. (src/comm.cpp:98)
  using 1 OpenMP thread(s) per MPI task

# 1------general---------------
units                             metal      #单位为lammps 中的metel 类型
dimension                    3          #模拟的维度 三维
boundary                    p p p      #周期边界条件
atom_style                  atomic   #原子类型自动
atom_modify              map array sort 100 2.0
neighbor                    3.0 bin
neigh_modify            every 1 delay 0 check yes
#2 -----global variable-------定义全局变量，方便统一修改；
variable temperature equal 300
variable tstep equal 0.001
variable pressure equal 0
variable thermalstep equal 100
variable dumpstep equal 1000
variable relaxtime equal 0
variable totaltime equal 100000
variable deformrate equal 5e-3
#3 -------model------------
#box tilt large
read_data     1.lmp
Reading data file ...
  orthogonal box = (-100 -100 -2.3312512) to (100 100 41.316429)
  4 by 4 by 1 MPI processor grid
  reading atoms ...
  1824 atoms
  read_data CPU = 0.524 seconds
replicate 1 1 13
Replication is creating a 1x1x13 = 13 times larger system...
  orthogonal box = (-100 -100 -2.3312512) to (100 100 565.08859)
  2 by 2 by 4 MPI processor grid
  23712 atoms
  replicate CPU = 0.644 seconds
group SR type 2 3
7800 atoms in group SR
delete_atoms group SR
Deleted 7800 atoms, new total = 15912
write_data h.data
System init for write_data ...
WARNING: Communication cutoff is 0.0. No ghost atoms will be generated. Atoms may get lost. (src/comm_brick.cpp:210)
pair_style hybrid airebo 3.0 airebo 3.0 airebo 3.0 lj/cut 10
pair_coeff * * airebo 1 CH.airebo C NULL NULL
Reading airebo potential file CH.airebo with DATE: 2011-10-25
pair_coeff * * airebo 2 CH.airebo NULL C NULL
Reading airebo potential file CH.airebo with DATE: 2011-10-25
pair_coeff * * airebo 3 CH.airebo NULL NULL C
Reading airebo potential file CH.airebo with DATE: 2011-10-25
pair_coeff 1 2 lj/cut 0.00456 3.431
pair_coeff 1 3 lj/cut 0.00456 3.431
pair_coeff 2 3 lj/cut 0.00456 3.431

# 5------minimize -----------
min_style      sd
minimize       1.0e-4 1.0e-6 100 1000
Neighbor list info ...
  update: every = 1 steps, delay = 0 steps, check = yes
  max neighbors/atom: 2000, page size: 100000
  master list distance cutoff = 13.2
  ghost atom cutoff = 13.2
  binsize = 6.6, bins = 31 31 86
  6 neighbor lists, perpetual/occasional/extra = 6 0 0
  (1) pair airebo, perpetual, skip from (5)
      attributes: full, newton on, ghost
      pair build: skip/ghost
      stencil: none
      bin: none
  (2) pair airebo, perpetual, skip from (5)
      attributes: full, newton on, ghost
      pair build: skip/ghost
      stencil: none
      bin: none
  (3) pair airebo, perpetual, skip from (5)
      attributes: full, newton on, ghost
      pair build: skip/ghost
      stencil: none
      bin: none
  (4) pair lj/cut, perpetual, skip from (6)
      attributes: half, newton on, cut 13
      pair build: skip
      stencil: none
      bin: none
  (5) neighbor class addition, perpetual
      attributes: full, newton on, ghost
      pair build: full/bin/ghost
      stencil: full/ghost/bin/3d
      bin: standard
  (6) neighbor class addition, perpetual
      attributes: half, newton on, cut 13
      pair build: half/bin/atomonly/newton
      stencil: half/bin/3d
      bin: standard
Per MPI rank memory allocation (min/avg/max) = 13.01 | 13.01 | 13.01 Mbytes
   Step          Temp          E_pair         E_mol          TotEng         Press     
         0   0             -118018.69      0             -118018.69     -77.843168    
         1   0             -118018.78      0             -118018.78     -77.708063    
Loop time of 0.65374 on 16 procs for 1 steps with 15912 atoms

43.8% CPU use with 16 MPI tasks x 1 OpenMP threads

Minimization stats:
  Stopping criterion = energy tolerance
  Energy initial, next-to-last, final = 
     -118018.690938956  -118018.690938956  -118018.777666454
  Force two-norm initial, final = 4.6337905 1.1946032
  Force max component initial, final = 0.036762983 0.0094736875
  Final line search alpha, max atom move = 1 0.0094736875
  Iterations, force evaluations = 1 2

MPI task timing breakdown:
Section |  min time  |  avg time  |  max time  |%varavg| %total
---------------------------------------------------------------
Pair    | 0.035026   | 0.062363   | 0.076965   |   4.3 |  9.54
Neigh   | 0          | 0          | 0          |   0.0 |  0.00
Comm    | 0.13702    | 0.16877    | 0.20677    |   5.1 | 25.82
Output  | 0          | 0          | 0          |   0.0 |  0.00
Modify  | 0          | 0          | 0          |   0.0 |  0.00
Other   |            | 0.4226     |            |       | 64.65

Nlocal:          994.5 ave        1053 max         936 min
Histogram: 4 0 0 0 4 4 0 0 0 4
Nghost:         3697.5 ave        3756 max        3639 min
Histogram: 4 0 0 0 4 4 0 0 0 4
Neighs:              0 ave           0 max           0 min
Histogram: 16 0 0 0 0 0 0 0 0 0

Total # of neighbors = 0
Ave neighs/atom = 0
Neighbor list builds = 0
Dangerous builds = 0
#6----define computes------
variable nums equal count(all) #计算原子数目
variable toval equal 22.7273*22.7165*lz #计算系统总体积，单层石墨烯厚度为0.335nm
variable vol equal ${toval} #体系的初始体积
variable vol equal 292950.19015245 
variable vatom equal v_vol/v_nums #单个原子体积
compute 1 all stress/atom NULL #计算体系中单原子应力
compute xalls all reduce sum c_1[1]
variable xstress equal (c_xalls)/(v_toval*10000)
compute yalls all reduce sum c_1[2]
variable ystress equal (c_yalls)/(v_toval*10000)
compute zalls all reduce sum c_1[3]
variable zstress equal (c_zalls)/(v_toval*10000)
#7---------relaxation-------------------------
timestep ${tstep}
timestep 0.001
velocity all create ${temperature} 231743 units box dist gaussian
velocity all create 300 231743 units box dist gaussian
dump   1 all atom 100 all-cy.lammpstrj
#fix    1 all npt temp 300 300  0.1 aniso 0 0 10 drag 1  #三个方向独立控压
fix  1 all npt temp ${temperature} ${temperature} 0.1 x ${pressure} ${pressure} 10 y ${pressure} ${pressure} 10
fix  1 all npt temp 300 ${temperature} 0.1 x ${pressure} ${pressure} 10 y ${pressure} ${pressure} 10
fix  1 all npt temp 300 300 0.1 x ${pressure} ${pressure} 10 y ${pressure} ${pressure} 10
fix  1 all npt temp 300 300 0.1 x 0 ${pressure} 10 y ${pressure} ${pressure} 10
fix  1 all npt temp 300 300 0.1 x 0 0 10 y ${pressure} ${pressure} 10
fix  1 all npt temp 300 300 0.1 x 0 0 10 y 0 ${pressure} 10
fix  1 all npt temp 300 300 0.1 x 0 0 10 y 0 0 10
compute  2 all pe/atom
compute  pe all reduce sum c_2
variable PE equal "c_pe"
fix    pe all print 100 "${PE} " file PE.txt screen no
thermo  ${thermalstep}
thermo  100
#thermo_style  custom step pe ke etotal lx ly lz
run   ${relaxtime}
run   0
Per MPI rank memory allocation (min/avg/max) = 13.64 | 13.64 | 13.64 Mbytes
   Step          Temp          E_pair         E_mol          TotEng         Press          Volume    
         1   300           -118018.78      0             -117401.78     -48.671985      22696794     
Loop time of 0.0454931 on 16 procs for 0 steps with 15912 atoms

40.1% CPU use with 16 MPI tasks x 1 OpenMP threads

MPI task timing breakdown:
Section |  min time  |  avg time  |  max time  |%varavg| %total
---------------------------------------------------------------
Pair    | 0          | 0          | 0          |   0.0 |  0.00
Neigh   | 0          | 0          | 0          |   0.0 |  0.00
Comm    | 0          | 0          | 0          |   0.0 |  0.00
Output  | 0          | 0          | 0          |   0.0 |  0.00
Modify  | 0          | 0          | 0          |   0.0 |  0.00
Other   |            | 0.04549    |            |       |100.00

Nlocal:          994.5 ave        1053 max         936 min
Histogram: 8 0 0 0 0 0 0 0 0 8
Nghost:         3697.5 ave        3756 max        3639 min
Histogram: 8 0 0 0 0 0 0 0 0 8
Neighs:              0 ave           0 max           0 min
Histogram: 16 0 0 0 0 0 0 0 0 0

Total # of neighbors = 0
Ave neighs/atom = 0
Neighbor list builds = 0
Dangerous builds = 0
#8 -------tension-----------------------------
unfix  1
undump  1
unfix  pe
reset_timestep 0
fix avestress all ave/atom 1 ${dumpstep} ${dumpstep} c_1[1] c_1[2] c_1[3] c_1[4] c_1[5] c_1[6]
fix avestress all ave/atom 1 1000 ${dumpstep} c_1[1] c_1[2] c_1[3] c_1[4] c_1[5] c_1[6]
fix avestress all ave/atom 1 1000 1000 c_1[1] c_1[2] c_1[3] c_1[4] c_1[5] c_1[6]

#-----calculation of strain and Cumulative compression--------
variable                tmp equal "lz"
variable                L0 equal ${tmp}
variable                L0 equal 567.4198445604
variable                strain equal "(lz - v_L0)/v_L0"
variable                Cumulativels equal "(lz - v_L0)/10"
fix Step all print 100 "${strain} ${Cumulativels} ${zstress}" file grapoten.txt screen no

dump 2 all custom ${dumpstep} tension.xyz type x y z f_avestress[1] f_avestress[2] f_avestress[3] f_avestress[4] f_avestress[5] f_avestress[6]
dump 2 all custom 1000 tension.xyz type x y z f_avestress[1] f_avestress[2] f_avestress[3] f_avestress[4] f_avestress[5] f_avestress[6]

fix  1 all npt temp ${temperature} ${temperature} 0.1 y ${pressure} ${pressure} 10 x ${pressure} ${pressure} 10
fix  1 all npt temp 300 ${temperature} 0.1 y ${pressure} ${pressure} 10 x ${pressure} ${pressure} 10
fix  1 all npt temp 300 300 0.1 y ${pressure} ${pressure} 10 x ${pressure} ${pressure} 10
fix  1 all npt temp 300 300 0.1 y 0 ${pressure} 10 x ${pressure} ${pressure} 10
fix  1 all npt temp 300 300 0.1 y 0 0 10 x ${pressure} ${pressure} 10
fix  1 all npt temp 300 300 0.1 y 0 0 10 x 0 ${pressure} 10
fix  1 all npt temp 300 300 0.1 y 0 0 10 x 0 0 10

thermo_style custom step pe ke etotal lx ly lz
fix   2 all deform 1 z erate ${deformrate} remap x units box
fix   2 all deform 1 z erate 0.005 remap x units box
fix   3 all ave/time 2 500 1000 v_xstress v_ystress v_zstress file pressure.out
run   ${totaltime}
run   100000
WARNING: Dump 2 includes no atom IDs and is not sorted by ID. This may complicate post-processing tasks or visualization (src/dump.cpp:221)
Per MPI rank memory allocation (min/avg/max) = 15.14 | 15.14 | 15.14 Mbytes
   Step         PotEng         KinEng         TotEng           Lx             Ly             Lz      
         0  -118018.78      616.99745     -117401.78      200            200            567.41984    
       100  -117660.82      301.42392     -117359.4       199.9896       199.98866      567.70355    
       200  -117673.2       370.99177     -117302.21      199.98206      199.98084      567.98726    
       300  -117631.65      397.87171     -117233.78      199.99837      199.99598      568.27097    
       400  -117590.75      432.11222     -117158.63      199.99723      199.99369      568.55468    
       500  -117561.94      483.02365     -117078.91      199.98185      199.97748      568.83839    
       600  -117505.24      507.52421     -116997.72      199.99394      199.98777      569.1221     
       700  -117471.55      553.31464     -116918.24      200.00402      199.99661      569.40581    
       800  -117433.09      587.48042     -116845.61      199.98697      199.97829      569.68952    
       900  -117404.89      618.17565     -116786.71      199.98832      199.97716      569.97323    
      1000  -117381.24      632.71126     -116748.52      200.00376      199.99157      570.25694    
      1100  -117378.69      634.74141     -116743.95      199.9956       199.9807       570.54065    
      1200  -117393.6       622.36463     -116771.24      199.98733      199.96931      570.82436    
      1300  -117392.52      596.05642     -116796.46      199.99988      199.97995      571.10807    
      1400  -117399.45      602.94457     -116796.5       199.99919      199.97602      571.39178    
      1500  -117386.94      614.87328     -116772.06      199.98605      199.95896      571.67549    
      1600  -117368.82      624.2155      -116744.6       199.99374      199.96411      571.9592     
      1700  -117360.06      626.14009     -116733.92      200.00225      199.96928      572.24291    
      1800  -117362.68      618.85142     -116743.83      199.98914      199.95145      572.52662    
      1900  -117370.48      609.07506     -116761.4       199.98735      199.94668      572.81033    
      2000  -117369.08      601.50765     -116767.57      200.00055      199.95617      573.09404    
      2100  -117361.33      609.72634     -116751.61      199.99276      199.94312      573.37775    
      2200  -117345.99      618.67519     -116727.32      199.98294      199.92902      573.66146    
      2300  -117338.63      626.67797     -116711.95      199.9955       199.9368       573.94517    
      2400  -117334.64      621.74412     -116712.89      199.99757      199.93315      574.22888    
      2500  -117336.3       611.34778     -116724.95      199.9835       199.91378      574.51259    
      2600  -117347.19      614.6892      -116732.5       199.98728      199.91159      574.7963     
      2700  -117335.93      612.73841     -116723.2       199.99623      199.91436      575.08001    
      2800  -117317.67      617.3712      -116700.3       199.98597      199.89789      575.36372    
      2900  -117306.2       624.24022     -116681.96      199.98088      199.88585      575.64743    
      3000  -117300.23      622.56296     -116677.67      199.99156      199.8893       575.93114    
      3100  -117302.26      619.15111     -116683.11      199.98884      199.88019      576.21485    
      3200  -117303.4       613.40314     -116690         199.97938      199.86316      576.49856    
      3300  -117293.47      606.60392     -116686.87      199.98461      199.86074      576.78227    
      3400  -117285.02      616.11826     -116668.91      199.98796      199.85706      577.06598    
      3500  -117270.56      623.60991     -116646.95      199.97829      199.83921      577.34969    
      3600  -117258.03      623.0291      -116635         199.97688      199.82966      577.6334     
      3700  -117256.88      620.83053     -116636.05      199.98364      199.8289       577.91711    
      3800  -117251.76      610.57463     -116641.19      199.97851      199.81501      578.20082    
      3900  -117247.45      607.74113     -116639.7       199.97055      199.79915      578.48453    
      4000  -117240.91      614.43674     -116626.48      199.97528      199.79581      578.76824    
      4100  -117230.02      624.06874     -116605.95      199.97595      199.78681      579.05195    
      4200  -117213.05      624.12158     -116588.93      199.96509      199.76876      579.33566    
      4300  -117203.57      619.53488     -116584.04      199.96484      199.76001      579.61937    
      4400  -117202.62      615.11702     -116587.5       199.97022      199.75617      579.90308    
      4500  -117200.64      613.44694     -116587.2       199.9619       199.74069      580.18679    
      4600  -117186.32      611.2206      -116575.1       199.95391      199.72438      580.4705     
      4700  -117173.94      617.78234     -116556.16      199.95892      199.72067      580.75421    
      4800  -117161.77      622.88531     -116538.88      199.95682      199.71201      581.03792    
      4900  -117146.52      616.52281     -116530         199.94438      199.69154      581.32163    
      5000  -117145.01      615.57102     -116529.44      199.94185      199.68224      581.60534    
      5100  -117140.66      612.4886      -116528.17      199.94421      199.67866      581.88905    
      5200  -117129.25      613.00756     -116516.24      199.93333      199.66099      582.17276    
      5300  -117113.52      615.95083     -116497.57      199.92324      199.64552      582.45647    
      5400  -117100.01      619.33306     -116480.68      199.92593      199.64261      582.74018    
      5500  -117085.51      616.85414     -116468.66      199.91985      199.63093      583.02389    
      5600  -117080.35      616.33598     -116464.01      199.90508      199.61181      583.3076     
      5700  -117076.06      613.99183     -116462.07      199.90266      199.60426      583.59131    
      5800  -117065.24      610.33949     -116454.9       199.9012       199.59825      583.87502    
      5900  -117047.3       609.39293     -116437.91      199.88617      199.58008      584.15873    
      6000  -117040.98      623.18969     -116417.79      199.87579      199.56631      584.44244    
      6100  -117024.44      621.34987     -116403.09      199.87564      199.56278      584.72615    
      6200  -117016.25      621.0546      -116395.2       199.86466      199.54954      585.00986    
      6300  -117003.53      613.64329     -116389.89      199.84724      199.52993      585.29357    
      6400  -116996.05      614.07079     -116381.98      199.8432       199.52374      585.57728    
      6500  -116978.53      609.92053     -116368.61      199.83876      199.51778      585.86099    
      6600  -116970.76      620.8942      -116349.87      199.81996      199.49749      586.1447     
      6700  -116945.23      613.44186     -116331.79      199.80676      199.48323      586.42841    
      6800  -116937.44      616.99512     -116320.44      199.80512      199.48048      586.71212    
      6900  -116936.04      623.52752     -116312.52      199.79158      199.46605      586.99583    
      7000  -116914.67      609.51516     -116305.15      199.7721       199.44574      587.27954    
      7100  -116909.59      614.77494     -116294.81      199.76597      199.43948      587.56325    
      7200  -116890.57      613.11366     -116277.45      199.7584       199.43154      587.84696    
      7300  -116875.66      620.35352     -116255.31      199.73675      199.40979      588.13067    
      7400  -116857.05      617.27303     -116239.78      199.72367      199.39647      588.41438    
      7500  -116844.88      615.12091     -116229.76      199.71852      199.39132      588.69809    
      7600  -116839.39      618.44281     -116220.95      199.70115      199.37366      588.9818     
      7700  -116825.98      616.18351     -116209.8       199.68241      199.35422      589.26551    
      7800  -116809.9       616.1611      -116193.74      199.67502      199.34633      589.54922    
      7900  -116788.22      616.42495     -116171.8       199.66296      199.3329       589.83293    
      8000  -116775.92      623.37074     -116152.55      199.64248      199.31156      590.11664    
      8100  -116759.03      618.98255     -116140.05      199.63034      199.29754      590.40035    
      8200  -116743.33      610.73179     -116132.6       199.62203      199.28731      590.68406    
      8300  -116734.79      613.25548     -116121.53      199.60291      199.2663       590.96777    
      8400  -116715.54      610.07535     -116105.46      199.58633      199.24604      591.25148    
      8500  -116703.14      617.52991     -116085.61      199.57792      199.23542      591.53519    
      8600  -116683.57      618.70198     -116064.87      199.56326      199.21704      591.8189     
      8700  -116670.26      623.7143      -116046.55      199.54311      199.19208      592.10261    
      8800  -116650.1       615.4332      -116034.67      199.53236      199.17729      592.38632    
      8900  -116639.62      614.69914     -116024.92      199.52174      199.16109      592.67003    
      9000  -116627.63      617.15699     -116010.47      199.50155      199.13582      592.95374    
      9100  -116609.85      617.07317     -115992.77      199.48642      199.11487      593.23745    
      9200  -116591.42      619.26495     -115972.15      199.47717      199.09908      593.52116    
      9300  -116567.39      616.15523     -115951.24      199.45949      199.07516      593.80487    
      9400  -116553.82      620.53176     -115933.29      199.44042      199.04812      594.08858    
      9500  -116540.11      620.31898     -115919.79      199.43007      199.03017      594.37229    
      9600  -116517.52      610.48444     -115907.04      199.41708      199.00981      594.656      
      9700  -116503.91      612.79113     -115891.11      199.39678      198.98012      594.93971    
      9800  -116485.28      612.98497     -115872.3       199.38231      198.9563       595.22342    
      9900  -116468.36      617.1801      -115851.18      199.37218      198.93785      595.50713    
     10000  -116452.72      623.12704     -115829.59      199.35369      198.90838      595.79084    
     10100  -116432.52      620.74726     -115811.77      199.33429      198.87898      596.07455    
     10200  -116412.55      613.68163     -115798.86      199.32397      198.85855      596.35826    
     10300  -116403.22      619.60727     -115783.61      199.30914      198.83177      596.64197    
     10400  -116376.32      612.46304     -115763.86      199.28782      198.79966      596.92568    
     10500  -116351.01      608.49155     -115742.52      199.27455      198.77523      597.20939    
     10600  -116335.14      612.93457     -115722.21      199.26269      198.75131      597.4931     
     10700  -116320.41      617.41222     -115702.99      199.24132      198.71949      597.77681    
     10800  -116299.16      612.17588     -115686.98      199.22261      198.68891      598.06052    
     10900  -116289.52      618.52985     -115670.99      199.20985      198.66453      598.34423    
     11000  -116262.98      611.75146     -115651.23      199.19193      198.63608      598.62794    
     11100  -116244.93      616.56712     -115628.37      199.17041      198.60223      598.91165    
     11200  -116226.23      620.80453     -115605.43      199.15345      198.57475      599.19536    
     11300  -116199.85      615.37117     -115584.48      199.13763      198.54831      599.47907    
     11400  -116188.1       622.57994     -115565.52      199.11614      198.51456      599.76278    
     11500  -116170.73      621.82503     -115548.91      199.09464      198.4837       600.04649    
     11600  -116151.19      618.46668     -115532.72      199.07907      198.45722      600.3302     
     11700  -116125.42      613.05584     -115512.36      199.05869      198.4259       600.61391    
     11800  -116108.62      621.35832     -115487.26      199.03329      198.39236      600.89762    
     11900  -116081.09      619.54339     -115461.54      199.01559      198.36374      601.18133    
     12000  -116064         623.5868      -115440.42      198.9964       198.33539      601.46504    
     12100  -116036.52      613.50044     -115423.02      198.96993      198.30166      601.74875    
     12200  -116023.93      616.74396     -115407.19      198.94788      198.26971      602.03246    
     12300  -116005.65      617.42183     -115388.23      198.92867      198.24352      602.31617    
     12400  -115978.61      614.72362     -115363.89      198.90461      198.21209      602.59987    
     12500  -115958.24      620.93644     -115337.3       198.87821      198.17726      602.88358    
     12600  -115930.25      616.59105     -115313.66      198.85563      198.14981      603.16729    
     12700  -115909.15      615.83693     -115293.31      198.83406      198.12067      603.451      
     12800  -115897.53      622.03545     -115275.49      198.80611      198.08636      603.73471    
     12900  -115873.07      615.95295     -115257.11      198.77976      198.05599      604.01842    
     13000  -115853.52      617.62582     -115235.9       198.75914      198.02835      604.30213    
     13100  -115828.56      619.53716     -115209.02      198.73222      197.99689      604.58584    
     13200  -115795.31      614.5351      -115180.77      198.7025       197.9633       604.86955    
     13300  -115772.4       616.62919     -115155.77      198.67922      197.93452      605.15326    
     13400  -115752.2       617.08428     -115135.11      198.65398      197.90672      605.43697    
     13500  -115725.69      605.84493     -115119.85      198.62477      197.87357      605.72068    
     13600  -115716.73      616.37198     -115100.36      198.59724      197.8421       606.00439    
     13700  -115688.15      614.69638     -115073.45      198.57251      197.8154       606.2881     
     13800  -115663.36      623.46287     -115039.9       198.5454       197.78441      606.57181    
     13900  -115640.02      623.41432     -115016.6       198.51621      197.75183      606.85552    
     14000  -115616.89      617.93039     -114998.96      198.48957      197.72312      607.13923    
     14100  -115594.35      614.05838     -114980.29      198.46392      197.69359      607.42294    
     14200  -115572.2       616.94796     -114955.25      198.43464      197.6621       607.70665    
     14300  -115533.5       611.55938     -114921.94      198.40768      197.63171      607.99036    
     14400  -115509.48      617.26375     -114892.22      198.38267      197.60303      608.27407    
     14500  -115495.89      623.78859     -114872.1       198.35426      197.57247      608.55778    
     14600  -115468.59      615.68633     -114852.9       198.326        197.54059      608.84149    
     14700  -115445.34      614.68706     -114830.65      198.3003       197.51145      609.1252     
     14800  -115419.31      613.62374     -114805.69      198.27356      197.48238      609.40891    
     14900  -115391.95      614.24683     -114777.7       198.24654      197.45087      609.69262    
     15000  -115366.61      623.68326     -114742.92      198.22052      197.42173      609.97633    
     15100  -115342.56      625.3632      -114717.2       198.19604      197.39303      610.26004    
     15200  -115316.84      615.65133     -114701.19      198.16988      197.36188      610.54375    
     15300  -115292.34      612.37723     -114679.96      198.14328      197.33141      610.82746    
     15400  -115268.53      613.42591     -114655.11      198.11989      197.30287      611.11117    
     15500  -115244.64      616.75361     -114627.89      198.09626      197.2733       611.39488    
     15600  -115213.91      620.1292      -114593.78      198.07045      197.24253      611.67859    
     15700  -115189.32      625.76636     -114563.55      198.04758      197.21295      611.9623     
     15800  -115160.88      616.15214     -114544.73      198.02628      197.1858       612.24601    
     15900  -115138.84      615.2715      -114523.57      198.00232      197.15522      612.52972    
     16000  -115115.88      617.37006     -114498.51      197.97816      197.12415      612.81343    
     16100  -115089.16      616.90002     -114472.26      197.95821      197.09729      613.09714    
     16200  -115060         617.25225     -114442.75      197.93793      197.07017      613.38085    
     16300  -115033.03      624.80634     -114408.22      197.91451      197.03888      613.66456    
     16400  -115002.22      622.06354     -114380.16      197.89362      197.0104       613.94827    
     16500  -114979.37      616.92655     -114362.44      197.87609      196.98523      614.23198    
     16600  -114957.16      616.43359     -114340.73      197.85543      196.95626      614.51569    
     16700  -114928.31      618.11395     -114310.2       197.83344      196.92528      614.7994     
     16800  -114893.27      614.30077     -114278.97      197.81714      196.90123      615.08311    
     16900  -114864.17      617.98687     -114246.19      197.8006       196.87554      615.36682    
     17000  -114838.47      626.71626     -114211.76      197.77841      196.84474      615.65053    
     17100  -114803.04      619.31814     -114183.72      197.76121      196.81969      615.93424    
     17200  -114785.06      617.3825      -114167.68      197.74753      196.79659      616.21795    
     17300  -114764.27      619.81714     -114144.45      197.72772      196.76883      616.50166    
     17400  -114728.19      610.70122     -114117.49      197.70896      196.74215      616.78537    
     17500  -114703.7       617.97006     -114085.73      197.69684      196.721        617.06908    
     17600  -114670.67      622.09433     -114048.58      197.6807       196.69803      617.35279    
     17700  -114639.46      620.17934     -114019.28      197.66136      196.67035      617.6365     
     17800  -114614.29      617.44516     -113996.85      197.64644      196.64798      617.92021    
     17900  -114585.77      614.68612     -113971.09      197.63324      196.62812      618.20392    
     18000  -114559.14      617.06622     -113942.07      197.61595      196.60276      618.48763    
     18100  -114531.83      619.654       -113912.18      197.59876      196.57978      618.77134    
     18200  -114498.38      618.16926     -113880.21      197.58713      196.56211      619.05505    
     18300  -114466.6       621.67482     -113844.92      197.57362      196.54159      619.33876    
     18400  -114432.8       617.26511     -113815.53      197.55557      196.51941      619.62247    
     18500  -114410.55      614.47404     -113796.08      197.54178      196.50015      619.90618    
     18600  -114385.64      615.72263     -113769.91      197.52971      196.4826       620.18989    
     18700  -114349.84      612.11495     -113737.73      197.51373      196.4635       620.4736     
     18800  -114314.59      611.70267     -113702.89      197.49963      196.4442       620.75731    
     18900  -114296.83      629.09854     -113667.73      197.4872       196.42847      621.04102    
     19000  -114256.37      626.84959     -113629.52      197.47313      196.41228      621.32473    
     19100  -114216.97      619.95883     -113597.01      197.45876      196.39381      621.60844    
     19200  -114197.68      619.50436     -113578.17      197.44477      196.3789       621.89215    
     19300  -114164.9       611.20073     -113553.7       197.43211      196.36387      622.17586    
     19400  -114141.88      615.10519     -113526.78      197.4178       196.34723      622.45957    
     19500  -114110.8       615.24235     -113495.56      197.40309      196.33254      622.74328    
     19600  -114077.27      619.99044     -113457.28      197.39174      196.31949      623.02699    
     19700  -114041.63      619.80057     -113421.83      197.37886      196.30617      623.3107     
     19800  -114017.11      622.01287     -113395.09      197.36307      196.29147      623.59441    
     19900  -113987.57      617.99361     -113369.58      197.35018      196.27747      623.87812    
     20000  -113959.49      620.39164     -113339.09      197.33812      196.26693      624.16183    
     20100  -113924.27      617.06532     -113307.2       197.32494      196.25413      624.44554    
     20200  -113886.94      614.37944     -113272.56      197.30964      196.23996      624.72925    
     20300  -113856.37      621.77376     -113234.6       197.29694      196.2296       625.01296    
     20400  -113820.23      620.86069     -113199.36      197.28639      196.22013      625.29667    
     20500  -113796.59      620.12905     -113176.46      197.27144      196.20748      625.58038    
     20600  -113767.11      613.96964     -113153.14      197.25712      196.19605      625.86409    
     20700  -113736.4       616.95724     -113119.44      197.24538      196.18631      626.1478     
     20800  -113701.86      621.53555     -113080.32      197.23255      196.1764       626.43151    
     20900  -113664.66      619.21924     -113045.44      197.21952      196.16618      626.71522    
     21000  -113630.2       614.44765     -113015.75      197.20694      196.15609      626.99893    
     21100  -113606         610.93414     -112995.06      197.19416      196.14717      627.28264    
     21200  -113576.02      609.97492     -112966.05      197.182        196.13713      627.56635    
     21300  -113541.49      615.34444     -112926.15      197.16813      196.12661      627.85006    
     21400  -113502.15      614.59598     -112887.55      197.1562       196.11812      628.13377    
     21500  -113469.05      618.25651     -112850.79      197.14549      196.10957      628.41748    
     21600  -113434.96      619.79179     -112815.17      197.13124      196.09921      628.70119    
     21700  -113400.21      617.67556     -112782.53      197.11976      196.09037      628.9849     
     21800  -113372.11      613.56769     -112758.55      197.10982      196.08276      629.26861    
     21900  -113343.47      613.7332      -112729.73      197.09644      196.07271      629.55232    
     22000  -113305.49      613.05442     -112692.43      197.0844       196.06179      629.83603    
     22100  -113270.76      620.27962     -112650.49      197.07405      196.05399      630.11974    
     22200  -113237.9       621.62804     -112616.27      197.0634       196.04545      630.40345    
     22300  -113206.77      621.21395     -112585.56      197.05216      196.03439      630.68716    
     22400  -113170.97      614.16417     -112556.81      197.04059      196.02513      630.97087    
     22500  -113140.45      611.67525     -112528.77      197.03113      196.01534      631.25458    
     22600  -113110.92      611.31449     -112499.61      197.02016      196.00487      631.53829    
     22700  -113071.38      613.66759     -112457.71      197.00878      195.99448      631.822      
     22800  -113026.67      610.95009     -112415.72      197            195.98404      632.10571    
     22900  -112999.32      620.63534     -112378.69      196.99009      195.97429      632.38942    
     23000  -112964.89      620.43875     -112344.46      196.98078      195.96372      632.67313    
     23100  -112925.62      612.08578     -112313.53      196.97131      195.95214      632.95684    
     23200  -112897.71      610.96972     -112286.74      196.96177      195.94163      633.24055    
     23300  -112865.23      612.03354     -112253.2       196.95387      195.93088      633.52426    
     23400  -112824.64      616.85215     -112207.79      196.94478      195.91888      633.80797    
     23500  -112786.44      616.33942     -112170.1       196.93564      195.90764      634.09168    
     23600  -112754.06      618.47333     -112135.59      196.92826      195.89564      634.37539    
     23700  -112718.55      615.3805      -112103.17      196.92031      195.88433      634.6591     
     23800  -112691.61      616.43688     -112075.17      196.91221      195.87242      634.94281    
     23900  -112654         609.4105      -112044.58      196.90482      195.85951      635.22652    
     24000  -112614.83      614.24056     -112000.59      196.89623      195.84778      635.51023    
     24100  -112575.19      616.15587     -111959.04      196.88942      195.83499      635.79394    
     24200  -112540.76      617.32241     -111923.43      196.88135      195.82252      636.07765    
     24300  -112506.84      619.10947     -111887.73      196.87203      195.80864      636.36136    
     24400  -112469.27      615.79189     -111853.48      196.86593      195.79588      636.64507    
     24500  -112434.71      615.18351     -111819.52      196.85873      195.78465      636.92878    
     24600  -112408.83      624.83866     -111783.99      196.85106      195.77027      637.21249    
     24700  -112360.72      616.12038     -111744.6       196.84375      195.75689      637.4962     
     24800  -112325.26      622.45344     -111702.8       196.83641      195.74431      637.77991    
     24900  -112286.38      621.04069     -111665.34      196.8292       195.7301       638.06362    
     25000  -112253.63      615.50326     -111638.12      196.82072      195.71617      638.34733    
     25100  -112224.56      616.54488     -111608.02      196.81384      195.70281      638.63104    
     25200  -112183.6       615.05711     -111568.54      196.80698      195.68926      638.91474    
     25300  -112145.3       619.99213     -111525.31      196.79805      195.67542      639.19845    
     25400  -112103.99      617.51551     -111486.47      196.79057      195.66106      639.48216    
     25500  -112070         617.66104     -111452.34      196.78414      195.64959      639.76587    
     25600  -112031.64      613.26158     -111418.37      196.77555      195.63576      640.04958    
     25700  -111998.62      616.57652     -111382.04      196.76583      195.62024      640.33329    
     25800  -111953.49      613.14084     -111340.35      196.75869      195.60873      640.617      
     25900  -111922.23      625.55395     -111296.67      196.75146      195.59639      640.90071    
     26000  -111881.12      620.05762     -111261.06      196.74128      195.58208      641.18442    
     26100  -111840.6       608.16683     -111232.43      196.73109      195.56834      641.46813    
     26200  -111812.51      614.33295     -111198.17      196.72279      195.55601      641.75184    
     26300  -111774.56      616.94237     -111157.62      196.71324      195.54415      642.03555    
     26400  -111739.19      621.56292     -111117.63      196.70293      195.5303       642.31926    
     26500  -111691.81      612.7886      -111079.02      196.69256      195.51773      642.60297    
     26600  -111655.67      615.43292     -111040.24      196.68294      195.50616      642.88668    
     26700  -111615.48      614.44911     -111001.03      196.67253      195.49316      643.17039    
     26800  -111577.81      619.87806     -110957.93      196.6604       195.48036      643.4541     
     26900  -111538.18      620.02276     -110918.15      196.65014      195.46885      643.73781    
     27000  -111505.41      618.3239      -110887.09      196.63939      195.45714      644.02152    
     27100  -111470.05      613.6067      -110856.44      196.62558      195.44426      644.30523    
     27200  -111432.26      614.63262     -110817.62      196.6138       195.43176      644.58894    
     27300  -111388.57      613.63745     -110774.93      196.60251      195.4215       644.87265    
     27400  -111352.72      618.30285     -110734.42      196.58943      195.40996      645.15636    
     27500  -111311.87      615.86669     -110696         196.57562      195.39635      645.44007    
     27600  -111274.23      616.49134     -110657.74      196.56203      195.38594      645.72378    
     27700  -111237.23      619.69605     -110617.53      196.54992      195.3747       646.00749    
     27800  -111196.35      624.33759     -110572.01      196.53626      195.36354      646.2912     
     27900  -111158.31      626.44276     -110531.87      196.52158      195.35249      646.57491    
     28000  -111117.75      617.01998     -110500.73      196.50825      195.34029      646.85862    
     28100  -111077.69      608.99783     -110468.69      196.49377      195.33072      647.14233    
     28200  -111046.07      616.90558     -110429.16      196.47981      195.31928      647.42604    
     28300  -111005.27      619.37537     -110385.89      196.46452      195.30683      647.70975    
     28400  -110962.25      619.05035     -110343.2       196.44911      195.29699      647.99346    
     28500  -110922.95      618.93502     -110304.01      196.4363       195.28578      648.27717    
     28600  -110885.52      619.95446     -110265.56      196.41905      195.27384      648.56088    
     28700  -110840.97      613.60235     -110227.37      196.40355      195.26205      648.84459    
     28800  -110805.23      616.32892     -110188.9       196.39023      195.25171      649.1283     
     28900  -110759.04      612.19339     -110146.85      196.37304      195.24017      649.41201    
     29000  -110717.82      618.48242     -110099.34      196.35665      195.22632      649.69572    
     29100  -110682.61      624.03669     -110058.58      196.34226      195.21622      649.97943    
     29200  -110647.17      620.76749     -110026.4       196.32696      195.20554      650.26314    
     29300  -110612.61      617.58559     -109995.03      196.31043      195.19116      650.54685    
     29400  -110571.82      618.46907     -109953.36      196.29353      195.17887      650.83056    
     29500  -110525.82      617.20116     -109908.61      196.27994      195.1679       651.11427    
     29600  -110479.37      615.2968      -109864.07      196.26443      195.15505      651.39798    
     29700  -110442.51      619.38078     -109823.13      196.24639      195.14091      651.68169    
     29800  -110403.62      616.13376     -109787.48      196.23175      195.12725      651.9654     
     29900  -110367         610.27344     -109756.73      196.21644      195.11576      652.24911    
     30000  -110322.71      608.34332     -109714.37      196.2002       195.10121      652.53282    
     30100  -110284.27      618.73803     -109665.54      196.18474      195.08673      652.81653    
     30200  -110242.63      620.5435      -109622.08      196.16932      195.07429      653.10024    
     30300  -110197.16      615.01332     -109582.14      196.15487      195.05929      653.38395    
     30400  -110168.34      623.57068     -109544.77      196.13805      195.04465      653.66766    
     30500  -110123.62      611.428       -109512.19      196.12287      195.02951      653.95137    
     30600  -110078.43      606.46392     -109471.97      196.10882      195.01461      654.23508    
     30700  -110033.6       612.91276     -109420.69      196.09263      194.99918      654.51879    
     30800  -109996.79      619.71394     -109377.07      196.07813      194.98275      654.8025     
     30900  -109951.03      616.62257     -109334.41      196.06343      194.96767      655.08621    
     31000  -109911.38      619.2457      -109292.13      196.04897      194.95157      655.36992    
     31100  -109870.61      619.45777     -109251.15      196.03397      194.93424      655.65363    
     31200  -109828.81      614.67951     -109214.13      196.01894      194.91789      655.93734    
     31300  -109795.53      616.75475     -109178.78      196.00519      194.90065      656.22105    
     31400  -109748.23      612.33698     -109135.89      195.98962      194.88302      656.50476    
     31500  -109705.72      621.05382     -109084.67      195.97532      194.86562      656.78847    
     31600  -109660.92      619.08211     -109041.84      195.96166      194.84814      657.07218    
     31700  -109620.82      618.93561     -109001.88      195.94579      194.82911      657.35589    
     31800  -109584.38      618.66043     -108965.71      195.93094      194.80989      657.6396     
     31900  -109543.08      609.60441     -108933.47      195.91847      194.79342      657.92331    
     32000  -109501.08      611.24        -108889.84      195.90407      194.7748       658.20702    
     32100  -109452.96      613.40597     -108839.55      195.88758      194.75329      658.49073    
     32200  -109413.55      617.48593     -108796.06      195.87338      194.73469      658.77444    
     32300  -109369.61      617.60232     -108752         195.8613       194.71705      659.05815    
     32400  -109323.03      615.81031     -108707.22      195.84571      194.69664      659.34186    
     32500  -109288.48      625.90967     -108662.57      195.82947      194.67519      659.62557    
     32600  -109239.01      618.03959     -108620.97      195.81666      194.65672      659.90928    
     32700  -109200.39      613.27435     -108587.12      195.8037       194.63905      660.19299    
     32800  -109159.66      609.94361     -108549.72      195.78754      194.61721      660.4767     
     32900  -109114.96      611.38332     -108503.58      195.77129      194.59567      660.76041    
     33000  -109072.28      619.62187     -108452.65      195.75842      194.57802      661.04412    
     33100  -109025.25      615.12745     -108410.12      195.74461      194.55844      661.32783    
     33200  -108986.18      614.72262     -108371.45      195.72713      194.53634      661.61154    
     33300  -108948.9       616.96645     -108331.93      195.71108      194.51525      661.89525    
     33400  -108903.44      616.11423     -108287.33      195.69787      194.49725      662.17896    
     33500  -108855.36      620.08356     -108235.28      195.68213      194.47721      662.46267    
     33600  -108813.38      621.96699     -108191.42      195.6646       194.45463      662.74638    
     33700  -108771.56      616.92927     -108154.63      195.64895      194.43501      663.03009    
     33800  -108730.39      612.56072     -108117.83      195.63444      194.41625      663.3138     
     33900  -108693.93      617.98369     -108075.95      195.61746      194.39592      663.59751    
     34000  -108639.1       618.71443     -108020.39      195.59986      194.37461      663.88122    
     34100  -108597.4       622.83837     -107974.56      195.58389      194.35562      664.16493    
     34200  -108557.93      619.24095     -107938.68      195.56863      194.33743      664.44864    
     34300  -108517.73      614.81629     -107902.92      195.55057      194.31645      664.73235    
     34400  -108474.43      613.94882     -107860.48      195.53077      194.29472      665.01606    
     34500  -108429.31      618.92394     -107810.38      195.51416      194.27634      665.29977    
     34600  -108380.71      619.80793     -107760.9       195.49785      194.2585       665.58348    
     34700  -108333.74      614.51779     -107719.22      195.47763      194.23754      665.86719    
     34800  -108294.57      614.63513     -107679.94      195.45813      194.21763      666.1509     
     34900  -108256.05      615.75549     -107640.29      195.44161      194.2007       666.43461    
     35000  -108212.43      615.58361     -107596.84      195.42259      194.18194      666.71832    
     35100  -108159.84      614.64151     -107545.2       195.40173      194.1608       667.00203    
     35200  -108119.12      621.61065     -107497.51      195.38202      194.14253      667.28574    
     35300  -108074.62      618.02925     -107456.59      195.36427      194.12527      667.56945    
     35400  -108041.21      620.05312     -107421.16      195.34471      194.1071       667.85316    
     35500  -107995.71      612.75723     -107382.96      195.3238       194.08804      668.13687    
     35600  -107946.74      611.13191     -107335.6       195.30416      194.06977      668.42058    
     35700  -107898.33      609.57197     -107288.76      195.28527      194.05344      668.70429    
     35800  -107861.44      619.1142      -107242.33      195.26434      194.03498      668.988      
     35900  -107812.45      617.33278     -107195.12      195.24203      194.01541      669.27171    
     36000  -107763.77      617.81575     -107145.96      195.22103      193.99771      669.55542    
     36100  -107717.97      622.02508     -107095.95      195.20163      193.98112      669.83913    
     36200  -107672.63      621.21843     -107051.41      195.18012      193.96362      670.12284    
     36300  -107634.8       615.61075     -107019.19      195.15867      193.94498      670.40655    
     36400  -107595.48      615.121       -106980.36      195.138        193.92796      670.69026    
     36500  -107549.74      614.9429      -106934.8       195.11694      193.91057      670.97397    
     36600  -107502.66      618.49335     -106884.17      195.09534      193.89228      671.25768    
     36700  -107452.37      617.32256     -106835.04      195.07304      193.87427      671.54139    
     36800  -107412.29      619.41677     -106792.87      195.05359      193.85749      671.8251     
     36900  -107372         610.66734     -106761.33      195.03208      193.84054      672.10881    
     37000  -107332.9       613.81361     -106719.09      195.0087       193.82061      672.39252    
     37100  -107281.58      613.47499     -106668.1       194.98784      193.80299      672.67623    
     37200  -107239.99      622.8575      -106617.13      194.96886      193.78855      672.95994    
     37300  -107191.83      621.93133     -106569.9       194.94759      193.76947      673.24365    
     37400  -107143.97      618.24449     -106525.72      194.92307      193.7494       673.52736    
     37500  -107100.55      612.3521      -106488.2       194.90358      193.73225      673.81107    
     37600  -107058.7       608.4741      -106450.23      194.88499      193.71706      674.09478    
     37700  -107010.71      610.6007      -106400.11      194.86226      193.69746      674.37849    
     37800  -106970.35      621.63671     -106348.71      194.83991      193.67734      674.6622     
     37900  -106918.82      615.92633     -106302.89      194.82155      193.66242      674.94591    
     38000  -106869.56      613.40807     -106256.15      194.80229      193.64474      675.22962    
     38100  -106829.54      622.07373     -106207.47      194.77891      193.62376      675.51332    
     38200  -106780.33      622.86089     -106157.47      194.75869      193.60495      675.79703    
     38300  -106737.84      625.51768     -106112.32      194.74172      193.58883      676.08074    
     38400  -106699.3       620.77229     -106078.53      194.72146      193.57037      676.36445    
     38500  -106652.45      614.61679     -106037.83      194.69976      193.54818      676.64816    
     38600  -106603.93      612.96975     -105990.96      194.68074      193.53008      676.93187    
     38700  -106555.31      616.8907      -105938.42      194.66423      193.5128       677.21558    
     38800  -106505.31      615.24551     -105890.07      194.64438      193.49222      677.49929    
     38900  -106466.36      619.61395     -105846.74      194.62296      193.47031      677.783      
     39000  -106419.95      615.77514     -105804.18      194.60615      193.45144      678.06671    
     39100  -106379.19      618.22939     -105760.96      194.58993      193.43441      678.35042    
     39200  -106328.37      612.49025     -105715.88      194.57053      193.41221      678.63413    
     39300  -106281.93      619.38927     -105662.54      194.55035      193.38954      678.91784    
     39400  -106235.4       623.54039     -105611.86      194.5355       193.37241      679.20155    
     39500  -106191.32      618.85801     -105572.46      194.52071      193.35434      679.48526    
     39600  -106150.25      617.2771      -105532.97      194.49959      193.3304       679.76897    
     39700  -106104.59      615.69111     -105488.9       194.48207      193.30846      680.05268    
     39800  -106053.06      611.4095      -105441.65      194.46858      193.29158      680.33639    
     39900  -106010.58      617.50367     -105393.08      194.45198      193.27083      680.6201     
     40000  -105965.59      618.89592     -105346.7       194.43302      193.24715      680.90381    
     40100  -105923.63      622.06533     -105301.57      194.41787      193.22781      681.18752    
     40200  -105873.92      616.61126     -105257.31      194.40485      193.20974      681.47123    
     40300  -105822.12      609.53644     -105212.58      194.38761      193.18784      681.75494    
     40400  -105782.88      616.48299     -105166.4       194.36972      193.16509      682.03865    
     40500  -105729.36      614.53453     -105114.83      194.35554      193.14543      682.32236    
     40600  -105684.98      620.80726     -105064.18      194.34095      193.12596      682.60607    
     40700  -105644.58      624.41276     -105020.17      194.32382      193.10343      682.88978    
     40800  -105600.22      616.34289     -104983.87      194.30709      193.08185      683.17349    
     40900  -105552.59      611.58957     -104941         194.29381      193.06366      683.4572     
     41000  -105501.82      610.26626     -104891.56      194.27919      193.0433       683.74091    
     41100  -105454.84      613.40191     -104841.44      194.26135      193.0213       684.02462    
     41200  -105415.53      621.78259     -104793.75      194.24635      193.0006       684.30833    
     41300  -105360.09      612.63933     -104747.45      194.23238      192.98212      684.59204    
     41400  -105325.06      623.80399     -104701.25      194.21672      192.96184      684.87575    
     41500  -105272.82      616.06604     -104656.75      194.2009       192.94091      685.15946    
     41600  -105226.56      613.53937     -104613.03      194.18584      192.9222       685.44317    
     41700  -105178.17      612.45425     -104565.71      194.17144      192.90292      685.72688    
     41800  -105136.67      622.17549     -104514.5       194.15575      192.88356      686.01059    
     41900  -105079.8       616.52774     -104463.28      194.14006      192.86409      686.2943     
     42000  -105036.35      617.88117     -104418.47      194.1253       192.84544      686.57801    
     42100  -104996.21      612.98554     -104383.23      194.10943      192.82721      686.86172    
     42200  -104953.38      615.18382     -104338.2       194.09365      192.80771      687.14543    
     42300  -104902.3       616.35065     -104285.94      194.07705      192.78959      687.42914    
     42400  -104854.02      619.54012     -104234.48      194.06274      192.77268      687.71285    
     42500  -104805         617.17107     -104187.82      194.04726      192.7558       687.99656    
     42600  -104761.54      618.64422     -104142.9       194.03009      192.73703      688.28027    
     42700  -104717.49      618.03373     -104099.46      194.01419      192.71979      688.56398    
     42800  -104672.48      609.39778     -104063.09      193.99988      192.70522      688.84769    
     42900  -104622.87      607.0721      -104015.8       193.98357      192.68772      689.1314     
     43000  -104574.7       613.95337     -103960.75      193.96509      192.66965      689.41511    
     43100  -104527.99      617.80115     -103910.19      193.94979      192.65391      689.69882    
     43200  -104480.15      619.04713     -103861.11      193.93477      192.6394       689.98253    
     43300  -104433.12      620.73153     -103812.39      193.91625      192.62213      690.26624    
     43400  -104380.56      616.65828     -103763.9       193.89899      192.60535      690.54995    
     43500  -104338.65      617.38425     -103721.27      193.88339      192.59231      690.83366    
     43600  -104297.98      616.69758     -103681.29      193.86673      192.57716      691.11737    
     43700  -104249.91      613.71781     -103636.19      193.84805      192.56104      691.40108    
     43800  -104198.42      616.6298      -103581.79      193.83139      192.54731      691.68479    
     43900  -104145.59      618.01028     -103527.58      193.81653      192.53429      691.9685     
     44000  -104105.5       622.79995     -103482.7       193.79789      192.5196       692.25221    
     44100  -104050.9       609.92455     -103440.98      193.77992      192.50435      692.53592    
     44200  -104016.99      619.05184     -103397.94      193.76383      192.49232      692.81963    
     44300  -103963.83      612.91675     -103350.91      193.74742      192.47962      693.10334    
     44400  -103916.57      616.246       -103300.32      193.72948      192.46478      693.38705    
     44500  -103862.04      623.38874     -103238.65      193.71114      192.45194      693.67076    
     44600  -103812.94      619.3035      -103193.64      193.69601      192.43967      693.95447    
     44700  -103777.3       621.56283     -103155.74      193.67775      192.42684      694.23818    
     44800  -103727.3       613.93857     -103113.36      193.6593       192.41202      694.52189    
     44900  -103683.15      616.15037     -103067         193.64281      192.40038      694.8056     
     45000  -103630.82      615.4482      -103015.37      193.6274       192.38949      695.08931    
     45100  -103581.37      621.9398      -102959.43      193.60911      192.37535      695.37302    
     45200  -103529.05      616.81286     -102912.23      193.59008      192.36153      695.65673    
     45300  -103491.6       620.1911      -102871.41      193.57418      192.34918      695.94044    
     45400  -103449         623.05622     -102825.94      193.55835      192.33824      696.22415    
     45500  -103396.34      615.69287     -102780.64      193.54161      192.32595      696.50786    
     45600  -103348.15      612.43152     -102735.72      193.5235       192.31181      696.79157    
     45700  -103302.53      614.18376     -102688.35      193.50633      192.29941      697.07528    
     45800  -103251.55      614.26172     -102637.28      193.49159      192.28815      697.35899    
     45900  -103201.88      618.9094      -102582.97      193.47504      192.27568      697.6427     
     46000  -103154.26      618.75976     -102535.5       193.45758      192.26142      697.92641    
     46100  -103109         612.04242     -102496.96      193.44169      192.2488       698.21012    
     46200  -103068.37      615.24862     -102453.12      193.4277       192.23808      698.49383    
     46300  -103017.75      615.07067     -102402.68      193.41168      192.22496      698.77754    
     46400  -102972.28      621.12688     -102351.15      193.39439      192.21001      699.06125    
     46500  -102917.64      616.80388     -102300.83      193.38047      192.19816      699.34496    
     46600  -102875.07      621.45005     -102253.62      193.36728      192.18694      699.62867    
     46700  -102823.05      611.45931     -102211.59      193.35076      192.17231      699.91238    
     46800  -102779.42      611.52663     -102167.89      193.33469      192.15747      700.19609    
     46900  -102730.45      612.45759     -102118         193.32199      192.14644      700.4798     
     47000  -102683.03      622.26616     -102060.77      193.30919      192.1343       700.76351    
     47100  -102633.22      623.06429     -102010.15      193.29223      192.11847      701.04722    
     47200  -102584.13      617.84433     -101966.29      193.2771       192.10311      701.33093    
     47300  -102540.9       619.06657     -101921.83      193.26588      192.09205      701.61464    
     47400  -102491.86      616.68416     -101875.18      193.25295      192.07863      701.89835    
     47500  -102449.28      620.91087     -101828.36      193.23688      192.06184      702.18206    
     47600  -102398.05      616.06426     -101781.98      193.22332      192.04734      702.46577    
     47700  -102352.35      615.65017     -101736.7       193.21321      192.03562      702.74948    
     47800  -102299.67      611.29459     -101688.37      193.20042      192.02124      703.03319    
     47900  -102253.65      619.12897     -101634.52      193.18511      192.00352      703.3169     
     48000  -102202.86      623.05328     -101579.81      193.17261      191.98878      703.60061    
     48100  -102160.31      626.32878     -101533.98      193.16356      191.97691      703.88432    
     48200  -102109.49      613.2545      -101496.24      193.15167      191.96224      704.16803    
     48300  -102060.02      611.30048     -101448.72      193.13746      191.94421      704.45174    
     48400  -102016.05      619.16036     -101396.89      193.12566      191.92965      704.73545    
     48500  -101965.37      622.6522      -101342.72      193.11641      191.91643      705.01916    
     48600  -101908.34      617.19002     -101291.15      193.10449      191.90073      705.30287    
     48700  -101872.07      620.87209     -101251.2       193.0913       191.88371      705.58658    
     48800  -101824.09      615.92984     -101208.16      193.08095      191.86917      705.87029    
     48900  -101775.62      617.7199      -101157.9       193.07097      191.85554      706.154      
     49000  -101723.35      620.20456     -101103.14      193.05888      191.83839      706.43771    
     49100  -101675.99      626.04797     -101049.94      193.04697      191.82267      706.72142    
     49200  -101619.96      613.13022     -101006.83      193.03769      191.80818      707.00513    
     49300  -101581.89      615.77096     -100966.11      193.02724      191.79344      707.28884    
     49400  -101531.38      612.97879     -100918.4       193.01556      191.77699      707.57255    
     49500  -101483.49      618.91203     -100864.58      193.00417      191.76023      707.85626    
     49600  -101435.87      628.21836     -100807.65      192.9939       191.74542      708.13997    
     49700  -101385.82      625.89259     -100759.92      192.98422      191.73076      708.42368    
     49800  -101337.69      614.79463     -100722.9       192.97194      191.7142       708.70739    
     49900  -101294.57      619.15744     -100675.42      192.96019      191.69728      708.9911     
     50000  -101246.73      620.66195     -100626.07      192.95054      191.68382      709.27481    
     50100  -101193.77      618.81368     -100574.95      192.94106      191.66922      709.55852    
     50200  -101142.93      617.58736     -100525.34      192.9281       191.65301      709.84223    
     50300  -101103.62      623.77992     -100479.84      192.91593      191.63646      710.12594    
     50400  -101050.74      614.04949     -100436.69      192.90671      191.6236       710.40965    
     50500  -101004.55      615.2737      -100389.27      192.89645      191.60992      710.69336    
     50600  -100949.56      617.31738     -100332.25      192.88219      191.59161      710.97707    
     50700  -100895.98      620.65335     -100275.33      192.86987      191.57688      711.26078    
     50800  -100848.25      618.37385     -100229.88      192.86157      191.56444      711.54449    
     50900  -100802.97      615.91655     -100187.05      192.84942      191.55034      711.8282     
     51000  -100760.37      620.72841     -100139.65      192.83531      191.5338       712.1119     
     51100  -100709.88      618.34561     -100091.53      192.82418      191.52002      712.39561    
     51200  -100660.96      615.64426     -100045.32      192.81352      191.50849      712.67932    
     51300  -100611.29      607.62422     -100003.66      192.80088      191.49293      712.96303    
     51400  -100563.22      610.86403     -99952.361      192.78605      191.47811      713.24674    
     51500  -100510.74      618.52082     -99892.223      192.77531      191.46569      713.53045    
     51600  -100460.32      619.55638     -99840.767      192.76323      191.45229      713.81416    
     51700  -100414.93      620.25999     -99794.674      192.74827      191.43789      714.09787    
     51800  -100366.76      616.67316     -99750.083      192.73637      191.42436      714.38158    
     51900  -100321.78      619.1326      -99702.648      192.72387      191.41328      714.66529    
     52000  -100267.28      614.45837     -99652.817      192.71013      191.39906      714.949      
     52100  -100220.24      618.51322     -99601.726      192.69461      191.38433      715.23271    
     52200  -100170.28      617.68635     -99552.596      192.68152      191.37255      715.51642    
     52300  -100126.8       615.72543     -99511.074      192.66973      191.36102      715.80013    
     52400  -100076.23      612.75108     -99463.482      192.6548       191.34826      716.08384    
     52500  -100025.4       617.31506     -99408.081      192.64004      191.3339       716.36755    
     52600  -99979.375      627.32358     -99352.051      192.62622      191.32238      716.65126    
     52700  -99928.045      623.33711     -99304.708      192.61339      191.31112      716.93497    
     52800  -99879.964      615.81934     -99264.144      192.59834      191.29838      717.21868    
     52900  -99830.752      616.52065     -99214.231      192.58228      191.285        717.50239    
     53000  -99782.156      619.46334     -99162.692      192.56833      191.27325      717.7861     
     53100  -99734.04       620.34824     -99113.691      192.55465      191.26315      718.06981    
     53200  -99683.883      613.90763     -99069.976      192.53926      191.25007      718.35352    
     53300  -99628.866      606.01903     -99022.847      192.52257      191.23738      718.63723    
     53400  -99584.61       617.52559     -98967.085      192.50781      191.22606      718.92094    
     53500  -99527.485      622.22699     -98905.258      192.49381      191.2152       719.20465    
     53600  -99481.829      626.08416     -98855.745      192.4778       191.20377      719.48836    
     53700  -99429.985      619.25144     -98810.733      192.46187      191.19117      719.77207    
     53800  -99384.701      619.10215     -98765.599      192.44662      191.18044      720.05578    
     53900  -99335.808      616.6812      -98719.126      192.43182      191.16929      720.33949    
     54000  -99284.414      612.30748     -98672.106      192.41501      191.15665      720.6232     
     54100  -99230.266      607.72534     -98622.54       192.39854      191.14439      720.90691    
     54200  -99187.183      611.80023     -98575.383      192.38441      191.13361      721.19062    
     54300  -99146.55       613.52106     -98533.029      192.36985      191.12355      721.47433    
     54400  -99095.508      615.41278     -98480.095      192.35309      191.11024      721.75804    
     54500  -99039.647      618.19868     -98421.449      192.3355       191.09699      722.04175    
     54600  -98983.447      618.44324     -98365.004      192.32067      191.08634      722.32546    
     54700  -98937.494      617.61451     -98319.879      192.3064       191.0754       722.60917    
     54800  -98889.341      614.87001     -98274.471      192.28908      191.06286      722.89288    
     54900  -98842.085      617.51639     -98224.568      192.27305      191.0494       723.17659    
     55000  -98794.278      618.02517     -98176.253      192.25714      191.03813      723.4603     
     55100  -98740.444      611.02432     -98129.419      192.2426       191.02669      723.74401    
     55200  -98696.483      615.21374     -98081.27       192.22633      191.01408      724.02772    
     55300  -98648.369      618.87225     -98029.497      192.20863      190.99996      724.31143    
     55400  -98592.952      617.83847     -97975.114      192.19367      190.98751      724.59514    
     55500  -98543.714      621.35067     -97922.363      192.17968      190.97707      724.87885    
     55600  -98494.836      618.10099     -97876.735      192.16359      190.96283      725.16256    
     55700  -98441.275      610.38709     -97830.888      192.14703      190.94898      725.44627    
     55800  -98398.063      618.49205     -97779.571      192.13288      190.93693      725.72998    
     55900  -98346.485      618.57637     -97727.908      192.11899      190.92463      726.01369    
     56000  -98297.431      612.38537     -97685.046      192.10275      190.91089      726.2974     
     56100  -98248.831      613.30675     -97635.524      192.08635      190.8955       726.58111    
     56200  -98197.872      619.02683     -97578.845      192.07233      190.88295      726.86482    
     56300  -98144.091      622.56822     -97521.523      192.05838      190.87         727.14853    
     56400  -98087.914      615.50536     -97472.409      192.04159      190.85379      727.43224    
     56500  -98048.054      618.01978     -97430.035      192.02597      190.83915      727.71595    
     56600  -97995.179      615.4144      -97379.764      192.01371      190.82662      727.99966    
     56700  -97948.414      619.04854     -97329.366      191.99842      190.81207      728.28337    
     56800  -97902.584      621.4982      -97281.086      191.98253      190.79507      728.56708    
     56900  -97844.826      611.35628     -97233.47       191.96831      190.78088      728.85079    
     57000  -97799.46       616.89553     -97182.564      191.95516      190.76671      729.1345     
     57100  -97750.536      612.76968     -97137.766      191.94017      190.75082      729.41821    
     57200  -97699.167      613.75257     -97085.415      191.92552      190.73448      729.70192    
     57300  -97644.11       618.95489     -97025.155      191.91188      190.71922      729.98563    
     57400  -97588.834      623.56188     -96965.273      191.89783      190.70305      730.26934    
     57500  -97538.604      619.06924     -96919.535      191.88281      190.68561      730.55305    
     57600  -97487.757      614.9935      -96872.764      191.86923      190.67001      730.83676    
     57700  -97445.95       623.07787     -96822.872      191.85723      190.65439      731.12047    
     57800  -97392.986      617.99864     -96774.988      191.84218      190.63723      731.40418    
     57900  -97338.775      614.14826     -96724.627      191.82743      190.61911      731.68789    
     58000  -97289.013      616.55617     -96672.457      191.81564      190.60411      731.9716     
     58100  -97241.985      617.46135     -96624.523      191.8028       190.58795      732.25531    
     58200  -97189.156      612.37206     -96576.784      191.78732      190.56898      732.53902    
     58300  -97138.145      617.39226     -96520.752      191.7735       190.5523       732.82273    
     58400  -97082.54       617.64557     -96464.894      191.76161      190.53664      733.10644    
     58500  -97031.779      615.24217     -96416.537      191.74717      190.51875      733.39015    
     58600  -96985.533      616.11626     -96369.417      191.73215      190.50003      733.67386    
     58700  -96929.856      615.29052     -96314.566      191.71953      190.48315      733.95757    
     58800  -96882.306      621.10721     -96261.199      191.70617      190.46664      734.24128    
     58900  -96826.504      613.31698     -96213.187      191.69101      190.44722      734.52499    
     59000  -96779.21       617.50829     -96161.702      191.67669      190.42968      734.8087     
     59100  -96726.467      617.71026     -96108.757      191.66467      190.41389      735.09241    
     59200  -96677.697      621.09101     -96056.606      191.64921      190.39507      735.37612    
     59300  -96621.675      618.9789      -96002.697      191.63265      190.37528      735.65983    
     59400  -96572.022      621.66897     -95950.353      191.62005      190.35878      735.94354    
     59500  -96517.719      616.73365     -95900.985      191.60687      190.34278      736.22725    
     59600  -96466.762      617.63779     -95849.124      191.59147      190.3239       736.51096    
     59700  -96416.49       618.82578     -95797.664      191.57735      190.30657      736.79467    
     59800  -96365.383      619.50705     -95745.876      191.56364      190.29037      737.07838    
     59900  -96316.167      622.78113     -95693.386      191.54755      190.27078      737.36209    
     60000  -96260.287      620.09922     -95640.188      191.53198      190.25249      737.6458     
     60100  -96207.691      619.9523      -95587.739      191.51859      190.2367       737.92951    
     60200  -96158.898      622.94827     -95535.949      191.50422      190.21916      738.21322    
     60300  -96107.84       624.45261     -95483.388      191.48709      190.20036      738.49693    
     60400  -96050.973      619.32456     -95431.649      191.47208      190.18257      738.78064    
     60500  -95998.227      618.36043     -95379.867      191.45823      190.167        739.06435    
     60600  -95945.803      618.7565      -95327.046      191.44147      190.14874      739.34806    
     60700  -95893.807      619.92396     -95273.883      191.42407      190.12957      739.63177    
     60800  -95840.297      620.88479     -95219.412      191.40933      190.11381      739.91548    
     60900  -95789.378      621.37916     -95167.998      191.39509      190.09785      740.19919    
     61000  -95737.731      623.18688     -95114.544      191.37649      190.07904      740.4829     
     61100  -95683.168      621.88137     -95061.287      191.35902      190.06044      740.76661    
     61200  -95630.653      622.69972     -95007.953      191.34538      190.04599      741.05032    
     61300  -95575.292      620.37803     -94954.914      191.32993      190.03011      741.33403    
     61400  -95519.035      617.35108     -94901.684      191.3096       190.00985      741.61774    
     61500  -95468.394      620.1852      -94848.209      191.2921       189.99196      741.90145    
     61600  -95417.35       622.84275     -94794.508      191.2792       189.97891      742.18516    
     61700  -95360.767      619.27744     -94741.49       191.2616       189.96244      742.46887    
     61800  -95306.975      619.94401     -94687.031      191.24097      189.94252      742.75258    
     61900  -95253.782      621.85629     -94631.926      191.2238       189.9263       743.03629    
     62000  -95196.785      618.97888     -94577.806      191.20866      189.9128       743.32       
     62100  -95143.153      619.94629     -94523.206      191.19042      189.89488      743.60371    
     62200  -95085.458      617.75883     -94467.699      191.16962      189.8771       743.88742    
     62300  -95035.067      621.74129     -94413.325      191.15259      189.86119      744.17113    
     62400  -94984.687      625.2552      -94359.431      191.13803      189.84802      744.45484    
     62500  -94922.552      617.19003     -94305.362      191.11796      189.83114      744.73855    
     62600  -94866.429      617.04275     -94249.387      191.09709      189.8111       745.02226    
     62700  -94812.848      618.86288     -94193.985      191.08046      189.79774      745.30597    
     62800  -94757.905      619.14148     -94138.763      191.06442      189.78417      745.58968    
     62900  -94701.86       619.03661     -94082.823      191.04307      189.76431      745.87339    
     63000  -94644.63       618.00689     -94026.623      191.02141      189.74688      746.1571     
     63100  -94590.543      619.95806     -93970.585      191.0068       189.73423      746.44081    
     63200  -94536.621      621.12549     -93915.495      190.98893      189.7191       746.72452    
     63300  -94475.326      617.46819     -93857.858      190.96604      189.69991      747.00823    
     63400  -94420.864      618.16254     -93802.702      190.94771      189.68424      747.29194    
     63500  -94362.602      615.78584     -93746.816      190.9327       189.67241      747.57565    
     63600  -94315.527      624.66894     -93690.858      190.91181      189.6548       747.85936    
     63700  -94250.2        617.93762     -93632.263      190.88963      189.63521      748.14307    
     63800  -94197.435      622.62524     -93574.81       190.87292      189.62215      748.42677    
     63900  -94141.275      623.62309     -93517.652      190.85601      189.60791      748.71048    
     64000  -94083.129      624.07592     -93459.053      190.83393      189.58887      748.99419    
     64100  -94026.469      624.767       -93401.702      190.81399      189.57242      749.2779     
     64200  -93963.633      621.2617      -93342.372      190.79867      189.55965      749.56161    
     64300  -93907.131      622.64361     -93284.488      190.77836      189.54225      749.84532    
     64400  -93850.061      624.05466     -93226.006      190.75714      189.52418      750.12903    
     64500  -93785.598      618.15971     -93167.438      190.7404       189.51005      750.41274    
     64600  -93727.197      617.69695     -93109.5        190.72154      189.49435      750.69645    
     64700  -93673.581      622.43888     -93051.142      190.70086      189.4763       750.98016    
     64800  -93611.556      619.78607     -92991.77       190.6828       189.46067      751.26387    
     64900  -93554.067      622.13        -92931.937      190.66562      189.44606      751.54758    
     65000  -93488.94       617.2016      -92871.739      190.64521      189.42781      751.83129    
     65100  -93437.162      626.24931     -92810.913      190.62545      189.41068      752.115      
     65200  -93375.493      624.50419     -92750.988      190.60937      189.39632      752.39871    
     65300  -93310.713      620.05608     -92690.657      190.59063      189.37984      752.68242    
     65400  -93255.204      624.58517     -92630.619      190.57015      189.36082      752.96613    
     65500  -93191.557      622.06767     -92569.49       190.55308      189.34556      753.24984    
     65600  -93130.045      622.02817     -92508.017      190.53537      189.32962      753.53355    
     65700  -93070.707      623.51732     -92447.19       190.5159       189.31076      753.81726    
     65800  -93007.357      622.15283     -92385.204      190.49844      189.2948       754.10097    
     65900  -92947.408      624.34833     -92323.06       190.48175      189.27909      754.38468    
     66000  -92878.829      617.20892     -92261.62       190.46359      189.26146      754.66839    
     66100  -92817.327      618.61381     -92198.713      190.44488      189.24373      754.9521     
     66200  -92753.236      617.50972     -92135.727      190.42856      189.22794      755.23581    
     66300  -92696.561      623.4086      -92073.153      190.41068      189.2102       755.51952    
     66400  -92629.578      620.60971     -92008.969      190.39211      189.19213      755.80323    
     66500  -92571.592      626.71952     -91944.872      190.37572      189.17598      756.08694    
     66600  -92507.088      624.95597     -91882.132      190.3591       189.15825      756.37065    
     66700  -92437.278      619.14042     -91818.138      190.34054      189.14015      756.65436    
     66800  -92374.557      620.18656     -91754.371      190.32393      189.12267      756.93807    
     66900  -92312.421      621.41718     -91691.003      190.30818      189.10606      757.22178    
     67000  -92246.224      620.70089     -91625.523      190.29056      189.08783      757.50549    
     67100  -92182.658      621.71912     -91560.939      190.27361      189.06935      757.7892     
     67200  -92122.074      626.77746     -91495.296      190.25803      189.05288      758.07291    
     67300  -92053.095      624.63899     -91428.456      190.24153      189.03525      758.35662    
     67400  -91983.588      622.41875     -91361.169      190.22443      189.01626      758.64033    
     67500  -91919.482      624.89854     -91294.584      190.20779      188.99868      758.92404    
     67600  -91848.367      618.93114     -91229.436      190.19267      188.98183      759.20775    
     67700  -91786.947      623.48395     -91163.463      190.17694      188.96414      759.49146    
     67800  -91719.126      623.02265     -91096.104      190.16005      188.94588      759.77517    
     67900  -91652.522      622.87862     -91029.643      190.14515      188.92897      760.05888    
     68000  -91591.858      628.34134     -90963.517      190.12955      188.91107      760.34259    
     68100  -91518.487      623.45968     -90895.027      190.1128       188.89273      760.6263     
     68200  -91447.58       621.44458     -90826.135      190.0978       188.87514      760.91001    
     68300  -91385.31       627.56485     -90757.746      190.08243      188.85749      761.19372    
     68400  -91308.422      621.28158     -90687.14       190.06644      188.83924      761.47743    
     68500  -91245.537      627.24887     -90618.288      190.05128      188.8214       761.76114    
     68600  -91169.097      621.53727     -90547.56       190.03652      188.80404      762.04485    
     68700  -91094.76       617.44233     -90477.317      190.02066      188.78616      762.32856    
     68800  -91035.393      628.27827     -90407.115      190.00575      188.76837      762.61227    
     68900  -90958.872      620.88125     -90337.991      189.99152      188.75167      762.89598    
     69000  -90891.555      623.90041     -90267.655      189.97556      188.73355      763.17969    
     69100  -90826.675      630.36731     -90196.308      189.96012      188.71501      763.4634     
     69200  -90744.568      621.95646     -90122.612      189.94583      188.69853      763.74711    
     69300  -90683.024      628.75529     -90054.269      189.93162      188.68163      764.03082    
     69400  -90609.09       626.72777     -89982.362      189.91606      188.66315      764.31453    
     69500  -90537.539      627.63821     -89909.901      189.89991      188.64517      764.59824    
     69600  -90459.37       623.26419     -89836.106      189.88698      188.62951      764.88195    
     69700  -90389.763      627.5341      -89762.228      189.87272      188.61284      765.16566    
     69800  -90317.707      628.24722     -89689.46       189.85603      188.59416      765.44937    
     69900  -90246.248      630.08235     -89616.165      189.84167      188.57746      765.73308    
     70000  -90171.036      627.39182     -89543.644      189.82918      188.56287      766.01679    
     70100  -90098.397      629.29209     -89469.104      189.81332      188.54518      766.3005     
     70200  -90019.172      627.67506     -89391.497      189.79682      188.52658      766.58421    
     70300  -89948.032      630.14788     -89317.884      189.78348      188.51137      766.86792    
     70400  -89869.817      626.73328     -89243.084      189.7702       188.49611      767.15163    
     70500  -89797.72       631.92937     -89165.791      189.75405      188.4783       767.43534    
     70600  -89717.135      627.98059     -89089.154      189.73855      188.46137      767.71905    
     70700  -89642.519      628.63477     -89013.884      189.72571      188.44693      768.00276    
     70800  -89569.934      631.54618     -88938.388      189.71158      188.4312       768.28647    
     70900  -89496.54       634.01772     -88862.522      189.69554      188.41399      768.57018    
     71000  -89420.71       637.22134     -88783.489      189.68104      188.39798      768.85389    
     71100  -89337.666      632.32533     -88705.341      189.667        188.38308      769.1376     
     71200  -89264.231      633.35107     -88630.88       189.65271      188.36756      769.42131    
     71300  -89189.085      634.97893     -88554.106      189.6376       188.35164      769.70502    
     71400  -89107.604      632.23267     -88475.372      189.62272      188.33608      769.98873    
     71500  -89032.576      634.55826     -88398.018      189.60834      188.32111      770.27244    
     71600  -88958.687      640.1238      -88318.563      189.59378      188.3059       770.55615    
     71700  -88876.162      638.65575     -88237.506      189.57881      188.29087      770.83986    
     71800  -88800.89       641.31193     -88159.578      189.56437      188.27615      771.12357    
     71900  -88717.611      640.08988     -88077.521      189.54937      188.26118      771.40728    
     72000  -88639.232      645.53372     -87993.698      189.5345       188.24628      771.69099    
     72100  -88552.027      640.3663      -87911.661      189.51988      188.23192      771.9747     
     72200  -88464.409      636.64465     -87827.764      189.50569      188.218        772.25841    
     72300  -88395.352      645.66507     -87749.687      189.49021      188.20293      772.54212    
     72400  -88307.169      640.92476     -87666.245      189.47437      188.18778      772.82583    
     72500  -88228.343      642.24038     -87586.103      189.46074      188.17468      773.10954    
     72600  -88144.095      643.25887     -87500.836      189.44639      188.16134      773.39325    
     72700  -88066.343      647.64913     -87418.693      189.43026      188.14599      773.67696    
     72800  -87984.228      650.82187     -87333.406      189.41522      188.1317       773.96067    
     72900  -87902.204      650.1984      -87252.006      189.4016       188.11941      774.24438    
     73000  -87815.925      649.47476     -87166.45       189.3869       188.10559      774.52809    
     73100  -87734.343      653.50787     -87080.835      189.3704       188.0905       774.8118     
     73200  -87650.62       653.46092     -86997.159      189.35553      188.07683      775.09551    
     73300  -87570.363      658.27559     -86912.087      189.34167      188.06435      775.37922    
     73400  -87480.156      654.53988     -86825.616      189.32663      188.05076      775.66293    
     73500  -87399.367      659.13424     -86740.232      189.31038      188.03603      775.94664    
     73600  -87304.926      654.48394     -86650.443      189.296        188.023        776.23035    
     73700  -87225.968      661.58275     -86564.385      189.28189      188.01062      776.51406    
     73800  -87132.93       656.2077      -86476.722      189.26596      187.99629      776.79777    
     73900  -87058.613      668.38249     -86390.23       189.25055      187.98243      777.08148    
     74000  -86969.092      668.55301     -86300.539      189.23655      187.97023      777.36519    
     74100  -86881.685      669.90525     -86211.779      189.22144      187.95668      777.6489     
     74200  -86786.868      661.81204     -86125.056      189.20542      187.94243      777.93261    
     74300  -86700.572      665.93542     -86034.637      189.19082      187.92963      778.21632    
     74400  -86620.427      675.55749     -85944.869      189.17658      187.91693      778.50003    
     74500  -86532.617      682.19666     -85850.42       189.1606       187.90293      778.78374    
     74600  -86440.169      686.04057     -85754.128      189.14487      187.88883      779.06745    
     74700  -86351.094      684.28874     -85666.806      189.13079      187.87647      779.35116    
     74800  -86254.44       684.83091     -85569.609      189.1159       187.86338      779.63487    
     74900  -86163.326      689.61469     -85473.711      189.09992      187.84895      779.91858    
     75000  -86073.682      692.10288     -85381.579      189.08522      187.83614      780.20229    
     75100  -85984.173      694.28249     -85289.89       189.07086      187.82342      780.486      
     75200  -85897.588      702.35989     -85195.228      189.05462      187.80888      780.76971    
     75300  -85800.319      702.01123     -85098.308      189.03917      187.79513      781.05342    
     75400  -85701.761      697.29092     -85004.47       189.02513      187.78274      781.33713    
     75500  -85615.127      707.08917     -84908.038      189.00977      187.76894      781.62084    
     75600  -85528.986      719.78488     -84809.201      188.99344      187.75433      781.90455    
     75700  -85424.417      709.76959     -84714.648      188.97857      187.74099      782.18826    
     75800  -85330.164      719.39782     -84610.766      188.96436      187.72835      782.47197    
     75900  -85230.589      722.47925     -84508.11       188.94828      187.71389      782.75568    
     76000  -85136.336      729.00367     -84407.333      188.93222      187.69922      783.03939    
     76100  -85039.097      737.67794     -84301.419      188.91748      187.68622      783.3231     
     76200  -84947.919      743.4851      -84204.434      188.90253      187.6725       783.60681    
     76300  -84848.322      745.4271      -84102.895      188.88586      187.65744      783.89052    
     76400  -84744.036      740.6027      -84003.433      188.87041      187.6434       784.17423    
     76500  -84659.29       755.20996     -83904.08       188.85583      187.63032      784.45794    
     76600  -84553.283      756.32001     -83796.963      188.83985      187.61574      784.74165    
     76700  -84453.237      760.99476     -83692.242      188.82325      187.60054      785.02535    
     76800  -84348.954      759.6918      -83589.262      188.80823      187.58685      785.30906    
     76900  -84252.425      761.81123     -83490.614      188.79296      187.57286      785.59277    
     77000  -84151.656      766.93899     -83384.717      188.77633      187.55747      785.87648    
     77100  -84048.944      764.75162     -83284.192      188.76023      187.54258      786.16019    
     77200  -83948.906      777.82986     -83171.076      188.74491      187.52854      786.4439     
     77300  -83844.792      778.66868     -83066.124      188.72875      187.51344      786.72761    
     77400  -83739.539      790.21787     -82949.321      188.71195      187.49788      787.01132    
     77500  -83640.942      796.59963     -82844.343      188.69608      187.48307      787.29503    
     77600  -83529.499      799.01617     -82730.482      188.68036      187.46829      787.57874    
     77700  -83432.073      810.27422     -82621.798      188.6636       187.45272      787.86245    
     77800  -83322.078      823.65115     -82498.427      188.64683      187.43693      788.14616    
     77900  -83228.436      830.10946     -82398.327      188.63079      187.4218       788.42987    
     78000  -83271.939      952.01285     -82319.926      188.61423      187.40625      788.71358    
     78100  -83849.714      1478.5444     -82371.169      188.59705      187.38971      788.99729    
     78200  -85353.871      2399.9611     -82953.91       188.59058      187.38187      789.281      
     78300  -87980.069      3481.1314     -84498.938      188.59222      187.38551      789.56471    
     78400  -91368.382      4137.6278     -87230.754      188.59829      187.40107      789.84842    
     78500  -94656.929      4018.6344     -90638.295      188.63852      187.44233      790.13213    
     78600  -97188.929      3270.7611     -93918.168      188.70331      187.50746      790.41584    
     78700  -99480.562      2884.8785     -96595.684      188.76992      187.55545      790.69955    
     78800  -101381.75      2465.267      -98916.48       188.83914      187.58811      790.98326    
     78900  -102729.61      1987.19       -100742.42      188.91655      187.62703      791.26697    
     79000  -103864.16      1717.4682     -102146.69      189.00102      187.67383      791.55068    
     79100  -104825.85      1516.0593     -103309.79      189.09029      187.72906      791.83439    
     79200  -105698.89      1395.4103     -104303.48      189.17928      187.78329      792.1181     
     79300  -106515.56      1312.755      -105202.81      189.26533      187.83719      792.40181    
     79400  -107218.16      1218.4291     -105999.73      189.3512       187.89221      792.68552    
     79500  -107859.55      1143.8218     -106715.73      189.43551      187.94761      792.96923    
     79600  -108509.13      1124.6639     -107384.46      189.51395      187.99662      793.25294    
     79700  -109104.96      1080.6858     -108024.27      189.58379      188.03641      793.53665    
     79800  -109667.34      1042.3281     -108625.02      189.653        188.07478      793.82036    
     79900  -110192.96      1005.164      -109187.79      189.72262      188.11337      794.10407    
     80000  -110693.38      975.17418     -109718.21      189.78885      188.14915      794.38778    
     80100  -111170.03      949.4773      -110220.55      189.85106      188.18255      794.67149    
     80200  -111622.99      924.56837     -110698.42      189.91073      188.21479      794.9552     
     80300  -112059.8       905.06453     -111154.73      189.96807      188.24749      795.23891    
     80400  -112480.51      887.47973     -111593.03      190.02098      188.2778       795.52262    
     80500  -112891.19      874.84052     -112016.35      190.07017      188.30599      795.80633    
     80600  -113288.7       861.76565     -112426.93      190.11811      188.33382      796.09004    
     80700  -113677.93      851.27693     -112826.66      190.16376      188.36049      796.37375    
     80800  -114056.24      839.3995      -113216.85      190.20607      188.38507      796.65746    
     80900  -114380.58      798.5074      -113582.08      190.24709      188.40951      796.94117    
     81000  -114664.66      758.68825     -113905.97      190.28944      188.43631      797.22488    
     81100  -114915.22      724.44978     -114190.77      190.33076      188.46342      797.50859    
     81200  -115134.3       694.70615     -114439.6       190.36999      188.48937      797.7923     
     81300  -115321.04      666.88287     -114654.16      190.40973      188.51654      798.07601    
     81400  -115476.97      642.16835     -114834.8       190.45017      188.5453       798.35972    
     81500  -115600.92      620.45387     -114980.46      190.4899       188.57416      798.64343    
     81600  -115692.37      603.50546     -115088.87      190.5299       188.60432      798.92714    
     81700  -115748.3       592.66602     -115155.63      190.57154      188.63725      799.21085    
     81800  -115764.45      589.67514     -115174.77      190.61369      188.67155      799.49456    
     81900  -115748.6       602.45466     -115146.14      190.6527       188.70312      799.77827    
     82000  -115699.13      607.638       -115091.5       190.6868       188.72932      800.06198    
     82100  -115604.05      582.57917     -115021.47      190.71756      188.75297      800.34569    
     82200  -115460.29      548.8705      -114911.42      190.74738      188.77607      800.6294     
     82300  -115263.72      504.63139     -114759.08      190.77746      188.80044      800.91311    
     82400  -115105.24      520.93239     -114584.31      190.80405      188.82209      801.19682    
     82500  -115026.4       622.78606     -114403.61      190.81937      188.83207      801.48053    
     82600  -114941.08      663.70334     -114277.37      190.82347      188.83416      801.76424    
     82700  -114992.32      715.91564     -114276.4       190.82257      188.8283       802.04795    
     82800  -115064.19      627.54092     -114436.65      190.81722      188.81795      802.33166    
     82900  -115052.51      520.60351     -114531.91      190.81823      188.81602      802.61537    
     83000  -115048.52      573.15087     -114475.37      190.83586      188.83198      802.89908    
     83100  -115002.96      652.0496      -114350.91      190.8581       188.84802      803.18279    
     83200  -114976.71      680.65629     -114296.05      190.87907      188.8613       803.4665     
     83300  -115008.8       644.72752     -114364.07      190.90229      188.8705       803.75021    
     83400  -115053.96      589.32828     -114464.63      190.93291      188.87935      804.03392    
     83500  -115058.26      561.11741     -114497.14      190.96423      188.89619      804.31763    
     83600  -115036.19      596.38017     -114439.81      190.9923       188.89674      804.60134    
     83700  -114984.71      632.78072     -114351.93      191.01115      188.89104      804.88505    
     83800  -114974.12      668.92665     -114305.19      191.04246      188.89893      805.16876    
     83900  -114988.01      632.27658     -114355.73      191.0705       188.90265      805.45247    
     84000  -115005.55      580.42587     -114425.12      191.09611      188.90291      805.73618    
     84100  -114996.67      574.32533     -114422.34      191.1221       188.90857      806.01989    
     84200  -114973.69      624.15854     -114349.53      191.14597      188.90994      806.3036     
     84300  -114953.2       660.76816     -114292.43      191.16562      188.91783      806.58731    
     84400  -114952.62      633.29817     -114319.32      191.17773      188.92617      806.87102    
     84500  -114965.32      586.30683     -114379.01      191.19542      188.93692      807.15473    
     84600  -114977.5       585.15535     -114392.35      191.21925      188.95106      807.43844    
     84700  -114962.02      609.73193     -114352.29      191.23549      188.96178      807.72215    
     84800  -114938.35      636.56242     -114301.79      191.25892      188.97422      808.00586    
     84900  -114944.88      651.60943     -114293.27      191.28634      188.98811      808.28957    
     85000  -114957.76      616.20782     -114341.55      191.31131      189.00875      808.57328    
     85100  -114970.75      582.5444      -114388.21      191.32559      189.02768      808.85699    
     85200  -114986.8       599.33853     -114387.46      191.34616      189.04419      809.1407     
     85300  -114964.31      612.03576     -114352.27      191.37124      189.06678      809.42441    
     85400  -114953.06      637.61868     -114315.44      191.40298      189.09224      809.70812    
     85500  -114953.12      633.37852     -114319.74      191.43139      189.11567      809.99183    
     85600  -114973.64      616.62462     -114357.01      191.45065      189.12498      810.27554    
     85700  -114979.72      593.47846     -114386.25      191.47868      189.13764      810.55925    
     85800  -114981.03      607.95067     -114373.08      191.51437      189.15571      810.84296    
     85900  -114971.83      634.44205     -114337.39      191.54952      189.17029      811.12667    
     86000  -114963.35      638.09304     -114325.26      191.5911       189.18805      811.41038    
     86100  -114973.55      621.55457     -114351.99      191.63491      189.20114      811.69409    
     86200  -115001.37      608.8008      -114392.57      191.68082      189.21351      811.9778     
     86300  -115009.93      598.73576     -114411.19      191.7252       189.22243      812.26151    
     86400  -115007.6       612.63561     -114394.97      191.76331      189.231        812.54522    
     86500  -114997.5       627.62182     -114369.88      191.80514      189.25238      812.82893    
     86600  -114999.2       630.95835     -114368.25      191.84148      189.27409      813.11264    
     86700  -115006.54      612.95894     -114393.58      191.87189      189.29134      813.39635    
     86800  -115014.77      598.57769     -114416.19      191.90913      189.31223      813.68006    
     86900  -115012.18      602.61854     -114409.56      191.9455       189.32761      813.96377    
     87000  -115008.44      625.33869     -114383.1       191.98358      189.33715      814.24748    
     87100  -114996.82      630.57777     -114366.24      192.02428      189.34736      814.53119    
     87200  -115001.76      628.07585     -114373.68      192.06042      189.35604      814.8149     
     87300  -115011.28      612.89326     -114398.38      192.0882       189.36632      815.09861    
     87400  -115024.02      604.43284     -114419.59      192.10967      189.37517      815.38232    
     87500  -115025.22      607.54093     -114417.68      192.1306       189.38895      815.66603    
     87600  -115020.31      622.13785     -114398.17      192.15088      189.41131      815.94974    
     87700  -115014.68      627.49064     -114387.19      192.16768      189.4296       816.23345    
     87800  -115023.58      623.74446     -114399.84      192.17541      189.44764      816.51716    
     87900  -115041.4       613.56535     -114427.83      192.18489      189.47306      816.80087    
     88000  -115043.33      598.40161     -114444.93      192.19188      189.48829      817.08458    
     88100  -115046.66      611.84404     -114434.81      192.19642      189.4961       817.36829    
     88200  -115032.23      620.60985     -114411.62      192.20788      189.50825      817.652      
     88300  -115031.37      634.05104     -114397.32      192.21187      189.51078      817.93571    
     88400  -115036.94      627.92905     -114409.01      192.20848      189.51208      818.21942    
     88500  -115051.41      613.58939     -114437.82      192.21278      189.5152       818.50313    
     88600  -115063.59      604.19431     -114459.4       192.21749      189.51197      818.78684    
     88700  -115057.62      606.17645     -114451.45      192.21819      189.50459      819.07055    
     88800  -115048.8       626.54674     -114422.25      192.22009      189.50209      819.35426    
     88900  -115040.51      633.5833      -114406.93      192.21454      189.49881      819.63797    
     89000  -115043.45      618.16775     -114425.28      192.20349      189.48986      819.92168    
     89100  -115052.39      602.9578      -114449.43      192.20022      189.48761      820.20539    
     89200  -115059.29      607.78003     -114451.51      192.19637      189.48892      820.4891     
     89300  -115053.6       618.70509     -114434.89      192.18343      189.4805       820.77281    
     89400  -115044.45      626.17638     -114418.28      192.17428      189.47205      821.05652    
     89500  -115047.81      630.69958     -114417.11      192.16242      189.46204      821.34023    
     89600  -115050.32      619.14914     -114431.17      192.1553       189.44946      821.62393    
     89700  -115065.35      617.71823     -114447.63      192.15329      189.43914      821.90764    
     89800  -115070.27      612.88137     -114457.39      192.14515      189.42657      822.19135    
     89900  -115075.28      613.07841     -114462.2       192.13645      189.40903      822.47506    
     90000  -115077.99      619.3735      -114458.62      192.13381      189.39126      822.75877    
     90100  -115070.39      615.93042     -114454.46      192.12559      189.3702       823.04248    
     90200  -115077.49      619.37569     -114458.12      192.11547      189.34779      823.32619    
     90300  -115083.41      617.41026     -114466         192.11055      189.32379      823.6099     
     90400  -115079.93      613.19712     -114466.73      192.09739      189.30332      823.89361    
     90500  -115080.55      616.06475     -114464.49      192.08834      189.28586      824.17732    
     90600  -115082.84      618.65903     -114464.18      192.08604      189.26136      824.46103    
     90700  -115089.23      619.00469     -114470.22      192.08173      189.23472      824.74474    
     90800  -115097.5       617.16676     -114480.33      192.0777       189.2117       825.02845    
     90900  -115104.18      613.358       -114490.83      192.07631      189.18657      825.31216    
     91000  -115118.19      622.28828     -114495.9       192.06984      189.15923      825.59587    
     91100  -115114.54      613.55628     -114500.98      192.06652      189.14166      825.87958    
     91200  -115123.47      620.2392      -114503.23      192.06697      189.13131      826.16329    
     91300  -115130.1       620.49877     -114509.6       192.06232      189.1178       826.447      
     91400  -115135.08      615.40492     -114519.67      192.05481      189.10213      826.73071    
     91500  -115144.83      615.78642     -114529.04      192.05291      189.08695      827.01442    
     91600  -115162.5       620.22457     -114542.27      192.05254      189.07143      827.29813    
     91700  -115161.07      606.81984     -114554.25      192.05043      189.0546       827.58184    
     91800  -115174.01      614.16941     -114559.84      192.04777      189.03926      827.86555    
     91900  -115184.35      619.15513     -114565.19      192.04518      189.02743      828.14926    
     92000  -115189.71      617.25752     -114572.46      192.04632      189.01555      828.43297    
     92100  -115196.2       618.30872     -114577.89      192.04636      189.00534      828.71668    
     92200  -115210.18      626.38264     -114583.79      192.04418      188.99573      829.00039    
     92300  -115214.17      619.21924     -114594.95      192.04147      188.98346      829.2841     
     92400  -115223.37      616.36971     -114607         192.04088      188.97589      829.56781    
     92500  -115225.54      612.3202      -114613.22      192.04052      188.96535      829.85152    
     92600  -115219.33      612.99107     -114606.34      192.03942      188.95423      830.13523    
     92700  -115209.43      619.42418     -114590.01      192.03466      188.94537      830.41894    
     92800  -115197.64      624.16829     -114573.47      192.02537      188.9359       830.70265    
     92900  -115191.5       620.69785     -114570.81      192.01704      188.92764      830.98636    
     93000  -115191.67      613.89501     -114577.77      191.9992       188.91561      831.27007    
     93100  -115201.91      618.34729     -114583.56      191.97863      188.90461      831.55378    
     93200  -115202.4       615.17318     -114587.23      191.9627       188.89507      831.83749    
     93300  -115203.37      613.42589     -114589.94      191.94168      188.88069      832.1212     
     93400  -115201.8       614.35088     -114587.45      191.91633      188.87         832.40491    
     93500  -115188.94      613.09829     -114575.84      191.8874       188.86121      832.68862    
     93600  -115184.04      625.48288     -114558.56      191.8604       188.85549      832.97233    
     93700  -115193.75      637.17231     -114556.58      191.83577      188.8535       833.25604    
     93800  -115206.54      621.45589     -114585.08      191.80796      188.85265      833.53975    
     93900  -115222.77      607.33651     -114615.43      191.77991      188.85564      833.82346    
     94000  -115225.37      604.48381     -114620.88      191.74654      188.8571       834.10717    
     94100  -115221.66      617.94756     -114603.71      191.71765      188.85894      834.39088    
     94200  -115216.44      625.06948     -114591.37      191.69359      188.86593      834.67459    
     94300  -115222.67      622.33074     -114600.34      191.66811      188.86594      834.9583     
     94400  -115224.8       602.67723     -114622.12      191.64097      188.86029      835.24201    
     94500  -115219.85      596.84022     -114623.01      191.61227      188.85214      835.52572    
     94600  -115205.36      614.33252     -114591.03      191.59431      188.85125      835.80943    
     94700  -115201.47      641.06903     -114560.4       191.57494      188.85099      836.09314    
     94800  -115196.29      628.39974     -114567.89      191.55344      188.8452       836.37685    
     94900  -115214.25      611.11763     -114603.14      191.53418      188.83476      836.66056    
     95000  -115223.57      596.48664     -114627.08      191.51848      188.82515      836.94427    
     95100  -115216.03      602.95914     -114613.07      191.49998      188.82075      837.22798    
     95200  -115201.07      627.04326     -114574.02      191.48505      188.82141      837.51169    
     95300  -115198.09      643.54495     -114554.55      191.47065      188.82364      837.7954     
     95400  -115199.31      623.92254     -114575.39      191.44842      188.81673      838.07911    
     95500  -115208.74      602.08572     -114606.65      191.43578      188.81163      838.36282    
     95600  -115216.05      604.61221     -114611.43      191.42512      188.81091      838.64653    
     95700  -115214.58      622.20125     -114592.38      191.41423      188.80748      838.93024    
     95800  -115210.5       632.59789     -114577.9       191.41072      188.8137       839.21395    
     95900  -115213.04      621.91087     -114591.13      191.40687      188.82256      839.49766    
     96000  -115240.73      617.93432     -114622.79      191.39513      188.82265      839.78137    
     96100  -115245.3       598.09963     -114647.2       191.39255      188.82613      840.06508    
     96200  -115244.93      606.69177     -114638.24      191.38977      188.82942      840.34879    
     96300  -115228.96      621.53297     -114607.42      191.3872       188.8293       840.6325     
     96400  -115219.36      633.88254     -114585.48      191.39088      188.83329      840.91621    
     96500  -115231.51      632.7184      -114598.79      191.39874      188.83458      841.19992    
     96600  -115238.61      607.76287     -114630.84      191.40513      188.8287       841.48363    
     96700  -115248.7       602.51914     -114646.18      191.41038      188.82528      841.76734    
     96800  -115248.76      614.34014     -114634.42      191.42003      188.82501      842.05105    
     96900  -115235.45      623.90978     -114611.54      191.43008      188.81616      842.33476    
     97000  -115236.81      631.82695     -114604.98      191.44238      188.80456      842.61847    
     97100  -115253.42      624.10685     -114629.31      191.45866      188.801        842.90218    
     97200  -115273.2       605.69629     -114667.51      191.47331      188.79327      843.18589    
     97300  -115282.61      594.60676     -114688.01      191.48598      188.78293      843.4696     
     97400  -115282.35      610.42835     -114671.92      191.50309      188.77612      843.75331    
     97500  -115260.56      625.22974     -114635.33      191.52337      188.76818      844.03702    
     97600  -115253.42      639.3059      -114614.12      191.53799      188.75539      844.32073    
     97700  -115242.73      620.12991     -114622.6       191.54621      188.74224      844.60444    
     97800  -115247.67      606.50263     -114641.17      191.55613      188.73173      844.88815    
     97900  -115240.14      600.22646     -114639.91      191.56606      188.72146      845.17186    
     98000  -115225.97      612.66086     -114613.31      191.57101      188.70923      845.45557    
     98100  -115213.4       630.04179     -114583.36      191.57074      188.69545      845.73928    
     98200  -115207.47      630.97489     -114576.5       191.56811      188.68398      846.02299    
     98300  -115220.87      624.15208     -114596.72      191.5649       188.6742       846.3067     
     98400  -115236.55      608.96747     -114627.59      191.55827      188.66336      846.59041    
     98500  -115239.29      601.26758     -114638.03      191.55306      188.6556       846.87412    
     98600  -115226.9       607.23605     -114619.67      191.54655      188.64597      847.15783    
     98700  -115206.65      619.49066     -114587.15      191.53334      188.6307       847.44154    
     98800  -115209.75      638.37903     -114571.37      191.52499      188.61761      847.72525    
     98900  -115197.2       615.38388     -114581.81      191.51997      188.60714      848.00896    
     99000  -115212.7       607.89695     -114604.81      191.51247      188.5955       848.29267    
     99100  -115224.84      606.524       -114618.32      191.50639      188.58742      848.57638    
     99200  -115216.65      605.13927     -114611.51      191.49493      188.57715      848.86009    
     99300  -115211.16      621.048       -114590.11      191.48191      188.56431      849.1438     
     99400  -115203.07      626.50548     -114576.57      191.47293      188.55596      849.42751    
     99500  -115205.41      623.71499     -114581.7       191.45945      188.54442      849.71122    
     99600  -115218.31      615.37068     -114602.94      191.44701      188.53316      849.99493    
     99700  -115225.97      608.12362     -114617.85      191.43618      188.52168      850.27864    
     99800  -115219.81      610.7927      -114609.02      191.42391      188.50834      850.56235    
     99900  -115210.28      619.87733     -114590.4       191.41169      188.4964       850.84606    
    100000  -115207.37      628.54305     -114578.83      191.40264      188.48422      851.12977    
Loop time of 31183.9 on 16 procs for 100000 steps with 15912 atoms

Performance: 0.277 ns/day, 86.622 hours/ns, 3.207 timesteps/s, 51.026 katom-step/s
46.8% CPU use with 16 MPI tasks x 1 OpenMP threads

MPI task timing breakdown:
Section |  min time  |  avg time  |  max time  |%varavg| %total
---------------------------------------------------------------
Pair    | 2598.6     | 2951.3     | 3611.2     | 529.6 |  9.46
Neigh   | 13.096     | 19.252     | 26.521     |  94.2 |  0.06
Comm    | 3768.8     | 4503.6     | 5133.1     | 551.1 | 14.44
Output  | 90.568     | 93.861     | 96.984     |  20.3 |  0.30
Modify  | 20550      | 20940      | 21658      | 212.7 | 67.15
Other   |            | 2676       |            |       |  8.58

Nlocal:          994.5 ave        1463 max         537 min
Histogram: 2 1 1 2 3 1 1 2 1 2
Nghost:        2886.38 ave        4269 max        1556 min
Histogram: 3 1 0 4 0 1 2 1 2 2
Neighs:              0 ave           0 max           0 min
Histogram: 16 0 0 0 0 0 0 0 0 0

Total # of neighbors = 0
Ave neighs/atom = 0
Neighbor list builds = 703
Dangerous builds = 0
Total wall time: 8:39:54
