LAMMPS (2 Aug 2023 - Update 3)
OMP_NUM_THREADS environment is not set. Defaulting to 1 thread. (src/comm.cpp:98)
  using 1 OpenMP thread(s) per MPI task

# 1------general---------------
units                             metal      #单位为lammps 中的metel 类型
dimension                    3          #模拟的维度 三维
boundary                    p p p      #周期边界条件
atom_style                  atomic   #原子类型自动
atom_modify              map array sort 100 2.0
neighbor                    3.0 bin
neigh_modify            every 1 delay 0 check yes
#2 -----global variable-------定义全局变量，方便统一修改；
variable temperature equal 300
variable tstep equal 0.001
variable pressure equal 0
variable thermalstep equal 100
variable dumpstep equal 1000
variable relaxtime equal 0
variable totaltime equal 200000
variable deformrate equal 5e-3
#3 -------model------------
#box tilt large
read_data     1.lmp
Reading data file ...
  orthogonal box = (-100 -100 -2.3312515) to (100 100 46.166171)
  3 by 4 by 1 MPI processor grid
  reading atoms ...
  1320 atoms
  read_data CPU = 0.023 seconds
replicate 1 1 11
Replication is creating a 1x1x11 = 11 times larger system...
  orthogonal box = (-100 -100 -2.3312515) to (100 100 531.1404)
  2 by 2 by 3 MPI processor grid
  14520 atoms
  replicate CPU = 0.025 seconds
write_data z.data
System init for write_data ...
WARNING: Communication cutoff is 0.0. No ghost atoms will be generated. Atoms may get lost. (src/comm_brick.cpp:210)
pair_style hybrid airebo 3.0 airebo 3.0 airebo 3.0 lj/cut 10
pair_coeff * * airebo 1 CH.airebo C NULL NULL
Reading airebo potential file CH.airebo with DATE: 2011-10-25
pair_coeff * * airebo 2 CH.airebo NULL C NULL
Reading airebo potential file CH.airebo with DATE: 2011-10-25
pair_coeff * * airebo 3 CH.airebo NULL NULL C
Reading airebo potential file CH.airebo with DATE: 2011-10-25
pair_coeff 1 2 lj/cut 0.00456 3.431
pair_coeff 1 3 lj/cut 0.00456 3.431
pair_coeff 2 3 lj/cut 0.00456 3.431

# 5------minimize -----------
min_style      sd
minimize       1.0e-4 1.0e-6 100 1000
Neighbor list info ...
  update: every = 1 steps, delay = 0 steps, check = yes
  max neighbors/atom: 2000, page size: 100000
  master list distance cutoff = 13.2
  ghost atom cutoff = 13.2
  binsize = 6.6, bins = 31 31 81
  6 neighbor lists, perpetual/occasional/extra = 6 0 0
  (1) pair airebo, perpetual, skip from (5)
      attributes: full, newton on, ghost
      pair build: skip/ghost
      stencil: none
      bin: none
  (2) pair airebo, perpetual, skip from (5)
      attributes: full, newton on, ghost
      pair build: skip/ghost
      stencil: none
      bin: none
  (3) pair airebo, perpetual, skip from (5)
      attributes: full, newton on, ghost
      pair build: skip/ghost
      stencil: none
      bin: none
  (4) pair lj/cut, perpetual, skip from (6)
      attributes: half, newton on, cut 13
      pair build: skip
      stencil: none
      bin: none
  (5) neighbor class addition, perpetual
      attributes: full, newton on, ghost
      pair build: full/bin/ghost
      stencil: full/ghost/bin/3d
      bin: standard
  (6) neighbor class addition, perpetual
      attributes: half, newton on, cut 13
      pair build: half/bin/atomonly/newton
      stencil: half/bin/3d
      bin: standard
Per MPI rank memory allocation (min/avg/max) = 14.6 | 14.89 | 14.98 Mbytes
   Step          Temp          E_pair         E_mol          TotEng         Press     
         0   0             -88744.64       0             -88744.64       5481.8219    
        30   0             -104978.86      0             -104978.86      34.778352    
Loop time of 4.11849 on 12 procs for 30 steps with 14520 atoms

73.0% CPU use with 12 MPI tasks x 1 OpenMP threads

Minimization stats:
  Stopping criterion = energy tolerance
  Energy initial, next-to-last, final = 
     -88744.6395885197  -104972.164789145  -104978.864499601
  Force two-norm initial, final = 6524.0553 32.809563
  Force max component initial, final = 534.82797 1.9411106
  Final line search alpha, max atom move = 0.051917894 0.10077838
  Iterations, force evaluations = 30 54

MPI task timing breakdown:
Section |  min time  |  avg time  |  max time  |%varavg| %total
---------------------------------------------------------------
Pair    | 0.9977     | 1.1199     | 1.2351     |   8.2 | 27.19
Neigh   | 0          | 0          | 0          |   0.0 |  0.00
Comm    | 1.3479     | 1.4652     | 1.5462     |   5.3 | 35.58
Output  | 0          | 0          | 0          |   0.0 |  0.00
Modify  | 0          | 0          | 0          |   0.0 |  0.00
Other   |            | 1.533      |            |       | 37.23

Nlocal:           1210 ave        1286 max        1135 min
Histogram: 3 0 0 0 2 4 0 0 0 3
Nghost:        4350.33 ave        4435 max        4268 min
Histogram: 2 1 0 0 4 2 0 0 2 1
Neighs:              0 ave           0 max           0 min
Histogram: 12 0 0 0 0 0 0 0 0 0

Total # of neighbors = 0
Ave neighs/atom = 0
Neighbor list builds = 0
Dangerous builds = 0
#6----define computes------
variable nums equal count(all) #计算原子数目
variable toval equal 16.0428*16.0428*lz #计算系统总体积，单层石墨烯厚度为0.335nm
variable vol equal ${toval} #体系的初始体积
variable vol equal 137300.363178662 
variable vatom equal v_vol/v_nums #单个原子体积
compute 1 all stress/atom NULL #计算体系中单原子应力
compute xalls all reduce sum c_1[1]
variable xstress equal (c_xalls)/(v_toval*10000)
compute yalls all reduce sum c_1[2]
variable ystress equal (c_yalls)/(v_toval*10000)
compute zalls all reduce sum c_1[3]
variable zstress equal (c_zalls)/(v_toval*10000)
#7---------relaxation-------------------------
timestep ${tstep}
timestep 0.001
velocity all create ${temperature} 231743 units box dist gaussian
velocity all create 300 231743 units box dist gaussian
dump   1 all atom 100 all-cy.lammpstrj
#fix    1 all npt temp 300 300  0.1 aniso 0 0 10 drag 1  #三个方向独立控压
fix  1 all npt temp ${temperature} ${temperature} 0.1 x ${pressure} ${pressure} 10 y ${pressure} ${pressure} 10
fix  1 all npt temp 300 ${temperature} 0.1 x ${pressure} ${pressure} 10 y ${pressure} ${pressure} 10
fix  1 all npt temp 300 300 0.1 x ${pressure} ${pressure} 10 y ${pressure} ${pressure} 10
fix  1 all npt temp 300 300 0.1 x 0 ${pressure} 10 y ${pressure} ${pressure} 10
fix  1 all npt temp 300 300 0.1 x 0 0 10 y ${pressure} ${pressure} 10
fix  1 all npt temp 300 300 0.1 x 0 0 10 y 0 ${pressure} 10
fix  1 all npt temp 300 300 0.1 x 0 0 10 y 0 0 10
compute  2 all pe/atom
compute  pe all reduce sum c_2
variable PE equal "c_pe"
fix    pe all print 100 "${PE} " file PE.txt screen no
thermo  ${thermalstep}
thermo  100
#thermo_style  custom step pe ke etotal lx ly lz
run   ${relaxtime}
run   0
Per MPI rank memory allocation (min/avg/max) = 15.61 | 15.61 | 15.61 Mbytes
   Step          Temp          E_pair         E_mol          TotEng         Press          Volume    
        30   300           -104978.86      0             -104415.85      62.960257      21338866     
Loop time of 0.0136654 on 12 procs for 0 steps with 14520 atoms

51.4% CPU use with 12 MPI tasks x 1 OpenMP threads

MPI task timing breakdown:
Section |  min time  |  avg time  |  max time  |%varavg| %total
---------------------------------------------------------------
Pair    | 0          | 0          | 0          |   0.0 |  0.00
Neigh   | 0          | 0          | 0          |   0.0 |  0.00
Comm    | 0          | 0          | 0          |   0.0 |  0.00
Output  | 0          | 0          | 0          |   0.0 |  0.00
Modify  | 0          | 0          | 0          |   0.0 |  0.00
Other   |            | 0.01367    |            |       |100.00

Nlocal:           1210 ave        1216 max        1199 min
Histogram: 1 0 1 2 0 0 2 1 1 4
Nghost:        4348.67 ave        4369 max        4336 min
Histogram: 3 2 1 1 1 0 2 1 0 1
Neighs:              0 ave           0 max           0 min
Histogram: 12 0 0 0 0 0 0 0 0 0

Total # of neighbors = 0
Ave neighs/atom = 0
Neighbor list builds = 0
Dangerous builds = 0
#8 -------tension-----------------------------
unfix  1
undump  1
unfix  pe
reset_timestep 0
fix avestress all ave/atom 1 ${dumpstep} ${dumpstep} c_1[1] c_1[2] c_1[3] c_1[4] c_1[5] c_1[6]
fix avestress all ave/atom 1 1000 ${dumpstep} c_1[1] c_1[2] c_1[3] c_1[4] c_1[5] c_1[6]
fix avestress all ave/atom 1 1000 1000 c_1[1] c_1[2] c_1[3] c_1[4] c_1[5] c_1[6]

#-----calculation of strain and Cumulative compression--------
variable                tmp equal "lz"
variable                L0 equal ${tmp}
variable                L0 equal 533.471653
variable                strain equal "(lz - v_L0)/v_L0"
variable                Cumulativels equal "(lz - v_L0)/10"
fix Step all print 100 "${strain} ${Cumulativels} ${zstress}" file grapoten.txt screen no

dump 2 all custom ${dumpstep} tension.xyz type x y z f_avestress[1] f_avestress[2] f_avestress[3] f_avestress[4] f_avestress[5] f_avestress[6]
dump 2 all custom 1000 tension.xyz type x y z f_avestress[1] f_avestress[2] f_avestress[3] f_avestress[4] f_avestress[5] f_avestress[6]

fix  1 all npt temp ${temperature} ${temperature} 0.1 y ${pressure} ${pressure} 10 x ${pressure} ${pressure} 10
fix  1 all npt temp 300 ${temperature} 0.1 y ${pressure} ${pressure} 10 x ${pressure} ${pressure} 10
fix  1 all npt temp 300 300 0.1 y ${pressure} ${pressure} 10 x ${pressure} ${pressure} 10
fix  1 all npt temp 300 300 0.1 y 0 ${pressure} 10 x ${pressure} ${pressure} 10
fix  1 all npt temp 300 300 0.1 y 0 0 10 x ${pressure} ${pressure} 10
fix  1 all npt temp 300 300 0.1 y 0 0 10 x 0 ${pressure} 10
fix  1 all npt temp 300 300 0.1 y 0 0 10 x 0 0 10

thermo_style custom step pe ke etotal lx ly lz
fix   2 all deform 1 z erate ${deformrate} remap x units box
fix   2 all deform 1 z erate 0.005 remap x units box
fix   3 all ave/time 2 500 1000 v_xstress v_ystress v_zstress file pressure.out
run   ${totaltime}
run   200000
WARNING: Dump 2 includes no atom IDs and is not sorted by ID. This may complicate post-processing tasks or visualization (src/dump.cpp:221)
Per MPI rank memory allocation (min/avg/max) = 17.11 | 17.11 | 17.11 Mbytes
   Step         PotEng         KinEng         TotEng           Lx             Ly             Lz      
         0  -104978.86      563.01841     -104415.85      200            200            533.47165    
       100  -104973.99      590.4564      -104383.54      200.02833      199.9368       533.73839    
       200  -104912.61      501.23732     -104411.38      200.03467      199.80961      534.00512    
       300  -104786.93      410.01951     -104376.91      200.14528      199.74382      534.27186    
       400  -104828.45      496.24336     -104332.21      200.16696      199.66073      534.5386     
       500  -104887.78      567.74552     -104320.03      200.2333       199.68451      534.80533    
       600  -104834.18      494.30091     -104339.88      200.20978      199.72276      535.07207    
       700  -104899.27      594.53603     -104304.74      200.18437      199.79206      535.3388     
       800  -104917.52      592.21245     -104325.31      200.0183       199.81118      535.60554    
       900  -104889.56      538.9593      -104350.6       199.97174      199.87777      535.87228    
      1000  -104859.77      534.06681     -104325.7       199.94157      199.92713      536.13901    
      1100  -104823.29      534.70199     -104288.59      199.89504      199.94084      536.40575    
      1200  -104829.68      574.66044     -104255.02      199.92118      199.97746      536.67248    
      1300  -104873.57      613.14993     -104260.42      199.94308      199.94147      536.93922    
      1400  -104882.03      582.44634     -104299.58      199.95769      199.86586      537.20595    
      1500  -104896.65      567.255       -104329.39      199.99543      199.78872      537.47269    
      1600  -104882.86      538.98514     -104343.88      200.06658      199.7547       537.73943    
      1700  -104848.61      531.71308     -104316.9       200.05252      199.75122      538.00616    
      1800  -104865.29      586.95557     -104278.34      200.00584      199.78975      538.2729     
      1900  -104874.45      587.33817     -104287.12      199.96634      199.84971      538.53963    
      2000  -104855.81      544.42731     -104311.38      199.88744      199.87541      538.80637    
      2100  -104859.36      549.74573     -104309.62      199.87372      199.90963      539.07311    
      2200  -104839.31      553.35249     -104285.95      199.86011      199.90689      539.33984    
      2300  -104821.01      564.32798     -104256.68      199.86397      199.88787      539.60658    
      2400  -104820.18      578.15081     -104242.03      199.89034      199.86817      539.87331    
      2500  -104836.76      575.09461     -104261.67      199.90879      199.82885      540.14005    
      2600  -104839.18      555.47777     -104283.7       199.93825      199.79347      540.40678    
      2700  -104842.4       547.54824     -104294.85      199.95081      199.7629       540.67352    
      2800  -104827.67      543.2624      -104284.4       199.9591       199.75714      540.94026    
      2900  -104824.93      569.10172     -104255.83      199.93123      199.76721      541.20699    
      3000  -104817.76      572.00225     -104245.76      199.8951       199.80049      541.47373    
      3100  -104820.89      565.70877     -104255.18      199.85652      199.83047      541.74046    
      3200  -104818.76      559.27656     -104259.48      199.83387      199.84777      542.0072     
      3300  -104802.54      553.02503     -104249.51      199.83248      199.8502       542.27394    
      3400  -104782.85      555.99467     -104226.85      199.83284      199.8262       542.54067    
      3500  -104778.32      570.9447      -104207.38      199.85701      199.80747      542.80741    
      3600  -104789.99      579.69557     -104210.3       199.86084      199.77677      543.07414    
      3700  -104789.75      562.29488     -104227.45      199.87942      199.75702      543.34088    
      3800  -104794.05      560.57994     -104233.47      199.88848      199.74112      543.60761    
      3900  -104782.54      554.22188     -104228.32      199.88697      199.73367      543.87435    
      4000  -104776.04      565.78122     -104210.26      199.87679      199.73805      544.14109    
      4100  -104775.85      577.44605     -104198.41      199.85136      199.74803      544.40782    
      4200  -104763.91      560.61662     -104203.29      199.83109      199.76512      544.67456    
      4300  -104764.89      557.2655      -104207.63      199.81158      199.77134      544.94129    
      4400  -104757.12      555.48163     -104201.64      199.812        199.77659      545.20803    
      4500  -104742.78      561.87892     -104180.9       199.80641      199.76302      545.47477    
      4600  -104737.72      575.46079     -104162.26      199.81342      199.74785      545.7415     
      4700  -104727.76      570.32428     -104157.44      199.82302      199.73087      546.00824    
      4800  -104729.88      565.78365     -104164.09      199.82386      199.71036      546.27497    
      4900  -104726.41      557.19749     -104169.21      199.83746      199.70238      546.54171    
      5000  -104719.56      554.84033     -104164.72      199.8306       199.69351      546.80844    
      5100  -104710.11      559.71056     -104150.4       199.82422      199.69613      547.07518    
      5200  -104702.8       568.02855     -104134.77      199.80801      199.69638      547.34192    
      5300  -104701.22      568.87541     -104132.35      199.79584      199.701        547.60865    
      5400  -104698.86      563.46003     -104135.4       199.78567      199.70046      547.87539    
      5500  -104689.1       557.3779      -104131.72      199.78139      199.69802      548.14212    
      5600  -104673.33      553.92063     -104119.41      199.77798      199.69463      548.40886    
      5700  -104662.59      561.09087     -104101.5       199.7726       199.68524      548.6756     
      5800  -104659.92      571.46209     -104088.46      199.77279      199.67669      548.94233    
      5900  -104651         564.32932     -104086.67      199.76714      199.66452      549.20907    
      6000  -104646.1       558.66731     -104087.43      199.76765      199.65965      549.4758     
      6100  -104642.84      561.3994      -104081.44      199.76182      199.65671      549.74254    
      6200  -104631.61      561.82745     -104069.78      199.7502       199.65568      550.00927    
      6300  -104616.94      561.86749     -104055.07      199.74178      199.65611      550.27601    
      6400  -104618.15      570.33277     -104047.82      199.72822      199.65011      550.54275    
      6500  -104608.58      561.38822     -104047.19      199.72678      199.64725      550.80948    
      6600  -104597.68      558.73734     -104038.94      199.72075      199.63909      551.07622    
      6700  -104591.48      562.68529     -104028.79      199.71717      199.63199      551.34295    
      6800  -104583.44      566.02859     -104017.41      199.71298      199.62459      551.60969    
      6900  -104574.64      567.69633     -104006.94      199.70599      199.61726      551.87643    
      7000  -104572.07      564.5073      -104007.56      199.70108      199.60924      552.14316    
      7100  -104558.55      554.58482     -104003.96      199.69712      199.60012      552.4099     
      7200  -104555.44      563.85808     -103991.59      199.69499      199.59432      552.67663    
      7300  -104544.54      568.02591     -103976.51      199.6843       199.58549      552.94337    
      7400  -104534.04      566.02663     -103968.01      199.67925      199.5824       553.2101     
      7500  -104523.65      560.15468     -103963.49      199.66687      199.5743       553.47684    
      7600  -104521.75      555.53418     -103966.22      199.66445      199.56995      553.74358    
      7700  -104513.42      560.7989      -103952.62      199.65762      199.56369      554.01031    
      7800  -104497.01      562.29529     -103934.71      199.64814      199.5575       554.27705    
      7900  -104489.41      567.17189     -103922.24      199.63873      199.5532       554.54378    
      8000  -104475.64      561.33964     -103914.3       199.62519      199.54475      554.81052    
      8100  -104471.49      563.19232     -103908.3       199.62244      199.53937      555.07725    
      8200  -104462.02      559.15088     -103902.87      199.61732      199.52794      555.34399    
      8300  -104454.02      558.9185      -103895.1       199.61622      199.51905      555.61073    
      8400  -104449.47      567.8344      -103881.64      199.60791      199.50879      555.87746    
      8500  -104431.19      567.64881     -103863.55      199.59831      199.50111      556.1442     
      8600  -104418.86      567.81723     -103851.04      199.58835      199.49503      556.41093    
      8700  -104406.44      560.46076     -103845.98      199.57667      199.4886       556.67767    
      8800  -104400.64      560.72391     -103839.92      199.56888      199.48542      556.94441    
      8900  -104389.97      556.4038      -103833.56      199.55664      199.48118      557.21114    
      9000  -104381.85      554.32868     -103827.53      199.54346      199.47726      557.47788    
      9100  -104364.33      554.85398     -103809.48      199.53248      199.4703       557.74461    
      9200  -104359.73      567.87077     -103791.86      199.52245      199.46057      558.01135    
      9300  -104342.54      564.02147     -103778.52      199.51882      199.45116      558.27808    
      9400  -104329.03      566.15612     -103762.87      199.51196      199.44015      558.54482    
      9500  -104312.43      564.96437     -103747.47      199.50409      199.43111      558.81156    
      9600  -104309.1       566.72397     -103742.37      199.49266      199.42189      559.07829    
      9700  -104299.55      559.82402     -103739.73      199.48164      199.41567      559.34503    
      9800  -104297.86      568.15436     -103729.7       199.46965      199.4084       559.61176    
      9900  -104277.33      561.41637     -103715.91      199.45815      199.40337      559.8785     
     10000  -104257.38      561.46783     -103695.91      199.4453       199.39734      560.14524    
     10100  -104251.31      569.43817     -103681.87      199.4328       199.39107      560.41197    
     10200  -104242.9       568.82716     -103674.08      199.41967      199.38438      560.67871    
     10300  -104224.95      559.12766     -103665.82      199.40692      199.37553      560.94544    
     10400  -104220.18      565.9196      -103654.26      199.39966      199.36627      561.21218    
     10500  -104209.35      566.7764      -103642.57      199.38855      199.35204      561.47891    
     10600  -104195.11      563.3042      -103631.8       199.38604      199.34073      561.74565    
     10700  -104179.59      561.92163     -103617.67      199.37571      199.32513      562.01239    
     10800  -104166.6       563.28403     -103603.32      199.36813      199.31185      562.27912    
     10900  -104152.95      560.88372     -103592.06      199.35928      199.30125      562.54586    
     11000  -104143.78      562.95641     -103580.83      199.34483      199.29092      562.81259    
     11100  -104131.79      560.49047     -103571.3       199.33382      199.28628      563.07933    
     11200  -104115.06      554.01925     -103561.04      199.31335      199.27862      563.34607    
     11300  -104110.79      567.1724      -103543.62      199.29793      199.27339      563.6128     
     11400  -104085.25      561.73852     -103523.51      199.28369      199.266        563.87954    
     11500  -104072.62      565.84327     -103506.78      199.26861      199.25476      564.14627    
     11600  -104066.4       566.98346     -103499.42      199.26136      199.24492      564.41301    
     11700  -104058.72      562.76544     -103495.95      199.24629      199.22921      564.67974    
     11800  -104039.22      559.3978      -103479.83      199.23667      199.21868      564.94648    
     11900  -104024.83      565.50047     -103459.33      199.22262      199.20706      565.21322    
     12000  -104007.69      565.81237     -103441.88      199.20852      199.19718      565.47995    
     12100  -103990.52      561.72043     -103428.8       199.19755      199.18668      565.74669    
     12200  -103987.94      563.92628     -103424.01      199.18254      199.17331      566.01342    
     12300  -103978.46      562.43054     -103416.03      199.17129      199.16196      566.28016    
     12400  -103955.03      557.47184     -103397.56      199.15499      199.14737      566.5469     
     12500  -103937.64      560.91812     -103376.72      199.14243      199.13591      566.81363    
     12600  -103919.58      559.19953     -103360.38      199.12952      199.12279      567.08037    
     12700  -103910.13      563.94996     -103346.18      199.1161       199.1099       567.3471     
     12800  -103900.34      561.38169     -103338.96      199.10396      199.09708      567.61384    
     12900  -103892.92      560.3987      -103332.53      199.08729      199.08251      567.88057    
     13000  -103877.18      562.36195     -103314.81      199.07467      199.07021      568.14731    
     13100  -103854.09      560.94499     -103293.15      199.06015      199.05479      568.41405    
     13200  -103838.89      564.28503     -103274.6       199.04747      199.04062      568.68078    
     13300  -103824.03      562.71111     -103261.32      199.03572      199.02555      568.94752    
     13400  -103816.5       564.06406     -103252.43      199.0193       199.00955      569.21425    
     13500  -103802.56      556.42121     -103246.14      199.00448      198.99517      569.48099    
     13600  -103785.38      559.19029     -103226.19      198.98801      198.98205      569.74773    
     13700  -103762.48      557.17994     -103205.3       198.97196      198.96951      570.01446    
     13800  -103747.46      562.35287     -103185.1       198.9553       198.95697      570.2812     
     13900  -103732.47      566.00255     -103166.47      198.93722      198.94447      570.54793    
     14000  -103717.05      566.30106     -103150.75      198.91812      198.93129      570.81467    
     14100  -103706.09      561.96368     -103144.12      198.89891      198.91735      571.0814     
     14200  -103690.14      557.55735     -103132.59      198.88044      198.90208      571.34814    
     14300  -103673.85      562.67775     -103111.17      198.86601      198.8878       571.61488    
     14400  -103652.09      560.96656     -103091.12      198.85066      198.87148      571.88161    
     14500  -103640.38      565.85567     -103074.52      198.83671      198.85483      572.14835    
     14600  -103622.04      561.89981     -103060.14      198.82015      198.83581      572.41508    
     14700  -103610.61      557.67886     -103052.94      198.8014       198.81637      572.68182    
     14800  -103593.29      552.91058     -103040.38      198.7858       198.80181      572.94856    
     14900  -103574.12      557.74657     -103016.38      198.76326      198.78662      573.21529    
     15000  -103557.52      561.81258     -102995.71      198.74444      198.77563      573.48203    
     15100  -103536         560.04396     -102975.96      198.72316      198.76357      573.74876    
     15200  -103524.45      566.72525     -102957.72      198.70136      198.74885      574.0155     
     15300  -103507.86      561.1154      -102946.74      198.68337      198.73292      574.28223    
     15400  -103492.62      556.35233     -102936.26      198.66365      198.71093      574.54897    
     15500  -103477.06      561.5024      -102915.55      198.64968      198.69137      574.81571    
     15600  -103449.3       559.27646     -102890.02      198.63341      198.67018      575.08244    
     15700  -103437.37      563.85891     -102873.52      198.61745      198.65131      575.34918    
     15800  -103423.41      563.29298     -102860.12      198.60059      198.63375      575.61591    
     15900  -103408.56      562.14963     -102846.41      198.5791       198.61552      575.88265    
     16000  -103394.75      562.6864      -102832.06      198.55803      198.59877      576.14939    
     16100  -103375.94      559.28788     -102816.66      198.53507      198.58275      576.41612    
     16200  -103355.16      563.91492     -102791.25      198.51104      198.56902      576.68286    
     16300  -103332.18      563.90796     -102768.27      198.4869       198.55586      576.94959    
     16400  -103314.08      563.96185     -102750.12      198.4616       198.541        577.21633    
     16500  -103302.75      566.07632     -102736.68      198.44077      198.52439      577.48306    
     16600  -103283.59      556.81304     -102726.78      198.42138      198.50371      577.7498     
     16700  -103268.21      556.48071     -102711.73      198.40406      198.48087      578.01654    
     16800  -103241.28      558.2889      -102683         198.38761      198.45721      578.28327    
     16900  -103229.05      568.46686     -102660.59      198.36752      198.43316      578.55001    
     17000  -103211.92      566.22432     -102645.69      198.34871      198.41209      578.81674    
     17100  -103193.02      560.68906     -102632.33      198.32766      198.39357      579.08348    
     17200  -103174.75      560.60242     -102614.15      198.30458      198.37595      579.35022    
     17300  -103149.11      562.46191     -102586.65      198.28221      198.36117      579.61695    
     17400  -103128.23      564.28153     -102563.95      198.25457      198.34348      579.88369    
     17500  -103111.61      561.80529     -102549.81      198.23126      198.32759      580.15042    
     17600  -103098.88      561.44082     -102537.44      198.2051       198.30813      580.41716    
     17700  -103080.72      560.72004     -102520         198.18259      198.28851      580.68389    
     17800  -103062.39      562.61544     -102499.78      198.16164      198.26818      580.95063    
     17900  -103043.27      563.6768      -102479.6       198.13965      198.24556      581.21737    
     18000  -103019.94      561.62768     -102458.31      198.12152      198.22444      581.4841     
     18100  -102997.43      566.1576      -102431.27      198.09894      198.20021      581.75084    
     18200  -102978.28      572.23124     -102406.05      198.07887      198.17763      582.01757    
     18300  -102963.98      570.85721     -102393.12      198.05629      198.15516      582.28431    
     18400  -102943.11      563.71382     -102379.39      198.03137      198.13424      582.55105    
     18500  -102926.61      561.78918     -102364.82      198.00888      198.11735      582.81778    
     18600  -102909.75      562.50993     -102347.24      197.98084      198.09912      583.08452    
     18700  -102887.72      563.56788     -102324.15      197.95615      198.08308      583.35125    
     18800  -102863.37      567.18809     -102296.19      197.92926      198.06408      583.61799    
     18900  -102846.29      570.46975     -102275.82      197.90381      198.04338      583.88472    
     19000  -102824.79      562.84479     -102261.94      197.88113      198.0212       584.15146    
     19100  -102809.88      565.41739     -102244.46      197.85875      197.99715      584.4182     
     19200  -102783.39      558.79404     -102224.6       197.8387       197.97403      584.68493    
     19300  -102766.65      563.99701     -102202.65      197.81551      197.95079      584.95167    
     19400  -102748.76      568.15734     -102180.6       197.79139      197.93         585.2184     
     19500  -102719         561.54776     -102157.45      197.76633      197.91062      585.48514    
     19600  -102704.72      567.06645     -102137.65      197.73968      197.89027      585.75187    
     19700  -102682.4       558.54415     -102123.85      197.71578      197.8708       586.01861    
     19800  -102667.13      559.2245      -102107.9       197.68977      197.84939      586.28535    
     19900  -102644.24      560.07804     -102084.17      197.66559      197.82866      586.55208    
     20000  -102621.84      569.17404     -102052.67      197.6399       197.80749      586.81882    
     20100  -102600.84      568.10138     -102032.74      197.61344      197.78595      587.08555    
     20200  -102581.29      562.66766     -102018.63      197.59037      197.76641      587.35229    
     20300  -102563.08      561.27842     -102001.8       197.56415      197.74418      587.61903    
     20400  -102541.32      559.3035      -101982.02      197.54201      197.72352      587.88576    
     20500  -102516.91      560.67367     -101956.24      197.51593      197.70073      588.1525     
     20600  -102494.22      568.41833     -101925.8       197.49026      197.6794       588.41923    
     20700  -102473.94      568.77095     -101905.17      197.4658       197.66091      588.68597    
     20800  -102453.59      562.18293     -101891.4       197.43619      197.64042      588.9527     
     20900  -102437.26      561.98418     -101875.28      197.41163      197.62359      589.21944    
     21000  -102416.76      563.20267     -101853.55      197.38372      197.60313      589.48618    
     21100  -102386.12      557.48695     -101828.64      197.35884      197.58306      589.75291    
     21200  -102366.77      566.2152      -101800.56      197.3341       197.5625       590.01965    
     21300  -102341.44      568.22001     -101773.22      197.30836      197.54164      590.28638    
     21400  -102315.84      568.45806     -101747.38      197.28423      197.52216      590.55312    
     21500  -102296.88      565.27894     -101731.6       197.25755      197.50105      590.81986    
     21600  -102282.16      562.56697     -101719.59      197.23596      197.4822       591.08659    
     21700  -102268.35      567.07205     -101701.27      197.2096       197.45945      591.35333    
     21800  -102241.55      563.27657     -101678.28      197.18602      197.43951      591.62006    
     21900  -102210.6       559.76722     -101650.83      197.16163      197.41906      591.8868     
     22000  -102185.55      560.93363     -101624.62      197.13479      197.39835      592.15353    
     22100  -102174.99      566.90307     -101608.08      197.11141      197.38063      592.42027    
     22200  -102154.81      559.5212      -101595.29      197.08329      197.36117      592.68701    
     22300  -102133.29      561.3568      -101571.93      197.05735      197.34421      592.95374    
     22400  -102098.93      556.47464     -101542.46      197.03141      197.3263       593.22048    
     22500  -102083.36      566.61444     -101516.74      197.0066       197.30779      593.48721    
     22600  -102056.57      561.64058     -101494.93      196.98365      197.28812      593.75395    
     22700  -102039.01      562.50247     -101476.51      196.96123      197.26711      594.02069    
     22800  -102023.21      562.01619     -101461.2       196.93833      197.24536      594.28742    
     22900  -102005.38      555.63527     -101449.75      196.91556      197.22478      594.55416    
     23000  -101974.57      551.01908     -101423.55      196.89041      197.20503      594.82089    
     23100  -101951.7       557.57962     -101394.12      196.86629      197.18835      595.08763    
     23200  -101922.57      559.84119     -101362.73      196.83926      197.17241      595.35436    
     23300  -101901.93      567.44675     -101334.48      196.81319      197.1572       595.6211     
     23400  -101876.32      565.72878     -101310.59      196.78786      197.1415       595.88784    
     23500  -101851.17      557.83619     -101293.33      196.76232      197.12292      596.15457    
     23600  -101835.31      558.26014     -101277.05      196.74167      197.10474      596.42131    
     23700  -101809.53      556.6961      -101252.83      196.7203       197.08425      596.68804    
     23800  -101786.63      562.1142      -101224.51      196.69926      197.06468      596.95478    
     23900  -101758.6       559.08353     -101199.52      196.67673      197.04483      597.22152    
     24000  -101734.66      558.83225     -101175.83      196.65414      197.02532      597.48825    
     24100  -101717.62      565.90842     -101151.71      196.63232      197.00636      597.75499    
     24200  -101689.68      563.33281     -101126.35      196.61201      196.9876       598.02172    
     24300  -101664.29      564.06941     -101100.22      196.59218      196.96885      598.28846    
     24400  -101640.87      564.90896     -101075.96      196.57179      196.95141      598.55519    
     24500  -101615.86      562.09759     -101053.76      196.54787      196.93318      598.82193    
     24600  -101599.09      562.63282     -101036.45      196.52459      196.91732      599.08867    
     24700  -101576.42      559.72736     -101016.69      196.50051      196.90044      599.3554     
     24800  -101549.52      561.44339     -100988.08      196.47744      196.8833       599.62214    
     24900  -101520.28      565.01532     -100955.26      196.45781      196.86612      599.88887    
     25000  -101498.28      566.5129      -100931.76      196.43927      196.84652      600.15561    
     25100  -101473.8       561.45397     -100912.35      196.42299      196.827        600.42235    
     25200  -101452.55      558.83231     -100893.72      196.40514      196.80584      600.68908    
     25300  -101426.63      554.80832     -100871.83      196.38738      196.78627      600.95582    
     25400  -101399.37      559.77851     -100839.59      196.36773      196.76667      601.22255    
     25500  -101376.04      566.5725      -100809.46      196.34867      196.74892      601.48929    
     25600  -101351.03      564.12912     -100786.9       196.32916      196.73102      601.75602    
     25700  -101329.25      559.88877     -100769.36      196.31032      196.71355      602.02276    
     25800  -101308.85      560.13982     -100748.71      196.29094      196.69608      602.2895     
     25900  -101278.4       558.76364     -100719.63      196.27147      196.67889      602.55623    
     26000  -101252.96      567.67063     -100685.29      196.25162      196.66286      602.82297    
     26100  -101228.85      565.89868     -100662.95      196.23159      196.64781      603.0897     
     26200  -101209.04      563.7875      -100645.25      196.212        196.63215      603.35644    
     26300  -101186.74      562.5534      -100624.19      196.19282      196.61483      603.62318    
     26400  -101159.3       563.43172     -100595.87      196.17502      196.59698      603.88991    
     26500  -101127.89      564.17212     -100563.72      196.15736      196.57789      604.15665    
     26600  -101108.27      569.0642      -100539.2       196.14047      196.55912      604.42338    
     26700  -101076.26      559.2738      -100516.99      196.12373      196.54303      604.69012    
     26800  -101058.39      561.82001     -100496.57      196.10471      196.52846      604.95685    
     26900  -101033.77      558.01802     -100475.76      196.08467      196.51655      605.22359    
     27000  -101009.5       564.37397     -100445.12      196.06344      196.50422      605.49033    
     27100  -100978.05      566.68917     -100411.37      196.04293      196.4905       605.75706    
     27200  -100952.89      565.14717     -100387.74      196.0231       196.47353      606.0238     
     27300  -100929.11      560.35487     -100368.75      196.00574      196.45664      606.29053    
     27400  -100910.68      564.28383     -100346.39      195.98859      196.44008      606.55727    
     27500  -100878.1       560.21568     -100317.88      195.97256      196.42381      606.82401    
     27600  -100848.07      567.4196      -100280.65      195.9561       196.40817      607.09074    
     27700  -100824.81      568.51397     -100256.29      195.9397       196.3927       607.35748    
     27800  -100801.16      563.11316     -100238.05      195.92245      196.37757      607.62421    
     27900  -100773.83      555.89471     -100217.93      195.90463      196.3619       607.89095    
     28000  -100746.1       555.42036     -100190.68      195.88839      196.34696      608.15768    
     28100  -100723.99      564.76866     -100159.22      195.87265      196.33131      608.42442    
     28200  -100697.34      566.98856     -100130.35      195.85723      196.31482      608.69116    
     28300  -100669.74      564.45676     -100105.28      195.84221      196.29822      608.95789    
     28400  -100648.67      567.17778     -100081.49      195.82595      196.28083      609.22463    
     28500  -100619         560.92007     -100058.08      195.81108      196.26494      609.49136    
     28600  -100595.64      560.04833     -100035.6       195.7946       196.24848      609.7581     
     28700  -100568.78      556.3182      -100012.46      195.77953      196.23385      610.02484    
     28800  -100547.39      565.76806     -99981.62       195.76423      196.21964      610.29157    
     28900  -100510.64      562.99135     -99947.645      195.74757      196.20411      610.55831    
     29000  -100487.59      567.19829     -99920.388      195.73323      196.18971      610.82504    
     29100  -100459.84      562.39936     -99897.443      195.71717      196.17397      611.09178    
     29200  -100439.39      559.88265     -99879.505      195.70211      196.15867      611.35851    
     29300  -100413.57      555.61359     -99857.961      195.68706      196.14322      611.62525    
     29400  -100384.56      562.69338     -99821.864      195.67261      196.12859      611.89199    
     29500  -100352.4       562.00337     -99790.394      195.6585       196.11396      612.15872    
     29600  -100327.14      563.66261     -99763.475      195.64344      196.09909      612.42546    
     29700  -100302.12      563.77143     -99738.348      195.62736      196.0837       612.69219    
     29800  -100277.74      563.2837      -99714.457      195.61068      196.06918      612.95893    
     29900  -100247.61      558.18529     -99689.422      195.59464      196.05513      613.22567    
     30000  -100226.03      567.73469     -99658.296      195.57923      196.04093      613.4924     
     30100  -100194.28      569.55583     -99624.728      195.5655       196.02691      613.75914    
     30200  -100161.51      563.69725     -99597.813      195.55076      196.01055      614.02587    
     30300  -100143.19      563.77611     -99579.415      195.53747      195.99608      614.29261    
     30400  -100116.4       557.8405      -99558.555      195.52187      195.98054      614.55934    
     30500  -100087.1       559.23401     -99527.869      195.50673      195.96641      614.82608    
     30600  -100055.26      560.55645     -99494.699      195.49153      195.95429      615.09282    
     30700  -100025.9       560.33286     -99465.564      195.47438      195.94058      615.35955    
     30800  -100006.21      567.27024     -99438.944      195.46023      195.92851      615.62629    
     30900  -99975.771      559.62601     -99416.145      195.44493      195.91278      615.89302    
     31000  -99947.513      550.5228      -99396.991      195.43111      195.89842      616.15976    
     31100  -99927.261      560.06336     -99367.197      195.41653      195.88351      616.4265     
     31200  -99895.163      562.90897     -99332.254      195.40103      195.86868      616.69323    
     31300  -99867.252      564.44446     -99302.807      195.38627      195.85558      616.95997    
     31400  -99835.309      560.75999     -99274.549      195.37013      195.8422       617.2267     
     31500  -99811.374      565.62658     -99245.747      195.3541       195.82979      617.49344    
     31600  -99781.874      566.13333     -99215.741      195.33886      195.81768      617.76017    
     31700  -99753.305      565.24604     -99188.059      195.32258      195.804        618.02691    
     31800  -99731.174      565.08241     -99166.091      195.30757      195.79098      618.29365    
     31900  -99706.217      561.91885     -99144.298      195.29325      195.77687      618.56038    
     32000  -99678.142      562.48547     -99115.656      195.27827      195.76153      618.82712    
     32100  -99635.83       557.98899     -99077.841      195.2658       195.74818      619.09385    
     32200  -99611.898      563.98504     -99047.913      195.25182      195.73392      619.36059    
     32300  -99587.613      565.07025     -99022.543      195.23729      195.72026      619.62732    
     32400  -99558.852      559.32688     -98999.525      195.22262      195.7073       619.89406    
     32500  -99541.822      566.47976     -98975.343      195.20472      195.69205      620.1608     
     32600  -99508.396      556.99496     -98951.401      195.19072      195.6799       620.42753    
     32700  -99481.76       561.14226     -98920.618      195.17519      195.6651       620.69427    
     32800  -99450.356      565.21019     -98885.146      195.16188      195.65271      620.961      
     32900  -99415.355      562.33016     -98853.025      195.14818      195.64061      621.22774    
     33000  -99387.888      563.60436     -98824.284      195.13199      195.62727      621.49448    
     33100  -99361.545      559.2435      -98802.302      195.11753      195.61704      621.76121    
     33200  -99337.393      555.00325     -98782.39       195.09844      195.60314      622.02795    
     33300  -99310.55       559.65721     -98750.893      195.08203      195.59102      622.29468    
     33400  -99279.827      563.03604     -98716.791      195.06714      195.57796      622.56142    
     33500  -99253.237      566.06556     -98687.172      195.05238      195.56174      622.82815    
     33600  -99221.407      562.77362     -98658.634      195.0419       195.54777      623.09489    
     33700  -99188.311      559.56856     -98628.742      195.02772      195.53135      623.36163    
     33800  -99159.043      562.14754     -98596.895      195.01384      195.51854      623.62836    
     33900  -99135.793      570.17041     -98565.623      194.99915      195.50684      623.8951     
     34000  -99107.899      567.28742     -98540.612      194.98133      195.49379      624.16183    
     34100  -99079.739      559.31212     -98520.427      194.96663      195.48279      624.42857    
     34200  -99053.064      560.00133     -98493.062      194.95022      195.46936      624.69531    
     34300  -99023.398      563.35974     -98460.038      194.93577      195.45643      624.96204    
     34400  -98993.619      570.52406     -98423.095      194.92205      195.44323      625.22878    
     34500  -98959.788      568.69339     -98391.094      194.90577      195.42758      625.49551    
     34600  -98931.617      565.15279     -98366.465      194.89183      195.41482      625.76225    
     34700  -98911.522      567.04802     -98344.474      194.87539      195.40034      626.02898    
     34800  -98881.925      563.55147     -98318.373      194.86017      195.38846      626.29572    
     34900  -98840.663      555.8855      -98284.777      194.84577      195.37789      626.56246    
     35000  -98816.539      567.91406     -98248.625      194.82931      195.36453      626.82919    
     35100  -98785.39       564.06526     -98221.325      194.81634      195.35235      627.09593    
     35200  -98761.247      564.53327     -98196.713      194.80268      195.3376       627.36266    
     35300  -98731.946      561.48567     -98170.461      194.78858      195.32141      627.6294     
     35400  -98705.159      564.34475     -98140.814      194.77513      195.30633      627.89614    
     35500  -98665.405      562.73213     -98102.673      194.75926      195.29122      628.16287    
     35600  -98639.396      571.04167     -98068.354      194.74392      195.27936      628.42961    
     35700  -98608.832      562.45029     -98046.382      194.72806      195.26838      628.69634    
     35800  -98584.932      561.67037     -98023.261      194.71037      195.25519      628.96308    
     35900  -98558.583      562.97878     -97995.604      194.69666      195.24353      629.22981    
     36000  -98527.997      566.09665     -97961.901      194.68137      195.22821      629.49655    
     36100  -98489.702      565.95708     -97923.744      194.66756      195.21252      629.76329    
     36200  -98461.964      565.62638     -97896.338      194.65502      195.19766      630.03002    
     36300  -98438.254      565.97509     -97872.278      194.6404       195.18127      630.29676    
     36400  -98413.525      566.60079     -97846.925      194.62731      195.16768      630.56349    
     36500  -98374.783      556.17151     -97818.612      194.61182      195.15406      630.83023    
     36600  -98350.071      565.23404     -97784.837      194.59578      195.14073      631.09697    
     36700  -98311.496      567.88841     -97743.608      194.58131      195.12874      631.3637     
     36800  -98288.016      571.07767     -97716.938      194.56375      195.11302      631.63044    
     36900  -98259.669      564.13046     -97695.539      194.54982      195.10041      631.89717    
     37000  -98232.496      562.08799     -97670.408      194.53424      195.08505      632.16391    
     37100  -98202.853      560.15258     -97642.7        194.52049      195.07051      632.43064    
     37200  -98172.324      561.01765     -97611.306      194.50698      195.05679      632.69738    
     37300  -98136.732      564.94055     -97571.792      194.49064      195.04182      632.96412    
     37400  -98111.577      570.66        -97540.917      194.476        195.02881      633.23085    
     37500  -98078.61       562.28729     -97516.323      194.45951      195.01405      633.49759    
     37600  -98053.092      559.88797     -97493.204      194.44385      195.00006      633.76432    
     37700  -98021.909      558.85604     -97463.053      194.42981      194.98675      634.03106    
     37800  -97993.572      562.42045     -97431.151      194.41474      194.97134      634.2978     
     37900  -97963.009      564.50018     -97398.509      194.40185      194.95689      634.56453    
     38000  -97926.655      562.17096     -97364.484      194.38668      194.94148      634.83127    
     38100  -97902.03       568.89859     -97333.131      194.37099      194.9273       635.098      
     38200  -97871.828      561.65664     -97310.172      194.3554       194.91378      635.36474    
     38300  -97846.524      559.6218      -97286.903      194.33779      194.89882      635.63147    
     38400  -97814.552      561.12952     -97253.422      194.32188      194.88542      635.89821    
     38500  -97777.343      560.87746     -97216.466      194.30644      194.87195      636.16495    
     38600  -97749.227      564.3628      -97184.864      194.29014      194.85699      636.43168    
     38700  -97718.93       562.98382     -97155.946      194.27559      194.84369      636.69842    
     38800  -97694.188      566.00928     -97128.178      194.25978      194.82935      636.96515    
     38900  -97659.853      554.04354     -97105.809      194.24432      194.8148       637.23189    
     39000  -97640.615      559.45989     -97081.156      194.23066      194.80161      637.49863    
     39100  -97600.332      556.43235     -97043.899      194.21425      194.78649      637.76536    
     39200  -97569.869      562.45842     -97007.411      194.19813      194.7728       638.0321     
     39300  -97537.534      563.34532     -96974.189      194.18285      194.7589       638.29883    
     39400  -97510.916      569.67298     -96941.243      194.16623      194.7428       638.56557    
     39500  -97478.087      566.67654     -96911.41       194.15139      194.72817      638.8323     
     39600  -97453.348      563.38991     -96889.958      194.13551      194.71254      639.09904    
     39700  -97422.957      559.11578     -96863.842      194.1206       194.69798      639.36578    
     39800  -97388.008      558.7796      -96829.229      194.10598      194.68328      639.63251    
     39900  -97351.3        557.98735     -96793.312      194.09052      194.66757      639.89925    
     40000  -97322.296      560.69898     -96761.597      194.0769       194.65296      640.16598    
     40100  -97292.929      562.78586     -96730.143      194.06141      194.63677      640.43272    
     40200  -97265.761      567.85626     -96697.904      194.04585      194.62051      640.69946    
     40300  -97231.025      566.75473     -96664.27       194.03208      194.60613      640.96619    
     40400  -97201.754      568.03553     -96633.718      194.01621      194.58987      641.23293    
     40500  -97168.061      557.97176     -96610.09       194.00224      194.57567      641.49966    
     40600  -97148.344      563.53413     -96584.81       193.98681      194.56024      641.7664     
     40700  -97117.477      565.1063      -96552.371      193.97047      194.54397      642.03313    
     40800  -97078.91       567.70358     -96511.207      193.95527      194.52992      642.29987    
     40900  -97042.372      562.47526     -96479.897      193.93788      194.51445      642.56661    
     41000  -97021.385      566.71956     -96454.665      193.92139      194.49939      642.83334    
     41100  -96989.654      560.28907     -96429.365      193.90614      194.48467      643.10008    
     41200  -96959.102      560.88487     -96398.217      193.88998      194.46818      643.36681    
     41300  -96925.688      566.37437     -96359.314      193.87522      194.45258      643.63355    
     41400  -96891.104      568.63107     -96322.473      193.85882      194.43599      643.90029    
     41500  -96859.95       565.02339     -96294.927      193.84278      194.42003      644.16702    
     41600  -96829.713      560.29789     -96269.416      193.82762      194.40487      644.43376    
     41700  -96803.251      561.07963     -96242.171      193.81191      194.3882       644.70049    
     41800  -96773.291      561.86121     -96211.43       193.79718      194.37274      644.96723    
     41900  -96738.829      568.01214     -96170.816      193.78235      194.35794      645.23396    
     42000  -96705.802      569.82782     -96135.974      193.76539      194.3419       645.5007     
     42100  -96678.348      566.45412     -96111.894      193.74932      194.32717      645.76744    
     42200  -96648.682      562.09163     -96086.59       193.73183      194.31202      646.03417    
     42300  -96620.389      562.40445     -96057.985      193.71354      194.29652      646.30091    
     42400  -96590.588      562.94783     -96027.64       193.69696      194.28271      646.56764    
     42500  -96561.042      569.70406     -95991.338      193.6794       194.26613      646.83438    
     42600  -96518.755      565.81527     -95952.94       193.66399      194.25094      647.10112    
     42700  -96487.691      561.73029     -95925.961      193.64809      194.23514      647.36785    
     42800  -96464.684      562.2476      -95902.436      193.63139      194.21798      647.63459    
     42900  -96436.765      563.67814     -95873.087      193.61665      194.20308      647.90132    
     43000  -96405.852      566.42186     -95839.43       193.60114      194.18637      648.16806    
     43100  -96365.751      562.02489     -95803.726      193.5854       194.16956      648.43479    
     43200  -96332.668      565.6642      -95767.004      193.57076      194.15367      648.70153    
     43300  -96300.815      572.46099     -95728.354      193.55407      194.13651      648.96827    
     43400  -96275.097      570.10116     -95704.996      193.53821      194.12202      649.235      
     43500  -96244.233      563.49701     -95680.736      193.52012      194.10704      649.50174    
     43600  -96216.176      562.8258      -95653.35       193.50182      194.09217      649.76847    
     43700  -96181.914      556.76644     -95625.148      193.48477      194.07885      650.03521    
     43800  -96155.107      563.8807      -95591.226      193.46646      194.06238      650.30195    
     43900  -96116.443      564.92862     -95551.514      193.44997      194.04672      650.56868    
     44000  -96084.15       564.32753     -95519.822      193.43433      194.03106      650.83542    
     44100  -96060.114      565.31995     -95494.794      193.41724      194.0125       651.10215    
     44200  -96026.898      561.40016     -95465.498      193.40341      193.99764      651.36889    
     44300  -95994.11       561.6922      -95432.418      193.38739      193.98078      651.63562    
     44400  -95965.415      566.06762     -95399.347      193.37095      193.9642       651.90236    
     44500  -95929.101      561.8764      -95367.224      193.35634      193.95017      652.1691     
     44600  -95904.732      567.59526     -95337.137      193.33859      193.93293      652.43583    
     44700  -95872.664      561.8144      -95310.85       193.32238      193.91702      652.70257    
     44800  -95846.316      563.20978     -95283.106      193.30623      193.90164      652.9693     
     44900  -95812.81       565.12668     -95247.683      193.28851      193.88307      653.23604    
     45000  -95776.091      569.22719     -95206.864      193.27451      193.86812      653.50277    
     45100  -95739.61       564.23582     -95175.374      193.25804      193.8497       653.76951    
     45200  -95714.039      565.14508     -95148.894      193.24167      193.83133      654.03625    
     45300  -95679.821      559.83097     -95119.99       193.22694      193.81532      654.30298    
     45400  -95649.172      561.33756     -95087.835      193.21033      193.79757      654.56972    
     45500  -95620.465      564.32169     -95056.143      193.19414      193.78051      654.83645    
     45600  -95585.556      561.43332     -95024.123      193.17807      193.76491      655.10319    
     45700  -95559.133      566.41412     -94992.719      193.16176      193.74813      655.36993    
     45800  -95524.954      562.36842     -94962.586      193.1467       193.73217      655.63666    
     45900  -95496.95       558.57364     -94938.377      193.13026      193.71382      655.9034     
     46000  -95469.429      559.84142     -94909.587      193.11544      193.69552      656.17013    
     46100  -95431.01       559.60586     -94871.404      193.10164      193.67782      656.43687    
     46200  -95398.153      565.33059     -94832.823      193.08653      193.65871      656.7036     
     46300  -95366.337      565.36919     -94800.968      193.07126      193.64161      656.97034    
     46400  -95335.265      563.81354     -94771.452      193.05507      193.62484      657.23708    
     46500  -95305.403      558.59473     -94746.808      193.03746      193.60674      657.50381    
     46600  -95278.918      558.4824      -94720.435      193.02183      193.58989      657.77055    
     46700  -95239.313      558.32831     -94680.985      193.00587      193.57146      658.03728    
     46800  -95208.132      564.11649     -94644.016      192.99072      193.55359      658.30402    
     46900  -95175.889      563.3316      -94612.557      192.97574      193.5368       658.57076    
     47000  -95147.326      564.58557     -94582.74       192.95892      193.51903      658.83749    
     47100  -95112.641      559.68085     -94552.96       192.94309      193.50324      659.10423    
     47200  -95085.505      562.13648     -94523.368      192.92637      193.48644      659.37096    
     47300  -95052.075      561.48646     -94490.589      192.90968      193.46933      659.6377     
     47400  -95018.933      566.8937      -94452.04       192.89413      193.45253      659.90443    
     47500  -94984.467      568.55626     -94415.91       192.87838      193.43451      660.17117    
     47600  -94952.714      563.3256      -94389.388      192.86318      193.41645      660.43791    
     47700  -94923.704      558.43437     -94365.27       192.84775      193.39887      660.70464    
     47800  -94889.444      556.87968     -94332.565      192.83161      193.38171      660.97138    
     47900  -94859.55       563.18753     -94296.362      192.81558      193.36449      661.23811    
     48000  -94825.14       565.34889     -94259.791      192.79967      193.34748      661.50485    
     48100  -94791.446      565.21314     -94226.233      192.78421      193.33079      661.77159    
     48200  -94763.745      561.31057     -94202.435      192.76778      193.31293      662.03832    
     48300  -94738.721      563.69558     -94175.026      192.75266      193.29609      662.30506    
     48400  -94697.981      558.15916     -94139.822      192.73666      193.27822      662.57179    
     48500  -94667.004      566.90478     -94100.1        192.72096      193.26046      662.83853    
     48600  -94634.832      568.28469     -94066.548      192.7057       193.24423      663.10526    
     48700  -94600.188      561.68052     -94038.508      192.68927      193.2271       663.372      
     48800  -94576.733      568.73982     -94007.993      192.67231      193.20948      663.63874    
     48900  -94538.801      560.56685     -93978.234      192.65712      193.19436      663.90547    
     49000  -94507.429      558.97028     -93948.459      192.63942      193.17691      664.17221    
     49100  -94478.172      559.71434     -93918.457      192.62408      193.16167      664.43894    
     49200  -94451.032      562.23119     -93888.8        192.60903      193.14535      664.70568    
     49300  -94419.769      564.86735     -93854.902      192.59345      193.12636      664.97242    
     49400  -94376.086      561.49839     -93814.588      192.57974      193.10897      665.23915    
     49500  -94345.815      567.4025      -93778.412      192.56401      193.08936      665.50589    
     49600  -94312.336      561.01323     -93751.323      192.54871      193.07112      665.77262    
     49700  -94285.621      560.03967     -93725.582      192.53397      193.05435      666.03936    
     49800  -94248.573      556.21713     -93692.356      192.51705      193.03594      666.30609    
     49900  -94220.192      563.43273     -93656.759      192.50153      193.01971      666.57283    
     50000  -94184.476      563.87604     -93620.6        192.48565      193.0038       666.83957    
     50100  -94154.018      568.70893     -93585.309      192.46855      192.98665      667.1063     
     50200  -94131.108      571.28895     -93559.819      192.45387      192.9723       667.37304    
     50300  -94094.956      560.43988     -93534.516      192.43787      192.95466      667.63977    
     50400  -94061.091      559.04643     -93502.045      192.42319      192.93747      667.90651    
     50500  -94030.42       565.83994     -93464.58       192.40985      192.92082      668.17325    
     50600  -93991.092      566.22261     -93424.87       192.39391      192.90163      668.43998    
     50700  -93959.804      570.19388     -93389.61       192.37917      192.88543      668.70672    
     50800  -93929.074      560.58017     -93368.494      192.36209      192.86837      668.97345    
     50900  -93901.776      562.28048     -93339.496      192.34444      192.85082      669.24019    
     51000  -93867.591      559.66929     -93307.922      192.3296       192.83598      669.50692    
     51100  -93840.672      566.57145     -93274.1        192.31285      192.81729      669.77366    
     51200  -93804.685      565.94635     -93238.739      192.29818      192.79984      670.0404     
     51300  -93769.22       566.91932     -93202.301      192.28456      192.78314      670.30713    
     51400  -93738.623      566.01487     -93172.608      192.26839      192.76475      670.57387    
     51500  -93709.733      562.30441     -93147.429      192.25387      192.74846      670.8406     
     51600  -93675.382      559.53283     -93115.849      192.23923      192.73251      671.10734    
     51700  -93641.39       561.88874     -93079.501      192.22225      192.71433      671.37408    
     51800  -93608.16       569.72103     -93038.439      192.20796      192.69957      671.64081    
     51900  -93564.893      567.21302     -92997.679      192.19202      192.68279      671.90755    
     52000  -93543.499      569.95822     -92973.541      192.17521      192.66483      672.17428    
     52100  -93511.77       565.11214     -92946.658      192.1613       192.64989      672.44102    
     52200  -93482.21       563.84688     -92918.363      192.14441      192.63079      672.70775    
     52300  -93449.876      561.53367     -92888.342      192.13057      192.61434      672.97449    
     52400  -93421.168      564.75515     -92856.413      192.11734      192.59783      673.24123    
     52500  -93383.309      561.6534      -92821.656      192.10085      192.57847      673.50796    
     52600  -93343.978      561.91373     -92782.064      192.08827      192.56353      673.7747     
     52700  -93313.115      568.2959      -92744.819      192.07245      192.54537      674.04143    
     52800  -93284.12       564.79992     -92719.32       192.05743      192.52699      674.30817    
     52900  -93259.422      567.93788     -92691.484      192.04551      192.51113      674.57491    
     53000  -93221.182      562.55778     -92658.624      192.02992      192.49053      674.84164    
     53100  -93183.991      560.3336      -92623.657      192.01708      192.47355      675.10838    
     53200  -93155.399      569.27949     -92586.12       192.00306      192.45665      675.37511    
     53300  -93116.633      563.42192     -92553.211      191.98607      192.43788      675.64185    
     53400  -93090.873      562.53966     -92528.334      191.97219      192.42312      675.90858    
     53500  -93057.895      559.596       -92498.299      191.95548      192.40562      676.17532    
     53600  -93023.988      561.00905     -92462.979      191.94062      192.38874      676.44206    
     53700  -92992.692      570.00339     -92422.689      191.92778      192.37264      676.70879    
     53800  -92949.937      569.24553     -92380.692      191.91274      192.35423      676.97553    
     53900  -92921.71       566.86467     -92354.845      191.89943      192.33771      677.24226    
     54000  -92890.922      562.91471     -92328.008      191.8855       192.32157      677.509      
     54100  -92866.067      566.71145     -92299.355      191.86921      192.30433      677.77574    
     54200  -92830.827      561.57072     -92269.256      191.85439      192.28932      678.04247    
     54300  -92798.82       562.44875     -92236.371      191.83838      192.27431      678.30921    
     54400  -92760.536      561.23407     -92199.302      191.82116      192.25847      678.57594    
     54500  -92727.221      570.20307     -92157.017      191.80682      192.2441       678.84268    
     54600  -92689.067      565.12322     -92123.944      191.79179      192.22674      679.10941    
     54700  -92660.158      560.99538     -92099.163      191.77851      192.20991      679.37615    
     54800  -92625.453      558.28655     -92067.166      191.76528      192.19255      679.64289    
     54900  -92601.289      567.88098     -92033.408      191.75047      192.17447      679.90962    
     55000  -92565.098      563.986       -92001.112      191.73605      192.15861      680.17636    
     55100  -92536.381      562.83761     -91973.543      191.71981      192.14369      680.44309    
     55200  -92499.717      556.50707     -91943.21       191.70243      192.12899      680.70983    
     55300  -92469.328      565.05013     -91904.278      191.68715      192.11627      680.97657    
     55400  -92430.561      572.07186     -91858.49       191.67051      192.1013       681.2433     
     55500  -92396.804      572.86837     -91823.936      191.65476      192.08637      681.51004    
     55600  -92362.105      567.00455     -91795.1        191.64064      192.07145      681.77677    
     55700  -92334.417      566.38229     -91768.035      191.62449      192.05433      682.04351    
     55800  -92302.741      564.59458     -91738.146      191.60981      192.03866      682.31024    
     55900  -92267.647      561.45549     -91706.191      191.59375      192.02262      682.57698    
     56000  -92235.644      562.79928     -91672.845      191.57751      192.00725      682.84372    
     56100  -92203.822      559.75562     -91644.066      191.56303      191.99354      683.11045    
     56200  -92176.616      563.9483      -91612.668      191.54652      191.97744      683.37719    
     56300  -92141.335      567.60777     -91573.727      191.53219      191.96332      683.64392    
     56400  -92097.405      568.66648     -91528.738      191.51779      191.94824      683.91066    
     56500  -92063.176      568.66503     -91494.511      191.50245      191.93182      684.17739    
     56600  -92032.346      566.31479     -91466.031      191.48869      191.9177       684.44413    
     56700  -91998.145      562.23789     -91435.907      191.47274      191.90176      684.71087    
     56800  -91968.51       562.44257     -91406.068      191.45733      191.88596      684.9776     
     56900  -91938.699      563.8327      -91374.866      191.44212      191.87103      685.24434    
     57000  -91906.706      564.60904     -91342.097      191.42563      191.8553       685.51107    
     57100  -91870.721      560.16859     -91310.553      191.40958      191.84098      685.77781    
     57200  -91839.659      557.32369     -91282.335      191.39463      191.82692      686.04455    
     57300  -91804.268      558.25732     -91246.01       191.3794       191.8111       686.31128    
     57400  -91760.82       560.71102     -91200.109      191.36481      191.79591      686.57802    
     57500  -91730.402      568.25325     -91162.149      191.34985      191.7798       686.84475    
     57600  -91696.238      564.62461     -91131.613      191.33525      191.76431      687.11149    
     57700  -91668.852      567.35359     -91101.498      191.32021      191.74884      687.37822    
     57800  -91635.593      566.17924     -91069.414      191.30522      191.73417      687.64496    
     57900  -91598.942      562.19364     -91036.748      191.29013      191.71989      687.9117     
     58000  -91560.807      557.42799     -91003.379      191.27514      191.70546      688.17843    
     58100  -91533.385      562.50523     -90970.88       191.26049      191.69027      688.44517    
     58200  -91502.593      556.93505     -90945.658      191.24608      191.67477      688.7119     
     58300  -91470.037      557.28778     -90912.749      191.23091      191.6584       688.97864    
     58400  -91435.23       565.13592     -90870.094      191.21673      191.64319      689.24538    
     58500  -91393.322      563.65279     -90829.669      191.2014       191.62707      689.51211    
     58600  -91359.498      562.67937     -90796.819      191.18685      191.61178      689.77885    
     58700  -91329.006      559.59703     -90769.409      191.17325      191.59692      690.04558    
     58800  -91297.373      563.30907     -90734.064      191.15836      191.58088      690.31232    
     58900  -91262.785      564.32665     -90698.458      191.14472      191.56643      690.57905    
     59000  -91227.831      560.95266     -90666.878      191.12976      191.5513       690.84579    
     59100  -91200.365      563.59808     -90636.767      191.11428      191.53579      691.11253    
     59200  -91159.439      559.44691     -90599.992      191.10088      191.52122      691.37926    
     59300  -91120.288      566.85758     -90553.43       191.08687      191.50491      691.646      
     59400  -91079.266      569.81036     -90509.456      191.07376      191.48826      691.91273    
     59500  -91051.987      570.32526     -90481.662      191.0615       191.47153      692.17947    
     59600  -91021.609      568.69159     -90452.917      191.04824      191.45531      692.44621    
     59700  -90985.61       561.78178     -90423.828      191.03416      191.44023      692.71294    
     59800  -90954.651      562.33768     -90392.313      191.01927      191.42491      692.97968    
     59900  -90919.193      561.22347     -90357.969      191.00433      191.40938      693.24641    
     60000  -90888.32       564.66659     -90323.653      190.98984      191.39318      693.51315    
     60100  -90849.662      558.02106     -90291.641      190.97586      191.3776       693.77988    
     60200  -90821.93       561.23162     -90260.698      190.9617       191.36225      694.04662    
     60300  -90777.63       556.58675     -90221.044      190.94708      191.34709      694.31336    
     60400  -90744.363      572.21402     -90172.149      190.93277      191.33271      694.58009    
     60500  -90700.22       570.33706     -90129.883      190.91837      191.3179       694.84683    
     60600  -90667.426      568.44386     -90098.982      190.90337      191.30282      695.11356    
     60700  -90637.988      567.55155     -90070.436      190.88953      191.2887       695.3803     
     60800  -90602.978      562.92078     -90040.057      190.8737       191.27224      695.64704    
     60900  -90569.187      561.64737     -90007.54       190.85916      191.25749      695.91377    
     61000  -90537.055      562.38799     -89974.667      190.84424      191.24179      696.18051    
     61100  -90503.802      563.04012     -89940.762      190.82904      191.22573      696.44724    
     61200  -90469.706      565.30167     -89904.404      190.81638      191.21105      696.71398    
     61300  -90434.471      563.56382     -89870.907      190.80169      191.19378      696.98071    
     61400  -90401.356      561.79872     -89839.557      190.78926      191.17777      697.24745    
     61500  -90362.139      563.35813     -89798.781      190.77595      191.16173      697.51419    
     61600  -90321.062      565.5917      -89755.47       190.76015      191.14498      697.78092    
     61700  -90278.541      568.69022     -89709.851      190.74606      191.13176      698.04766    
     61800  -90245.212      569.78217     -89675.43       190.72884      191.11638      698.31439    
     61900  -90213.916      568.58646     -89645.33       190.71479      191.10285      698.58113    
     62000  -90177.523      564.81478     -89612.708      190.70083      191.08769      698.84787    
     62100  -90142.497      563.57775     -89578.919      190.6862       191.07067      699.1146     
     62200  -90108.063      565.55874     -89542.504      190.67364      191.05552      699.38134    
     62300  -90067.654      560.1343      -89507.519      190.65835      191.03848      699.64807    
     62400  -90037.105      564.38247     -89472.723      190.64534      191.02359      699.91481    
     62500  -89998.314      559.98539     -89438.329      190.63116      191.00732      700.18154    
     62600  -89962.703      557.42095     -89405.282      190.6172       190.99028      700.44828    
     62700  -89935.868      562.34804     -89373.52       190.60531      190.97519      700.71502    
     62800  -89887.688      559.67031     -89328.018      190.58964      190.95783      700.98175    
     62900  -89850.778      570.00725     -89280.771      190.57501      190.94367      701.24849    
     63000  -89803.507      563.05555     -89240.452      190.55847      190.92904      701.51522    
     63100  -89774.516      566.42249     -89208.094      190.54275      190.91499      701.78196    
     63200  -89738.484      567.87448     -89170.609      190.52891      190.90111      702.0487     
     63300  -89702.785      568.60398     -89134.181      190.51336      190.88395      702.31543    
     63400  -89659.995      561.20769     -89098.787      190.50138      190.86928      702.58217    
     63500  -89624.469      563.37352     -89061.096      190.48687      190.85265      702.8489     
     63600  -89592.485      570.53297     -89021.952      190.47271      190.83745      703.11564    
     63700  -89554.882      571.30124     -88983.58       190.45839      190.8225       703.38237    
     63800  -89508.117      564.36529     -88943.752      190.44245      190.80537      703.64911    
     63900  -89469.763      563.41814     -88906.345      190.43024      190.79114      703.91585    
     64000  -89438.243      568.5401      -88869.703      190.41404      190.77381      704.18258    
     64100  -89395.946      564.83579     -88831.111      190.40019      190.75918      704.44932    
     64200  -89360.504      567.11922     -88793.385      190.38531      190.74377      704.71605    
     64300  -89316.592      562.14017     -88754.452      190.36966      190.72787      704.98279    
     64400  -89273.301      559.2464      -88714.054      190.3569       190.71429      705.24953    
     64500  -89238.822      563.94654     -88674.875      190.33995      190.69714      705.51626    
     64600  -89201.669      566.84181     -88634.827      190.3267       190.68304      705.783      
     64700  -89158.085      562.56352     -88595.521      190.31207      190.66786      706.04973    
     64800  -89116.925      561.80345     -88555.122      190.29632      190.65236      706.31647    
     64900  -89080.566      564.80476     -88515.761      190.28302      190.63956      706.5832     
     65000  -89044.873      567.01906     -88477.854      190.26558      190.62296      706.84994    
     65100  -89006.644      568.40033     -88438.243      190.25148      190.60915      707.11668    
     65200  -88962.24       563.6461      -88398.594      190.23591      190.5932       707.38341    
     65300  -88923.277      565.889       -88357.388      190.21978      190.57687      707.65015    
     65400  -88878.603      561.24345     -88317.36       190.20603      190.5628       707.91688    
     65500  -88845.822      567.70881     -88278.114      190.18898      190.5465       708.18362    
     65600  -88804.324      567.61476     -88236.709      190.17452      190.53402      708.45036    
     65700  -88761.904      565.32739     -88196.576      190.15778      190.5198       708.71709    
     65800  -88721.009      565.18643     -88155.823      190.14165      190.50559      708.98383    
     65900  -88687.051      571.1416      -88115.909      190.12724      190.49209      709.25056    
     66000  -88635.623      561.14438     -88074.478      190.10953      190.47509      709.5173     
     66100  -88599.791      568.31785     -88031.473      190.09591      190.46168      709.78403    
     66200  -88555.223      564.47712     -87990.746      190.07883      190.44474      710.05077    
     66300  -88510.675      562.18085     -87948.494      190.06357      190.43021      710.31751    
     66400  -88477.151      569.65319     -87907.498      190.04829      190.4159       710.58424    
     66500  -88432.226      566.14476     -87866.081      190.03228      190.40012      710.85098    
     66600  -88391.284      568.32827     -87822.955      190.01829      190.38578      711.11771    
     66700  -88345.527      565.14876     -87780.379      190.00257      190.3695       711.38445    
     66800  -88305.576      567.99525     -87737.581      189.98746      190.35428      711.65119    
     66900  -88265.483      571.43212     -87694.051      189.9716       190.33924      711.91792    
     67000  -88219.577      568.77793     -87650.8        189.95545      190.325        712.18466    
     67100  -88174.958      567.16239     -87607.795      189.93895      190.31106      712.45139    
     67200  -88132.247      567.67274     -87564.574      189.92331      190.29671      712.71813    
     67300  -88087.53       565.91843     -87521.612      189.90813      190.28171      712.98486    
     67400  -88042.816      565.678       -87477.138      189.89263      190.26611      713.2516     
     67500  -88001.513      567.46865     -87434.045      189.87763      190.25045      713.51834    
     67600  -87952.146      562.97937     -87389.167      189.86288      190.23424      713.78507    
     67700  -87915.929      570.04018     -87345.888      189.84796      190.21734      714.05181    
     67800  -87864.735      564.51451     -87300.22       189.8346       190.20139      714.31854    
     67900  -87820.874      565.22989     -87255.644      189.82007      190.18366      714.58528    
     68000  -87779.191      568.1098      -87211.081      189.80793      190.16747      714.85202    
     68100  -87730.105      564.08966     -87166.016      189.79394      190.15084      715.11875    
     68200  -87689.39       568.36561     -87121.024      189.77847      190.13561      715.38549    
     68300  -87643.965      568.42838     -87075.536      189.76237      190.12202      715.65222    
     68400  -87599.882      568.91498     -87030.967      189.7452       190.10807      715.91896    
     68500  -87556.9        572.62441     -86984.275      189.72863      190.09318      716.18569    
     68600  -87509.614      571.06117     -86938.552      189.71329      190.07836      716.45243    
     68700  -87455.7        564.27501     -86891.425      189.69822      190.06252      716.71917    
     68800  -87412.378      568.32411     -86844.054      189.68281      190.04614      716.9859     
     68900  -87365.294      567.92478     -86797.369      189.66795      190.03138      717.25264    
     69000  -87320.628      569.70781     -86750.92       189.65167      190.01656      717.51937    
     69100  -87277.78       572.51507     -86705.265      189.63543      190.00241      717.78611    
     69200  -87222.254      564.47401     -86657.78       189.61936      189.98819      718.05284    
     69300  -87182.956      572.54564     -86610.41       189.60363      189.97416      718.31958    
     69400  -87133.949      569.61266     -86564.336      189.58675      189.95898      718.58632    
     69500  -87085.82       569.43279     -86516.387      189.57135      189.94481      718.85305    
     69600  -87033.633      565.76454     -86467.869      189.55476      189.92988      719.11979    
     69700  -86986.203      567.52675     -86418.676      189.53893      189.91591      719.38652    
     69800  -86936.661      567.41487     -86369.246      189.52322      189.9008       719.65326    
     69900  -86888.096      568.86812     -86319.228      189.50732      189.88503      719.92       
     70000  -86839.966      569.12269     -86270.843      189.49277      189.87048      720.18673    
     70100  -86797.058      576.80668     -86220.251      189.4758       189.85448      720.45347    
     70200  -86743.483      570.91669     -86172.567      189.46099      189.84075      720.7202     
     70300  -86695.614      573.46636     -86122.147      189.44361      189.82566      720.98694    
     70400  -86647.204      574.45027     -86072.754      189.42683      189.81221      721.25367    
     70500  -86598.498      574.07486     -86024.423      189.41038      189.79839      721.52041    
     70600  -86546.939      571.32685     -85975.612      189.39376      189.78323      721.78715    
     70700  -86495.616      570.95928     -85924.656      189.37874      189.76896      722.05388    
     70800  -86446.435      572.06986     -85874.365      189.36252      189.75358      722.32062    
     70900  -86398.668      575.14559     -85823.522      189.34665      189.739        722.58735    
     71000  -86350.877      577.55414     -85773.323      189.33111      189.72439      722.85409    
     71100  -86295.242      573.78639     -85721.456      189.31475      189.70928      723.12083    
     71200  -86243.124      572.69843     -85670.425      189.29932      189.69428      723.38756    
     71300  -86190.636      573.48757     -85617.148      189.28447      189.67856      723.6543     
     71400  -86140.363      573.64756     -85566.715      189.26962      189.6623       723.92103    
     71500  -86086.09       573.71151     -85512.378      189.25495      189.6471       724.18777    
     71600  -86032.94       575.88952     -85457.05       189.239        189.6313       724.4545     
     71700  -85981.94       575.14604     -85406.794      189.22384      189.61634      724.72124    
     71800  -85933.197      579.75872     -85353.438      189.20832      189.60093      724.98798    
     71900  -85877.436      577.56657     -85299.869      189.19314      189.58565      725.25471    
     72000  -85827.256      583.26172     -85243.995      189.17767      189.57035      725.52145    
     72100  -85766.876      575.09676     -85191.779      189.16144      189.5547       725.78818    
     72200  -85719.408      583.6966      -85135.712      189.14553      189.54056      726.05492    
     72300  -85665.374      583.71019     -85081.664      189.1286       189.52628      726.32166    
     72400  -85609.034      580.55849     -85028.475      189.11214      189.51217      726.58839    
     72500  -85558.833      583.34252     -84975.49       189.09687      189.49829      726.85513    
     72600  -85502.929      579.16136     -84923.767      189.0805       189.48204      727.12186    
     72700  -85442.348      575.28469     -84867.063      189.06649      189.46746      727.3886     
     72800  -85393.698      583.60233     -84810.095      189.05112      189.45113      727.65533    
     72900  -85342.688      587.68481     -84755.003      189.03558      189.43535      727.92207    
     73000  -85284.39       584.48193     -84699.908      189.02053      189.42094      728.18881    
     73100  -85234.635      587.62099     -84647.014      189.00381      189.40513      728.45554    
     73200  -85178.684      585.30487     -84593.38       188.98863      189.39077      728.72228    
     73300  -85123.145      585.14658     -84537.998      188.97298      189.37636      728.98901    
     73400  -85069.436      591.71607     -84477.72       188.95656      189.36086      729.25575    
     73500  -85015.919      596.90357     -84419.015      188.94192      189.34659      729.52249    
     73600  -84949.955      593.90443     -84356.051      188.92554      189.33041      729.78922    
     73700  -84890.425      597.97702     -84292.448      188.91057      189.31578      730.05596    
     73800  -84832.154      599.11785     -84233.036      188.89499      189.30065      730.32269    
     73900  -84772.007      600.28664     -84171.72       188.8789       189.28467      730.58943    
     74000  -84712.065      601.50887     -84110.556      188.86443      189.27043      730.85616    
     74100  -84662.731      609.54942     -84053.182      188.84773      189.25492      731.1229     
     74200  -84600.134      609.14402     -83990.99       188.83223      189.24062      731.38964    
     74300  -84543.328      611.45729     -83931.871      188.81613      189.22641      731.65637    
     74400  -84480.565      608.75864     -83871.807      188.79894      189.21134      731.92311    
     74500  -84423.603      615.07008     -83808.533      188.78348      189.19706      732.18984    
     74600  -84352.393      604.76815     -83747.625      188.76758      189.18156      732.45658    
     74700  -84302.576      616.63591     -83685.941      188.75243      189.16602      732.72332    
     74800  -84253.7        624.85969     -83628.84       188.73782      189.15073      732.99005    
     74900  -84188.704      622.45171     -83566.252      188.72188      189.13437      733.25679    
     75000  -84123.848      615.18211     -83508.666      188.7077       189.11958      733.52352    
     75100  -84070.94       628.52671     -83442.414      188.69178      189.10347      733.79026    
     75200  -83996.519      621.08459     -83375.435      188.67642      189.08779      734.05699    
     75300  -83938.703      628.68458     -83310.019      188.66207      189.07251      734.32373    
     75400  -83882.993      632.40483     -83250.588      188.64598      189.05595      734.59047    
     75500  -83816.697      629.46786     -83187.229      188.63092      189.04082      734.8572     
     75600  -83761.472      635.81953     -83125.652      188.61521      189.02561      735.12394    
     75700  -83694.282      636.46917     -83057.813      188.59884      189.01022      735.39067    
     75800  -83632.647      634.7829      -82997.864      188.58342      188.99573      735.65741    
     75900  -83573.933      646.64279     -82927.291      188.56733      188.98026      735.92415    
     76000  -83508.906      642.26261     -82866.644      188.55174      188.96478      736.19088    
     76100  -83445.539      641.48193     -82804.057      188.53639      188.9495       736.45762    
     76200  -83379.77       650.67103     -82729.099      188.52017      188.9337       736.72435    
     76300  -83316.169      656.78724     -82659.382      188.50444      188.91841      736.99109    
     76400  -83245.783      655.06194     -82590.721      188.4887       188.90314      737.25782    
     76500  -83183.212      661.48316     -82521.729      188.47247      188.88742      737.52456    
     76600  -83108.052      661.32108     -82446.731      188.45726      188.87218      737.7913     
     76700  -83042.013      664.08962     -82377.924      188.44161      188.85613      738.05803    
     76800  -83044.55       754.39432     -82290.156      188.42627      188.84046      738.32477    
     76900  -83286.001      991.83242     -82294.169      188.41048      188.82525      738.5915     
     77000  -83925.351      1466.1882     -82459.163      188.39674      188.81231      738.85824    
     77100  -85003.214      1978.0452     -83025.169      188.39001      188.80605      739.12498    
     77200  -86184.393      2151.3473     -84033.046      188.39993      188.81053      739.39171    
     77300  -87262.432      2079.3416     -85183.09       188.4057       188.8098       739.65845    
     77400  -88303.612      1946.953      -86356.659      188.40929      188.8062       739.92518    
     77500  -89241.855      1785.0127     -87456.842      188.42128      188.80874      740.19192    
     77600  -90090.408      1636.4067     -88454.002      188.43221      188.80915      740.45865    
     77700  -90877.11       1517.7251     -89359.385      188.44663      188.81232      740.72539    
     77800  -91603.785      1415.3769     -90188.408      188.46351      188.81587      740.99213    
     77900  -92279.966      1328.1215     -90951.845      188.48141      188.81873      741.25886    
     78000  -92904.929      1250.7022     -91654.227      188.50204      188.82279      741.5256     
     78100  -93487.099      1184.976      -92302.123      188.52455      188.82654      741.79233    
     78200  -94029.667      1126.1188     -92903.548      188.54963      188.83157      742.05907    
     78300  -94534.666      1073.7019     -93460.964      188.57497      188.83703      742.32581    
     78400  -95009.479      1028.2813     -93981.198      188.6009       188.84363      742.59254    
     78500  -95454.002      987.30244     -94466.7        188.62699      188.85         742.85928    
     78600  -95872.943      951.35327     -94921.59       188.65391      188.85562      743.12601    
     78700  -96269.509      920.8797      -95348.629      188.6817       188.86189      743.39275    
     78800  -96649.672      894.88487     -95754.787      188.70849      188.86748      743.65948    
     78900  -97016.561      874.04999     -96142.512      188.73459      188.87267      743.92622    
     79000  -97369.94       855.56394     -96514.376      188.75903      188.87675      744.19296    
     79100  -97711.075      839.76725     -96871.308      188.78252      188.88011      744.45969    
     79200  -98039.282      824.6925      -97214.59       188.80631      188.8839       744.72643    
     79300  -98359.83       811.13081     -97548.699      188.82983      188.8882       744.99316    
     79400  -98669.67       797.98726     -97871.683      188.85223      188.89269      745.2599     
     79500  -98972.146      787.13417     -98185.012      188.87367      188.8972       745.52664    
     79600  -99266.08       776.42092     -98489.659      188.89458      188.90166      745.79337    
     79700  -99552.467      766.82948     -98785.638      188.91522      188.90555      746.06011    
     79800  -99830.954      757.31067     -99073.643      188.93613      188.90992      746.32684    
     79900  -100103.89      749.3049      -99354.588      188.95658      188.91498      746.59358    
     80000  -100370.71      741.83661     -99628.87       188.97688      188.92033      746.86031    
     80100  -100633.46      735.75288     -99897.703      188.99686      188.92524      747.12705    
     80200  -100893.8       731.51557     -100162.28      189.01615      188.92996      747.39379    
     80300  -101148.4       725.75816     -100422.64      189.03512      188.93478      747.66052    
     80400  -101396.82      718.71243     -100678.11      189.05447      188.93948      747.92726    
     80500  -101642.29      713.62893     -100928.66      189.07357      188.94383      748.19399    
     80600  -101885.43      710.28427     -101175.14      189.09274      188.94823      748.46073    
     80700  -102126.42      707.36264     -101419.05      189.11139      188.95217      748.72746    
     80800  -102362.05      702.12647     -101659.92      189.13013      188.95622      748.9942     
     80900  -102596.65      699.30387     -101897.34      189.14842      188.96038      749.26094    
     81000  -102823.35      692.24259     -102131.11      189.16589      188.96385      749.52767    
     81100  -103033.42      678.2724      -102355.15      189.18417      188.96717      749.79441    
     81200  -103232.32      665.2876      -102567.04      189.20268      188.97021      750.06114    
     81300  -103419.21      652.40388     -102766.81      189.22078      188.97362      750.32788    
     81400  -103596.19      641.88237     -102954.31      189.2391       188.97826      750.59462    
     81500  -103762.2       630.98056     -103131.22      189.25655      188.98288      750.86135    
     81600  -103918.52      621.57662     -103296.95      189.27398      188.98782      751.12809    
     81700  -104065.29      612.72282     -103452.57      189.29168      188.99305      751.39482    
     81800  -104199.97      602.72689     -103597.25      189.30912      188.99829      751.66156    
     81900  -104324.99      594.1931      -103730.8       189.32728      189.00414      751.92829    
     82000  -104438.74      585.84632     -103852.89      189.34576      189.01002      752.19503    
     82100  -104539.76      577.10275     -103962.66      189.365        189.01638      752.46177    
     82200  -104627.9       569.61149     -104058.28      189.38475      189.02278      752.7285     
     82300  -104703.23      563.73313     -104139.49      189.40499      189.02901      752.99524    
     82400  -104767.86      561.6449      -104206.22      189.42583      189.0351       753.26197    
     82500  -104823.45      561.29265     -104262.16      189.44681      189.04142      753.52871    
     82600  -104861.57      553.07033     -104308.5       189.46758      189.04763      753.79545    
     82700  -104887.23      552.80023     -104334.43      189.48923      189.05402      754.06218    
     82800  -104901.63      559.68451     -104341.94      189.5116       189.06001      754.32892    
     82900  -104905.89      562.54202     -104343.34      189.53429      189.06591      754.59565    
     83000  -104897.38      554.95188     -104342.43      189.55568      189.07231      754.86239    
     83100  -104877.42      549.89387     -104327.53      189.57492      189.07835      755.12912    
     83200  -104838.44      548.93365     -104289.5       189.59339      189.0841       755.39586    
     83300  -104784.16      552.96505     -104231.2       189.61166      189.08989      755.6626     
     83400  -104710.75      547.44717     -104163.3       189.62994      189.09447      755.92933    
     83500  -104621.12      537.04435     -104084.08      189.64758      189.09871      756.19607    
     83600  -104525.28      535.70103     -103989.58      189.66359      189.10225      756.4628     
     83700  -104458.15      567.18586     -103890.96      189.67554      189.10219      756.72954    
     83800  -104402.17      581.69692     -103820.47      189.67868      189.09696      756.99628    
     83900  -104346.55      559.90116     -103786.65      189.68374      189.1001       757.26301    
     84000  -104318.92      565.56114     -103753.36      189.68973      189.11339      757.52975    
     84100  -104298.82      576.11251     -103722.71      189.68971      189.13057      757.79648    
     84200  -104272.32      560.20645     -103712.11      189.68574      189.14308      758.06322    
     84300  -104248.93      552.04606     -103696.88      189.68753      189.15647      758.32995    
     84400  -104214.91      555.50877     -103659.4       189.69671      189.17232      758.59669    
     84500  -104206.25      591.58593     -103614.66      189.70596      189.18433      758.86343    
     84600  -104175.07      561.57191     -103613.5       189.72058      189.19637      759.13016    
     84700  -104156.14      541.32985     -103614.81      189.73606      189.21201      759.3969     
     84800  -104157.44      573.16969     -103584.27      189.7613       189.2259       759.66363    
     84900  -104151.25      582.6626      -103568.58      189.78885      189.22842      759.93037    
     85000  -104143.99      558.74444     -103585.24      189.82331      189.23545      760.19711    
     85100  -104146.84      550.16979     -103596.67      189.86599      189.24207      760.46384    
     85200  -104146.23      562.73069     -103583.5       189.9082       189.23869      760.73058    
     85300  -104134.99      566.80687     -103568.18      189.95074      189.23649      760.99731    
     85400  -104131.57      565.86422     -103565.7       189.99403      189.23818      761.26405    
     85500  -104133.45      562.28277     -103571.17      190.03935      189.24606      761.53078    
     85600  -104129.66      555.52462     -103574.14      190.0767       189.25289      761.79752    
     85700  -104128.8       565.13085     -103563.67      190.11346      189.26356      762.06426    
     85800  -104130.89      574.54009     -103556.35      190.1516       189.2849       762.33099    
     85900  -104138.94      566.29081     -103572.64      190.18636      189.31501      762.59773    
     86000  -104141.91      546.39939     -103595.51      190.21085      189.34545      762.86446    
     86100  -104141.66      548.86032     -103592.8       190.24105      189.37914      763.1312     
     86200  -104151.85      577.9969      -103573.85      190.27684      189.41314      763.39794    
     86300  -104139.81      564.0213      -103575.79      190.31004      189.44401      763.66467    
     86400  -104142.07      563.94744     -103578.12      190.34282      189.46379      763.93141    
     86500  -104161.44      573.20807     -103588.24      190.38308      189.47998      764.19814    
     86600  -104167.5       557.78005     -103609.72      190.41272      189.48355      764.46488    
     86700  -104166.83      545.73703     -103621.09      190.44066      189.49173      764.73161    
     86800  -104159         547.70369     -103611.3       190.46078      189.5023       764.99835    
     86900  -104160.03      575.44659     -103584.58      190.48676      189.51151      765.26509    
     87000  -104151.41      576.77492     -103574.64      190.50278      189.50784      765.53182    
     87100  -104150.52      562.81089     -103587.7       190.51623      189.50361      765.79856    
     87200  -104148.21      547.21116     -103601         190.53593      189.51054      766.06529    
     87300  -104145.05      554.33371     -103590.71      190.55372      189.5152       766.33203    
     87400  -104150.65      574.80835     -103575.84      190.57378      189.5283       766.59877    
     87500  -104161.58      575.41242     -103586.17      190.5853       189.53618      766.8655     
     87600  -104170.31      557.36824     -103612.95      190.60169      189.55132      767.13224    
     87700  -104171         543.43023     -103627.57      190.61972      189.56003      767.39897    
     87800  -104159.9       553.12669     -103606.77      190.64174      189.57327      767.66571    
     87900  -104142.49      573.27633     -103569.22      190.66372      189.59307      767.93244    
     88000  -104138.57      583.56729     -103555.01      190.68192      189.6134       768.19918    
     88100  -104137.62      561.56591     -103576.06      190.69959      189.63362      768.46592    
     88200  -104147.47      551.0847      -103596.38      190.72108      189.65187      768.73265    
     88300  -104152.81      551.77512     -103601.03      190.74231      189.67552      768.99939    
     88400  -104150.23      560.69871     -103589.53      190.76139      189.70095      769.26612    
     88500  -104139.91      568.34731     -103571.57      190.77571      189.73102      769.53286    
     88600  -104147.04      576.41409     -103570.63      190.78715      189.7618       769.7996     
     88700  -104152.21      560.95908     -103591.25      190.80205      189.78312      770.06633    
     88800  -104166.73      554.8928      -103611.84      190.82274      189.80579      770.33307    
     88900  -104160.75      550.53864     -103610.21      190.83887      189.82643      770.5998     
     89000  -104159.54      572.00397     -103587.54      190.85662      189.83914      770.86654    
     89100  -104157.77      568.04771     -103589.73      190.88381      189.85229      771.13327    
     89200  -104171.69      567.18007     -103604.51      190.9094       189.86227      771.40001    
     89300  -104177.21      556.3848      -103620.83      190.93646      189.8705       771.66675    
     89400  -104173.56      551.5495      -103622.01      190.95926      189.87629      771.93348    
     89500  -104171.13      567.67512     -103603.45      190.98746      189.88652      772.20022    
     89600  -104169.59      574.49993     -103595.09      191.00661      189.89312      772.46695    
     89700  -104182.12      569.45484     -103612.67      191.01868      189.90008      772.73369    
     89800  -104201.19      558.65709     -103642.54      191.03669      189.91513      773.00043    
     89900  -104215.83      550.28027     -103665.55      191.04967      189.92822      773.26716    
     90000  -104218.52      552.99816     -103665.53      191.06888      189.94101      773.5339     
     90100  -104221.16      571.72176     -103649.43      191.09055      189.94854      773.80063    
     90200  -104216.07      571.95828     -103644.11      191.11712      189.95532      774.06737    
     90300  -104221.68      564.40644     -103657.27      191.1449       189.9686       774.3341     
     90400  -104229.27      556.4025      -103672.86      191.16904      189.97914      774.60084    
     90500  -104225.94      551.00836     -103674.93      191.19339      189.99002      774.86758    
     90600  -104230.55      565.24381     -103665.31      191.21769      190.00009      775.13431    
     90700  -104227.65      570.0714      -103657.58      191.24518      190.0112       775.40105    
     90800  -104221.94      563.46756     -103658.47      191.27495      190.0259       775.66778    
     90900  -104214.08      556.29622     -103657.78      191.30575      190.04501      775.93452    
     91000  -104215.57      564.99301     -103650.58      191.32981      190.06366      776.20126    
     91100  -104214.32      569.51156     -103644.81      191.35691      190.08175      776.46799    
     91200  -104206.84      562.79161     -103644.05      191.38663      190.1007       776.73473    
     91300  -104208.87      564.33114     -103644.54      191.41146      190.12068      777.00146    
     91400  -104207.12      562.90668     -103644.21      191.43457      190.1395       777.2682     
     91500  -104209.44      565.0033      -103644.44      191.46316      190.16124      777.53493    
     91600  -104211.07      563.77718     -103647.3       191.49592      190.19063      777.80167    
     91700  -104206.78      557.2814      -103649.5       191.5199       190.21599      778.06841    
     91800  -104207.17      560.78448     -103646.38      191.55251      190.24684      778.33514    
     91900  -104206.21      563.2078      -103643.01      191.58488      190.2732       778.60188    
     92000  -104203.72      560.67118     -103643.05      191.61561      190.30178      778.86861    
     92100  -104210.04      567.41004     -103642.63      191.6457       190.32852      779.13535    
     92200  -104206.39      560.10232     -103646.29      191.67383      190.35503      779.40209    
     92300  -104203.31      558.52474     -103644.78      191.70287      190.38313      779.66882    
     92400  -104204.4       572.10846     -103632.29      191.73404      190.41314      779.93556    
     92500  -104195.84      569.51586     -103626.32      191.76794      190.44515      780.20229    
     92600  -104194.07      563.71478     -103630.35      191.79907      190.47168      780.46903    
     92700  -104199.78      562.23202     -103637.55      191.83634      190.50425      780.73576    
     92800  -104207.03      560.82903     -103646.2       191.86847      190.53211      781.0025     
     92900  -104206.28      557.84188     -103648.44      191.90656      190.5629       781.26924    
     93000  -104199.56      559.44564     -103640.12      191.93979      190.58772      781.53597    
     93100  -104197.64      566.98996     -103630.65      191.98016      190.61014      781.80271    
     93200  -104197.04      566.72382     -103630.32      192.01921      190.62634      782.06944    
     93300  -104209.69      567.67298     -103642.01      192.05946      190.64264      782.33618    
     93400  -104211.02      553.38322     -103657.64      192.09993      190.6544       782.60291    
     93500  -104217.62      555.45881     -103662.16      192.1424       190.6657       782.86965    
     93600  -104224.07      568.4337      -103655.63      192.18221      190.67858      783.13639    
     93700  -104220.82      566.99791     -103653.82      192.21438      190.68376      783.40312    
     93800  -104227.84      564.26641     -103663.57      192.25281      190.69131      783.66986    
     93900  -104235.43      557.77622     -103677.65      192.28758      190.68901      783.93659    
     94000  -104238.65      555.54853     -103683.1       192.325        190.68962      784.20333    
     94100  -104243.26      566.37906     -103676.88      192.36107      190.68628      784.47007    
     94200  -104251.14      573.08