LAMMPS (2 Aug 2023 - Update 3)
OMP_NUM_THREADS environment is not set. Defaulting to 1 thread. (src/comm.cpp:98)
  using 1 OpenMP thread(s) per MPI task

# 1------general---------------
units                             metal      #单位为lammps 中的metel 类型
dimension                    3          #模拟的维度 三维
boundary                    p p p      #周期边界条件
atom_style                  atomic   #原子类型自动
atom_modify              map array sort 100 2.0
neighbor                    3.0 bin
neigh_modify            every 1 delay 0 check yes
#2 -----global variable-------定义全局变量，方便统一修改；
variable temperature equal 300
variable tstep equal 0.001
variable pressure equal 0
variable thermalstep equal 100
variable dumpstep equal 1000
variable relaxtime equal 0
variable totaltime equal 100000
variable deformrate equal 5e-3
#3 -------model------------
#box tilt large
read_data     1.lmp
Reading data file ...
  orthogonal box = (-100 -100 -2.3312515) to (100 100 46.166171)
  3 by 4 by 1 MPI processor grid
  reading atoms ...
  1480 atoms
  read_data CPU = 0.006 seconds
replicate 1 1 5
Replication is creating a 1x1x5 = 5 times larger system...
  orthogonal box = (-100 -100 -2.3312515) to (100 100 240.15586)
  2 by 2 by 3 MPI processor grid
  7400 atoms
  replicate CPU = 0.001 seconds
group SR type 2 3
1800 atoms in group SR
delete_atoms group SR
Deleted 1800 atoms, new total = 5600

write_data z.data
System init for write_data ...
WARNING: Communication cutoff is 0.0. No ghost atoms will be generated. Atoms may get lost. (src/comm_brick.cpp:210)
pair_style hybrid airebo 3.0 airebo 3.0 airebo 3.0 lj/cut 10
pair_coeff * * airebo 1 CH.airebo C NULL NULL
Reading airebo potential file CH.airebo with DATE: 2011-10-25
pair_coeff * * airebo 2 CH.airebo NULL C NULL
Reading airebo potential file CH.airebo with DATE: 2011-10-25
pair_coeff * * airebo 3 CH.airebo NULL NULL C
Reading airebo potential file CH.airebo with DATE: 2011-10-25
pair_coeff 1 2 lj/cut 0.00456 3.431
pair_coeff 1 3 lj/cut 0.00456 3.431
pair_coeff 2 3 lj/cut 0.00456 3.431

# 5------minimize -----------
min_style      sd
minimize       1.0e-4 1.0e-6 100 1000
Neighbor list info ...
  update: every = 1 steps, delay = 0 steps, check = yes
  max neighbors/atom: 2000, page size: 100000
  master list distance cutoff = 13.2
  ghost atom cutoff = 13.2
  binsize = 6.6, bins = 31 31 37
  6 neighbor lists, perpetual/occasional/extra = 6 0 0
  (1) pair airebo, perpetual, skip from (5)
      attributes: full, newton on, ghost
      pair build: skip/ghost
      stencil: none
      bin: none
  (2) pair airebo, perpetual, skip from (5)
      attributes: full, newton on, ghost
      pair build: skip/ghost
      stencil: none
      bin: none
  (3) pair airebo, perpetual, skip from (5)
      attributes: full, newton on, ghost
      pair build: skip/ghost
      stencil: none
      bin: none
  (4) pair lj/cut, perpetual, skip from (6)
      attributes: half, newton on, cut 13
      pair build: skip
      stencil: none
      bin: none
  (5) neighbor class addition, perpetual
      attributes: full, newton on, ghost
      pair build: full/bin/ghost
      stencil: full/ghost/bin/3d
      bin: standard
  (6) neighbor class addition, perpetual
      attributes: half, newton on, cut 13
      pair build: half/bin/atomonly/newton
      stencil: half/bin/3d
      bin: standard
Per MPI rank memory allocation (min/avg/max) = 10.82 | 10.82 | 10.82 Mbytes
   Step          Temp          E_pair         E_mol          TotEng         Press     
         0   0             -41510.476      0             -41510.476     -48.029154    
         1   0             -41510.536      0             -41510.536     -47.94229     
Loop time of 0.0244591 on 12 procs for 1 steps with 5600 atoms

99.2% CPU use with 12 MPI tasks x 1 OpenMP threads

Minimization stats:
  Stopping criterion = energy tolerance
  Energy initial, next-to-last, final = 
     -41510.4760631355  -41510.4760631355  -41510.5355665795
  Force two-norm initial, final = 3.927991 0.63905441
  Force max component initial, final = 0.052442243 0.0085447709
  Final line search alpha, max atom move = 1 0.0085447709
  Iterations, force evaluations = 1 2

MPI task timing breakdown:
Section |  min time  |  avg time  |  max time  |%varavg| %total
---------------------------------------------------------------
Pair    | 0.019131   | 0.021465   | 0.023889   |   0.9 | 87.76
Neigh   | 0          | 0          | 0          |   0.0 |  0.00
Comm    | 0.00034734 | 0.0027491  | 0.0050714  |   2.6 | 11.24
Output  | 0          | 0          | 0          |   0.0 |  0.00
Modify  | 0          | 0          | 0          |   0.0 |  0.00
Other   |            | 0.0002446  |            |       |  1.00

Nlocal:        466.667 ave         503 max         429 min
Histogram: 3 0 0 0 2 4 0 0 1 2
Nghost:        2006.67 ave        2056 max        1962 min
Histogram: 2 0 1 2 2 0 2 2 0 1
Neighs:              0 ave           0 max           0 min
Histogram: 12 0 0 0 0 0 0 0 0 0

Total # of neighbors = 0
Ave neighs/atom = 0
Neighbor list builds = 0
Dangerous builds = 0
#6----define computes------
variable nums equal count(all) #计算原子数目
variable toval equal 18.7166*18.7166*lz #计算系统总体积，单层石墨烯厚度为0.335nm
variable vol equal ${toval} #体系的初始体积
variable vol equal 84945.931764576 
variable vatom equal v_vol/v_nums #单个原子体积
compute 1 all stress/atom NULL #计算体系中单原子应力
compute xalls all reduce sum c_1[1]
variable xstress equal (c_xalls)/(v_toval*10000)
compute yalls all reduce sum c_1[2]
variable ystress equal (c_yalls)/(v_toval*10000)
compute zalls all reduce sum c_1[3]
variable zstress equal (c_zalls)/(v_toval*10000)
#7---------relaxation-------------------------
timestep ${tstep}
timestep 0.001
velocity all create ${temperature} 231743 units box dist gaussian
velocity all create 300 231743 units box dist gaussian
dump   1 all atom 100 all-cy.lammpstrj
#fix    1 all npt temp 300 300  0.1 aniso 0 0 10 drag 1  #三个方向独立控压
fix  1 all npt temp ${temperature} ${temperature} 0.1 x ${pressure} ${pressure} 10 y ${pressure} ${pressure} 10
fix  1 all npt temp 300 ${temperature} 0.1 x ${pressure} ${pressure} 10 y ${pressure} ${pressure} 10
fix  1 all npt temp 300 300 0.1 x ${pressure} ${pressure} 10 y ${pressure} ${pressure} 10
fix  1 all npt temp 300 300 0.1 x 0 ${pressure} 10 y ${pressure} ${pressure} 10
fix  1 all npt temp 300 300 0.1 x 0 0 10 y ${pressure} ${pressure} 10
fix  1 all npt temp 300 300 0.1 x 0 0 10 y 0 ${pressure} 10
fix  1 all npt temp 300 300 0.1 x 0 0 10 y 0 0 10
compute  2 all pe/atom
compute  pe all reduce sum c_2
variable PE equal "c_pe"
fix    pe all print 100 "${PE} " file PE.txt screen no
thermo  ${thermalstep}
thermo  100
#thermo_style  custom step pe ke etotal lx ly lz
run   ${relaxtime}
run   0
Per MPI rank memory allocation (min/avg/max) = 11.44 | 11.44 | 11.44 Mbytes
   Step          Temp          E_pair         E_mol          TotEng         Press          Volume    
         1   300           -41510.536      0             -41293.417     -24.032993      9699484.6    
Loop time of 4.64878e-05 on 12 procs for 0 steps with 5600 atoms

83.5% CPU use with 12 MPI tasks x 1 OpenMP threads

MPI task timing breakdown:
Section |  min time  |  avg time  |  max time  |%varavg| %total
---------------------------------------------------------------
Pair    | 0          | 0          | 0          |   0.0 |  0.00
Neigh   | 0          | 0          | 0          |   0.0 |  0.00
Comm    | 0          | 0          | 0          |   0.0 |  0.00
Output  | 0          | 0          | 0          |   0.0 |  0.00
Modify  | 0          | 0          | 0          |   0.0 |  0.00
Other   |            | 4.649e-05  |            |       |100.00

Nlocal:        466.667 ave         469 max         462 min
Histogram: 4 0 0 0 0 0 0 0 0 8
Nghost:        2006.67 ave        2023 max        1995 min
Histogram: 4 0 4 0 0 0 0 0 0 4
Neighs:              0 ave           0 max           0 min
Histogram: 12 0 0 0 0 0 0 0 0 0

Total # of neighbors = 0
Ave neighs/atom = 0
Neighbor list builds = 0
Dangerous builds = 0
#8 -------tension-----------------------------
unfix  1
undump  1
unfix  pe
reset_timestep 0
fix avestress all ave/atom 1 ${dumpstep} ${dumpstep} c_1[1] c_1[2] c_1[3] c_1[4] c_1[5] c_1[6]
fix avestress all ave/atom 1 1000 ${dumpstep} c_1[1] c_1[2] c_1[3] c_1[4] c_1[5] c_1[6]
fix avestress all ave/atom 1 1000 1000 c_1[1] c_1[2] c_1[3] c_1[4] c_1[5] c_1[6]

#-----calculation of strain and Cumulative compression--------
variable                tmp equal "lz"
variable                L0 equal ${tmp}
variable                L0 equal 242.487115
variable                strain equal "(lz - v_L0)/v_L0"
variable                Cumulativels equal "(lz - v_L0)/10"
fix Step all print 100 "${strain} ${Cumulativels} ${zstress}" file grapoten.txt screen no

dump 2 all custom ${dumpstep} tension.xyz type x y z f_avestress[1] f_avestress[2] f_avestress[3] f_avestress[4] f_avestress[5] f_avestress[6]
dump 2 all custom 1000 tension.xyz type x y z f_avestress[1] f_avestress[2] f_avestress[3] f_avestress[4] f_avestress[5] f_avestress[6]

fix  1 all npt temp ${temperature} ${temperature} 0.1 y ${pressure} ${pressure} 10 x ${pressure} ${pressure} 10
fix  1 all npt temp 300 ${temperature} 0.1 y ${pressure} ${pressure} 10 x ${pressure} ${pressure} 10
fix  1 all npt temp 300 300 0.1 y ${pressure} ${pressure} 10 x ${pressure} ${pressure} 10
fix  1 all npt temp 300 300 0.1 y 0 ${pressure} 10 x ${pressure} ${pressure} 10
fix  1 all npt temp 300 300 0.1 y 0 0 10 x ${pressure} ${pressure} 10
fix  1 all npt temp 300 300 0.1 y 0 0 10 x 0 ${pressure} 10
fix  1 all npt temp 300 300 0.1 y 0 0 10 x 0 0 10

thermo_style custom step pe ke etotal lx ly lz
fix   2 all deform 1 z erate ${deformrate} remap x units box
fix   2 all deform 1 z erate 0.005 remap x units box
fix   3 all ave/time 2 500 1000 v_xstress v_ystress v_zstress file pressure.out
run   ${totaltime}
run   100000
WARNING: Dump 2 includes no atom IDs and is not sorted by ID. This may complicate post-processing tasks or visualization (src/dump.cpp:221)
Per MPI rank memory allocation (min/avg/max) = 12.94 | 12.94 | 12.94 Mbytes
   Step         PotEng         KinEng         TotEng           Lx             Ly             Lz      
         0  -41510.536      217.11827     -41293.417      200            200            242.48711    
       100  -41383.824      107.91261     -41275.912      199.99242      199.99491      242.60836    
       200  -41385.964      134.75405     -41251.21       199.98862      199.99285      242.7296     
       300  -41365.434      143.84172     -41221.592      199.99341      199.99849      242.85085    
       400  -41352.646      163.37347     -41189.272      199.9846       199.98983      242.97209    
       500  -41331.895      176.3262      -41155.569      199.98531      199.99064      243.09333    
       600  -41316.424      194.04006     -41122.384      199.98955      199.99315      243.21458    
       700  -41301.045      208.46496     -41092.58       199.98095      199.9802       243.33582    
       800  -41290.165      220.35692     -41069.808      199.98887      199.98299      243.45706    
       900  -41285.115      225.48586     -41059.629      199.99262      199.97913      243.57831    
      1000  -41284.507      218.81615     -41065.691      199.98412      199.96039      243.69955    
      1100  -41293.992      216.07039     -41077.922      199.99537      199.96032      243.82079    
      1200  -41293.314      209.26016     -41084.054      199.99975      199.94925      243.94204    
      1300  -41291.521      211.57295     -41079.948      199.99904      199.92992      244.06328    
      1400  -41283.379      214.63944     -41068.74       200.016        199.92754      244.18452    
      1500  -41283.116      223.19104     -41059.924      200.01918      199.90776      244.30577    
      1600  -41281.285      220.84307     -41060.441      200.02457      199.88746      244.42701    
      1700  -41286.54       218.29707     -41068.243      200.04527      199.88073      244.54826    
      1800  -41288.495      214.56838     -41073.927      200.04804      199.85272      244.6695     
      1900  -41282.912      210.90986     -41072.002      200.05865      199.83176      244.79074    
      2000  -41280.22       217.65075     -41062.569      200.07975      199.82022      244.91199    
      2100  -41274.906      221.19196     -41053.714      200.08412      199.78842      245.03323    
      2200  -41270.281      217.7055      -41052.575      200.10111      199.76838      245.15447    
      2300  -41273.511      216.13456     -41057.377      200.11944      199.75035      245.27572    
      2400  -41279.769      217.73288     -41062.036      200.12412      199.71766      245.39696    
      2500  -41270.344      209.23785     -41061.106      200.14372      199.69909      245.5182     
      2600  -41269.059      215.77306     -41053.286      200.15912      199.67587      245.63945    
      2700  -41263.648      219.27039     -41044.378      200.1642       199.64301      245.76069    
      2800  -41262.04       221.27531     -41040.765      200.18473      199.6264       245.88193    
      2900  -41262.673      219.14577     -41043.527      200.19557      199.60178      246.00318    
      3000  -41263.378      215.51023     -41047.867      200.20032      199.57185      246.12442    
      3100  -41259.876      211.71524     -41048.161      200.21894      199.55733      246.24567    
      3200  -41259.922      217.63056     -41042.292      200.2233       199.53275      246.36691    
      3300  -41252.147      217.75675     -41034.39       200.22712      199.50882      246.48815    
      3400  -41248.476      219.49399     -41028.982      200.24114      199.49573      246.6094     
      3500  -41245.113      216.80083     -41028.312      200.23935      199.47127      246.73064    
      3600  -41249.399      218.40613     -41030.993      200.2417       199.4529       246.85188    
      3700  -41246.789      214.91391     -41031.875      200.25003      199.44229      246.97313    
      3800  -41241.275      214.3612      -41026.914      200.24301      199.41885      247.09437    
      3900  -41239.94       220.99536     -41018.945      200.246        199.40708      247.21561    
      4000  -41231.971      219.11751     -41012.853      200.24905      199.3978       247.33686    
      4100  -41231.274      219.54711     -41011.727      200.2378       199.37627      247.4581     
      4200  -41230.067      215.69294     -41014.374      200.23898      199.36801      247.57934    
      4300  -41228.248      213.17991     -41015.068      200.23646      199.35732      247.70059    
      4400  -41226.795      215.83428     -41010.96       200.22329      199.33958      247.82183    
      4500  -41219.411      215.62192     -41003.789      200.22254      199.33373      247.94308    
      4600  -41216.089      220.20925     -40995.88       200.21547      199.32118      248.06432    
      4700  -41209.101      216.78257     -40992.318      200.20419      199.30567      248.18556    
      4800  -41209.755      215.90335     -40993.851      200.20221      199.30035      248.30681    
      4900  -41209.862      214.43773     -40995.424      200.19229      199.2863       248.42805    
      5000  -41208.422      215.52        -40992.902      200.18079      199.26927      248.54929    
      5100  -41200.92       215.5722      -40985.348      200.17782      199.26059      248.67054    
      5200  -41195.891      219.88319     -40976.008      200.16928      199.2448       248.79178    
      5300  -41188.673      217.95189     -40970.721      200.15973      199.22632      248.91302    
      5400  -41188.042      217.80195     -40970.24       200.15696      199.21452      249.03427    
      5500  -41189.195      217.48272     -40971.713      200.15129      199.19629      249.15551    
      5600  -41186.06       215.46395     -40970.596      200.14405      199.1749       249.27675    
      5700  -41179.309      214.76035     -40964.549      200.14273      199.15829      249.398      
      5800  -41172.84       216.92574     -40955.914      200.13948      199.13584      249.51924    
      5900  -41170.216      221.11804     -40949.098      200.13648      199.11038      249.64048    
      6000  -41165.242      218.5011      -40946.741      200.13903      199.089        249.76173    
      6100  -41163.428      215.66532     -40947.763      200.13769      199.06084      249.88297    
      6200  -41164.294      216.9449      -40947.349      200.13715      199.03166      250.00422    
      6300  -41154.575      211.82313     -40942.752      200.14443      199.00696      250.12546    
      6400  -41148.768      214.7212      -40934.047      200.14401      198.97204      250.2467     
      6500  -41143.906      218.858       -40925.048      200.14672      198.93812      250.36795    
      6600  -41138.73       219.34008     -40919.39       200.15714      198.91048      250.48919    
      6700  -41142.448      223.61425     -40918.834      200.1593       198.87333      250.61043    
      6800  -41136.313      216.8119      -40919.502      200.1634       198.83601      250.73168    
      6900  -41131.337      214.59578     -40916.741      200.17352      198.80383      250.85292    
      7000  -41126.157      216.84577     -40909.312      200.1762       198.76344      250.97416    
      7100  -41120.729      220.63923     -40900.09       200.18283      198.72631      251.09541    
      7200  -41113.445      220.0975      -40893.348      200.19237      198.6916       251.21665    
      7300  -41106.485      215.8159      -40890.669      200.19402      198.64822      251.33789    
      7400  -41106.803      216.6334      -40890.17       200.20101      198.61062      251.45914    
      7500  -41105.319      217.53928     -40887.779      200.20921      198.5755       251.58038    
      7600  -41097.249      215.70689     -40881.542      200.20806      198.53184      251.70163    
      7700  -41091.47       218.81949     -40872.65       200.21356      198.49465      251.82287    
      7800  -41080.989      216.56311     -40864.426      200.21751      198.45748      251.94411    
      7900  -41079.363      220.16278     -40859.2        200.21464      198.4155       252.06536    
      8000  -41076.466      218.76612     -40857.7        200.21726      198.38039      252.1866     
      8100  -41070.672      215.01736     -40855.654      200.21599      198.34398      252.30784    
      8200  -41067.126      216.15078     -40850.975      200.21153      198.30598      252.42909    
      8300  -41053.694      212.496       -40841.198      200.20979      198.27336      252.55033    
      8400  -41050.549      219.18749     -40831.361      200.20333      198.2377       252.67157    
      8500  -41049.27       220.76884     -40828.501      200.19492      198.20189      252.79282    
      8600  -41043.044      216.37414     -40826.67       200.18861      198.16931      252.91406    
      8700  -41038.85       216.45445     -40822.395      200.17898      198.13554      253.0353     
      8800  -41032.657      216.15723     -40816.5        200.1666       198.10163      253.15655    
      8900  -41025.576      216.68989     -40808.886      200.15635      198.07102      253.27779    
      9000  -41018.387      221.95093     -40796.436      200.14399      198.03863      253.39904    
      9100  -41011.5        221.03144     -40790.468      200.12951      198.00569      253.52028    
      9200  -41006.394      217.28115     -40789.113      200.11475      197.97424      253.64152    
      9300  -41001.966      216.19024     -40785.776      200.10006      197.94261      253.76277    
      9400  -40998.677      216.94996     -40781.727      200.08382      197.9096       253.88401    
      9500  -40991.84       214.23057     -40777.609      200.06723      197.87614      254.00525    
      9600  -40986.806      214.49051     -40772.315      200.05148      197.84373      254.1265     
      9700  -40983.795      221.06053     -40762.734      200.03485      197.80935      254.24774    
      9800  -40971.534      218.46556     -40753.068      200.01894      197.77416      254.36898    
      9900  -40964.214      217.12259     -40747.091      200.00243      197.73715      254.49023    
     10000  -40964.955      218.87185     -40746.083      199.98689      197.6996       254.61147    
     10100  -40956.337      213.68667     -40742.65       199.97121      197.66027      254.73271    
     10200  -40948.101      214.19431     -40733.906      199.95375      197.61759      254.85396    
     10300  -40942.716      218.26756     -40724.449      199.94134      197.57719      254.9752     
     10400  -40932.792      216.19893     -40716.593      199.9284       197.53432      255.09644    
     10500  -40929.313      218.95718     -40710.356      199.91318      197.48697      255.21769    
     10600  -40922.035      216.80415     -40705.23       199.90186      197.4408       255.33893    
     10700  -40921.424      215.44752     -40705.976      199.89107      197.39259      255.46018    
     10800  -40913.9        213.72113     -40700.179      199.87918      197.3405       255.58142    
     10900  -40905.469      216.81969     -40688.649      199.86999      197.28799      255.70266    
     11000  -40894.672      216.54837     -40678.123      199.86044      197.23314      255.82391    
     11100  -40885.219      215.6788      -40669.54       199.85226      197.17609      255.94515    
     11200  -40883.966      219.53087     -40664.435      199.84724      197.1204       256.06639    
     11300  -40877.099      214.38211     -40662.717      199.83846      197.05872      256.18764    
     11400  -40871.368      212.88588     -40658.482      199.83282      196.99807      256.30888    
     11500  -40861.126      212.60688     -40648.52       199.82837      196.93712      256.43012    
     11600  -40854.492      215.53637     -40638.955      199.82077      196.87131      256.55137    
     11700  -40846.865      217.4925      -40629.372      199.81706      196.808        256.67261    
     11800  -40837.783      218.57532     -40619.208      199.81138      196.74204      256.79385    
     11900  -40830.363      219.06037     -40611.302      199.80556      196.67509      256.9151     
     12000  -40828.602      218.00069     -40610.601      199.80214      196.6104       257.03634    
     12100  -40818.86       213.96524     -40604.894      199.79269      196.53982      257.15759    
     12200  -40809.759      214.77519     -40594.984      199.78687      196.4729       257.27883    
     12300  -40801.23       217.12808     -40584.102      199.78252      196.40778      257.40007    
     12400  -40795.359      220.69453     -40574.664      199.76946      196.33568      257.52132    
     12500  -40786.662      216.9687      -40569.693      199.76095      196.26933      257.64256    
     12600  -40780.115      212.41851     -40567.696      199.75232      196.20431      257.7638     
     12700  -40771.733      213.20333     -40558.53       199.737        196.13376      257.88505    
     12800  -40761.536      215.17524     -40546.361      199.72688      196.06992      258.00629    
     12900  -40754.148      217.98168     -40536.166      199.71268      196.00461      258.12753    
     13000  -40747.856      218.5385      -40529.317      199.69388      195.93777      258.24878    
     13100  -40744.029      217.49399     -40526.535      199.68056      195.87666      258.37002    
     13200  -40735.164      213.99436     -40521.17       199.66071      195.81135      258.49126    
     13300  -40729.398      217.55591     -40511.843      199.63975      195.74745      258.61251    
     13400  -40717.529      216.98655     -40500.543      199.62149      195.68899      258.73375    
     13500  -40706.049      217.11545     -40488.934      199.59579      195.62494      258.855      
     13600  -40696.035      215.84006     -40480.195      199.57359      195.56434      258.97624    
     13700  -40695.699      218.44929     -40477.25       199.553        195.50775      259.09748    
     13800  -40688.387      215.47439     -40472.912      199.52326      195.44411      259.21873    
     13900  -40678.368      215.59424     -40462.774      199.4992       195.38674      259.33997    
     14000  -40669.838      218.57672     -40451.262      199.47642      195.33132      259.46121    
     14100  -40658.646      217.62731     -40441.019      199.44562      195.26827      259.58246    
     14200  -40653.18       219.88973     -40433.29       199.41967      195.21079      259.7037     
     14300  -40648.32       217.28645     -40431.033      199.39368      195.15472      259.82494    
     14400  -40637.786      212.23474     -40425.551      199.36342      195.09266      259.94619    
     14500  -40628.909      216.2359      -40412.673      199.33807      195.03492      260.06743    
     14600  -40616.614      216.45505     -40400.158      199.31196      194.9771       260.18867    
     14700  -40607.03       217.3973      -40389.633      199.28243      194.91517      260.30992    
     14800  -40597.15       216.39696     -40380.753      199.25859      194.85776      260.43116    
     14900  -40592.249      217.01781     -40375.231      199.23275      194.79686      260.55241    
     15000  -40584.875      213.59482     -40371.28       199.2046       194.73241      260.67365    
     15100  -40573.853      212.87128     -40360.982      199.18187      194.67336      260.79489    
     15200  -40564.218      217.33535     -40346.882      199.15835      194.61098      260.91614    
     15300  -40555.847      218.45938     -40337.388      199.13459      194.54531      261.03738    
     15400  -40549.735      220.36999     -40329.365      199.11494      194.48263      261.15862    
     15500  -40538.577      216.55823     -40322.018      199.09432      194.41766      261.27987    
     15600  -40531.124      214.93983     -40316.184      199.07433      194.35095      261.40111    
     15700  -40523.956      215.01255     -40308.943      199.05672      194.28438      261.52235    
     15800  -40511          216.34343     -40294.656      199.03913      194.21605      261.6436     
     15900  -40497.428      215.7698      -40281.658      199.02339      194.14947      261.76484    
     16000  -40492.045      219.68747     -40272.357      199.00889      194.08247      261.88608    
     16100  -40483.785      218.56673     -40265.218      198.99277      194.0117       262.00733    
     16200  -40473.712      212.98315     -40260.729      198.98156      193.9445       262.12857    
     16300  -40466.68       213.26593     -40253.414      198.97024      193.87823      262.24981    
     16400  -40456.168      218.06683     -40238.101      198.95549      193.80693      262.37106    
     16500  -40441.283      215.58742     -40225.696      198.94576      193.73973      262.4923     
     16600  -40436.738      219.39262     -40217.345      198.93696      193.67316      262.61355    
     16700  -40428.134      218.31919     -40209.814      198.9227       193.60322      262.73479    
     16800  -40419.924      217.41978     -40202.504      198.91357      193.5386       262.85603    
     16900  -40405.346      213.11478     -40192.231      198.904        193.47339      262.97728    
     17000  -40394.894      218.27103     -40176.623      198.89079      193.40611      263.09852    
     17100  -40386.36       220.91437     -40165.446      198.88268      193.34645      263.21976    
     17200  -40374.819      216.67621     -40158.142      198.87039      193.28515      263.34101    
     17300  -40368.742      215.71633     -40153.025      198.85515      193.22237      263.46225    
     17400  -40357.129      212.92454     -40144.204      198.84548      193.16653      263.58349    
     17500  -40349.171      216.81018     -40132.361      198.83062      193.10921      263.70474    
     17600  -40336.042      215.82231     -40120.22       198.8131       193.052        263.82598    
     17700  -40325.967      218.08794     -40107.879      198.80179      193.00222      263.94722    
     17800  -40317.272      222.08629     -40095.185      198.78484      192.94912      264.06847    
     17900  -40302.104      219.82832     -40082.276      198.76635      192.89817      264.18971    
     18000  -40290.656      215.61286     -40075.043      198.75252      192.85427      264.31096    
     18100  -40287.252      216.95896     -40070.293      198.73242      192.80729      264.4322     
     18200  -40277.801      216.20367     -40061.598      198.71232      192.76227      264.55344    
     18300  -40265.559      215.70326     -40049.856      198.69625      192.72414      264.67469    
     18400  -40255.475      220.51081     -40034.964      198.67361      192.68289      264.79593    
     18500  -40242.072      220.77415     -40021.297      198.65073      192.64389      264.91717    
     18600  -40231.955      217.19682     -40014.759      198.6325       192.61053      265.03842    
     18700  -40226.918      217.85366     -40009.064      198.60804      192.57388      265.15966    
     18800  -40213.16       214.16694     -39998.993      198.58607      192.5416       265.2809     
     18900  -40202.843      216.19447     -39986.648      198.56493      192.51103      265.40215    
     19000  -40191.814      219.42812     -39972.386      198.5394       192.47777      265.52339    
     19100  -40179.631      218.59568     -39961.035      198.51944      192.45069      265.64463    
     19200  -40171.118      215.9863      -39955.132      198.49665      192.4218       265.76588    
     19300  -40163.325      214.73197     -39948.593      198.47021      192.38983      265.88712    
     19400  -40153.911      217.70428     -39936.207      198.45258      192.36568      266.00837    
     19500  -40138.503      215.57759     -39922.926      198.43155      192.33847      266.12961    
     19600  -40125.809      214.98212     -39910.827      198.40725      192.30756      266.25085    
     19700  -40115.259      215.05291     -39900.206      198.39152      192.28472      266.3721     
     19800  -40108.993      219.83805     -39889.155      198.37152      192.25618      266.49334    
     19900  -40095.343      216.73402     -39878.609      198.35138      192.22605      266.61458    
     20000  -40084.629      217.0464      -39867.582      198.33786      192.20198      266.73583    
     20100  -40074.16       218.10746     -39856.052      198.321        192.17301      266.85707    
     20200  -40061.554      218.1799      -39843.375      198.30484      192.14259      266.97831    
     20300  -40048.501      221.08134     -39827.419      198.29583      192.11838      267.09956    
     20400  -40038.481      222.57015     -39815.911      198.28247      192.08831      267.2208     
     20500  -40029.641      218.78948     -39810.852      198.27023      192.05662      267.34204    
     20600  -40017.636      215.25075     -39802.385      198.26552      192.03111      267.46329    
     20700  -40005.376      213.83217     -39791.544      198.25488      191.99825      267.58453    
     20800  -39992.512      213.46842     -39779.043      198.24638      191.96631      267.70577    
     20900  -39983.166      220.74433     -39762.422      198.24464      191.93955      267.82702    
     21000  -39969.021      220.02429     -39748.997      198.2373       191.90464      267.94826    
     21100  -39958.781      217.86537     -39740.916      198.23374      191.87309      268.06951    
     21200  -39949.364      217.14439     -39732.219      198.23397      191.84505      268.19075    
     21300  -39939.815      218.50375     -39721.311      198.22795      191.80975      268.31199    
     21400  -39927.529      217.3384      -39710.19       198.22714      191.77889      268.43324    
     21500  -39914.072      215.80457     -39698.268      198.22848      191.75012      268.55448    
     21600  -39902.433      217.94048     -39684.492      198.22314      191.71514      268.67572    
     21700  -39889.137      218.07303     -39671.064      198.22278      191.68613      268.79697    
     21800  -39879.178      219.06924     -39660.109      198.22367      191.65823      268.91821    
     21900  -39866.811      213.55871     -39653.252      198.21892      191.6253       269.03945    
     22000  -39859.897      215.58526     -39644.312      198.21744      191.59761      269.1607     
     22100  -39846.203      216.1627      -39630.04       198.21565      191.57135      269.28194    
     22200  -39835.541      220.31809     -39615.223      198.21076      191.54304      269.40318    
     22300  -39821.256      217.58422     -39603.672      198.20948      191.51905      269.52443    
     22400  -39809.507      216.64731     -39592.859      198.20429      191.4932       269.64567    
     22500  -39798.741      216.95408     -39581.787      198.19673      191.46809      269.76692    
     22600  -39786.853      215.5803      -39571.272      198.19479      191.44854      269.88816    
     22700  -39774.731      215.99919     -39558.732      198.18593      191.42536      270.0094     
     22800  -39761.565      218.74484     -39542.82       198.17676      191.40431      270.13065    
     22900  -39747.114      219.46856     -39527.645      198.17078      191.38828      270.25189    
     23000  -39735.881      220.03855     -39515.842      198.159        191.36877      270.37313    
     23100  -39726.061      215.45475     -39510.607      198.14896      191.35257      270.49438    
     23200  -39712.53       212.11828     -39500.412      198.13907      191.33921      270.61562    
     23300  -39700.528      215.53053     -39484.998      198.12331      191.32321      270.73686    
     23400  -39687.82       217.84818     -39469.971      198.11155      191.31195      270.85811    
     23500  -39671.657      214.91022     -39456.747      198.09878      191.30034      270.97935    
     23600  -39663.141      217.92764     -39445.213      198.08081      191.28752      271.10059    
     23700  -39653.438      213.81347     -39439.624      198.06702      191.27994      271.22184    
     23800  -39640.741      212.45142     -39428.289      198.04962      191.27005      271.34308    
     23900  -39623.355      212.39525     -39410.959      198.03136      191.25995      271.46433    
     24000  -39613.252      217.45801     -39395.794      198.01725      191.25522      271.58557    
     24100  -39598.678      215.93821     -39382.74       197.99696      191.24571      271.70681    
     24200  -39591.033      219.6114      -39371.421      197.97723      191.2365       271.82806    
     24300  -39578.619      214.04778     -39364.571      197.96298      191.2322       271.9493     
     24400  -39569.802      216.50331     -39353.299      197.9428       191.22204      272.07054    
     24500  -39551.057      215.02933     -39336.028      197.92508      191.21486      272.19179    
     24600  -39538.416      217.0331      -39321.383      197.9111       191.21001      272.31303    
     24700  -39525.679      217.478       -39308.201      197.89127      191.19763      272.43427    
     24800  -39513.521      217.79369     -39295.727      197.87613      191.1891       272.55552    
     24900  -39499.248      216.0808      -39283.167      197.86267      191.18188      272.67676    
     25000  -39486.668      217.21665     -39269.452      197.8454       191.16854      272.798      
     25100  -39473.635      218.74008     -39254.895      197.83288      191.15832      272.91925    
     25200  -39459.65       218.53463     -39241.115      197.82124      191.14756      273.04049    
     25300  -39446.237      217.04381     -39229.193      197.8065       191.13239      273.16174    
     25400  -39436.683      215.39601     -39221.287      197.79849      191.12153      273.28298    
     25500  -39425.632      214.88086     -39210.751      197.78854      191.10682      273.40422    
     25600  -39410.714      215.47621     -39195.238      197.77693      191.08811      273.52547    
     25700  -39398.113      221.25698     -39176.856      197.77119      191.07427      273.64671    
     25800  -39380.298      216.2047      -39164.093      197.76413      191.05675      273.76795    
     25900  -39369.882      217.04387     -39152.838      197.75542      191.03489      273.8892     
     26000  -39359.976      217.46867     -39142.507      197.75199      191.01736      274.01044    
     26100  -39349.909      217.40903     -39132.5        197.74761      190.9975       274.13168    
     26200  -39333.361      213.14861     -39120.212      197.74154      190.97407      274.25293    
     26300  -39320.317      218.92157     -39101.395      197.74103      190.9546       274.37417    
     26400  -39303.053      217.69833     -39085.354      197.73834      190.93207      274.49541    
     26500  -39287.841      215.38716     -39072.454      197.73343      190.90686      274.61666    
     26600  -39280.233      217.13918     -39063.094      197.73466      190.88627      274.7379     
     26700  -39267.501      212.87812     -39054.623      197.73349      190.86242      274.85914    
     26800  -39253.898      213.84051     -39040.058      197.72844      190.83481      274.98039    
     26900  -39240.853      216.86601     -39023.987      197.72903      190.81354      275.10163    
     27000  -39223.422      215.19221     -39008.23       197.72798      190.78978      275.22288    
     27100  -39210.542      218.69781     -38991.845      197.72425      190.76346      275.34412    
     27200  -39195.611      217.73985     -38977.871      197.72522      190.74289      275.46536    
     27300  -39187.009      218.42083     -38968.589      197.72242      190.71902      275.58661    
     27400  -39174.711      214.65244     -38960.058      197.71629      190.69278      275.70785    
     27500  -39159.671      214.89171     -38944.78       197.71593      190.67332      275.82909    
     27600  -39140.316      213.01724     -38927.299      197.71054      190.65074      275.95034    
     27700  -39128.757      216.85889     -38911.898      197.70077      190.62627      276.07158    
     27800  -39115.478      217.411       -38898.067      197.69834      190.6086       276.19282    
     27900  -39103.648      219.2858      -38884.363      197.68938      190.58781      276.31407    
     28000  -39087.033      217.32352     -38869.71       197.6776       190.56672      276.43531    
     28100  -39073.066      217.86135     -38855.205      197.67283      190.55294      276.55655    
     28200  -39062.184      218.75992     -38843.424      197.66039      190.53407      276.6778     
     28300  -39050.2        216.43261     -38833.768      197.64528      190.51493      276.79904    
     28400  -39039.454      217.71402     -38821.74       197.63651      190.50365      276.92029    
     28500  -39024.642      221.10502     -38803.537      197.62088      190.48781      277.04153    
     28600  -39003.656      218.30656     -38785.349      197.60361      190.47218      277.16277    
     28700  -38990.964      218.40506     -38772.559      197.5903       190.46243      277.28402    
     28800  -38980.775      219.42511     -38761.35       197.57114      190.44948      277.40526    
     28900  -38968.645      216.68887     -38751.956      197.55278      190.43741      277.5265     
     29000  -38952.409      212.82918     -38739.579      197.53648      190.42945      277.64775    
     29100  -38935.186      216.54834     -38718.637      197.51516      190.41774      277.76899    
     29200  -38920.793      218.75486     -38702.038      197.49461      190.40747      277.89023    
     29300  -38907.434      218.33113     -38689.103      197.47649      190.39969      278.01148    
     29400  -38894.23       214.87746     -38679.352      197.45425      190.38943      278.13272    
     29500  -38880.703      212.69322     -38668.01       197.4312       190.37922      278.25396    
     29600  -38867.635      216.89668     -38650.739      197.41061      190.37046      278.37521    
     29700  -38852.719      221.04814     -38631.671      197.38846      190.36021      278.49645    
     29800  -38837.819      219.34547     -38618.473      197.36635      190.35041      278.6177     
     29900  -38821.843      215.62015     -38606.223      197.34571      190.34111      278.73894    
     30000  -38808.113      213.66209     -38594.451      197.32402      190.32965      278.86018    
     30100  -38799.447      217.79893     -38581.648      197.30239      190.31773      278.98143    
     30200  -38781.456      216.50718     -38564.949      197.28213      190.30658      279.10267    
     30300  -38764.909      218.90852     -38546.001      197.26204      190.29368      279.22391    
     30400  -38750.006      218.22676     -38531.78       197.24209      190.27867      279.34516    
     30500  -38737.663      216.93577     -38520.727      197.22329      190.26376      279.4664     
     30600  -38722.908      210.53942     -38512.369      197.20624      190.24928      279.58764    
     30700  -38712.952      215.07622     -38497.876      197.18854      190.23151      279.70889    
     30800  -38693.577      212.75074     -38480.826      197.17254      190.21348      279.83013    
     30900  -38679.329      215.6473      -38463.682      197.15897      190.19598      279.95137    
     31000  -38664.423      217.97098     -38446.452      197.14331      190.17504      280.07262    
     31100  -38647.598      216.65584     -38430.943      197.12981      190.15384      280.19386    
     31200  -38632.317      214.60537     -38417.712      197.1189       190.13216      280.3151     
     31300  -38624.092      215.5091      -38408.583      197.10599      190.10774      280.43635    
     31400  -38609.702      214.12093     -38395.581      197.09405      190.08373      280.55759    
     31500  -38592.026      215.59779     -38376.428      197.0849       190.05987      280.67884    
     31600  -38578.661      219.77617     -38358.885      197.07502      190.03243      280.80008    
     31700  -38561.094      216.49907     -38344.595      197.06639      190.00573      280.92132    
     31800  -38550.539      219.60217     -38330.937      197.05747      189.97837      281.04257    
     31900  -38533.559      214.47916     -38319.08       197.04822      189.94865      281.16381    
     32000  -38520.379      212.38103     -38307.998      197.04116      189.91986      281.28505    
     32100  -38505.94       213.49496     -38292.445      197.03427      189.89121      281.4063     
     32200  -38490.906      219.06493     -38271.841      197.02487      189.85969      281.52754    
     32300  -38473.559      217.60821     -38255.951      197.01774      189.83019      281.64878    
     32400  -38461.072      219.14905     -38241.923      197.00977      189.79936      281.77003    
     32500  -38442.775      213.61532     -38229.16       197.00053      189.76811      281.89127    
     32600  -38433.798      214.72338     -38219.075      196.9931       189.73969      282.01251    
     32700  -38422.715      218.32638     -38204.389      196.98312      189.70857      282.13376    
     32800  -38400.178      216.91209     -38183.266      196.9728       189.67797      282.255      
     32900  -38385.893      219.08757     -38166.806      196.96335      189.65003      282.37625    
     33000  -38372.817      220.81416     -38152.003      196.95086      189.61987      282.49749    
     33100  -38355.57       216.96067     -38138.609      196.93915      189.59169      282.61873    
     33200  -38345.755      218.3658      -38127.389      196.92695      189.56437      282.73998    
     33300  -38329.459      214.77205     -38114.687      196.91103      189.53615      282.86122    
     33400  -38312.012      217.80616     -38094.206      196.89526      189.50992      282.98246    
     33500  -38294.813      218.67385     -38076.139      196.88206      189.48619      283.10371    
     33600  -38278.484      217.70794     -38060.776      196.86163      189.45913      283.22495    
     33700  -38267.395      220.17723     -38047.218      196.84233      189.43549      283.34619    
     33800  -38253.511      216.85614     -38036.655      196.82467      189.41412      283.46744    
     33900  -38236.016      211.5344      -38024.481      196.80003      189.38884      283.58868    
     34000  -38218.845      214.24492     -38004.6        196.77745      189.36763      283.70992    
     34100  -38202.664      217.06371     -37985.6        196.75705      189.35038      283.83117    
     34200  -38190.232      219.84813     -37970.384      196.72892      189.32691      283.95241    
     34300  -38175.601      218.16325     -37957.437      196.70272      189.3068       284.07366    
     34400  -38159.391      213.51848     -37945.873      196.67999      189.29148      284.1949     
     34500  -38145.719      215.05538     -37930.664      196.64888      189.27007      284.31614    
     34600  -38130.716      221.62067     -37909.095      196.62046      189.25161      284.43739    
     34700  -38110.951      218.75445     -37892.197      196.59503      189.23729      284.55863    
     34800  -38097.112      218.1792      -37878.932      196.56216      189.2167       284.67987    
     34900  -38083.817      215.46412     -37868.353      196.53252      189.19965      284.80112    
     35000  -38068.852      213.379       -37855.473      196.50565      189.18533      284.92236    
     35100  -38052.889      214.99369     -37837.896      196.47196      189.16445      285.0436     
     35200  -38035.526      214.41945     -37821.106      196.44095      189.14645      285.16485    
     35300  -38020.578      216.7895      -37803.788      196.41365      189.13154      285.28609    
     35400  -38003.745      218.00945     -37785.736      196.381        189.11109      285.40733    
     35500  -37989.006      219.7009      -37769.305      196.34951      189.09004      285.52858    
     35600  -37975.221      218.45638     -37756.764      196.32132      189.07234      285.64982    
     35700  -37960.367      213.62845     -37746.739      196.29055      189.05053      285.77107    
     35800  -37947.152      216.10104     -37731.051      196.26111      189.02776      285.89231    
     35900  -37925.64       214.22412     -37711.415      196.23474      189.00785      286.01355    
     36000  -37908.151      214.21141     -37693.939      196.20527      188.98288      286.1348     
     36100  -37897.587      219.29576     -37678.291      196.17665      188.95588      286.25604    
     36200  -37881.202      217.60738     -37663.595      196.15388      188.93326      286.37728    
     36300  -37864.573      214.13216     -37650.441      196.12806      188.90585      286.49853    
     36400  -37853.605      215.3126      -37638.293      196.10085      188.87458      286.61977    
     36500  -37835.634      212.06047     -37623.574      196.07983      188.84812      286.74101    
     36600  -37816.365      214.32919     -37602.036      196.05702      188.81717      286.86226    
     36700  -37802.033      217.84962     -37584.184      196.0332       188.78391      286.9835     
     36800  -37786.45       217.38522     -37569.065      196.01511      188.75451      287.10474    
     36900  -37772.693      216.59762     -37556.095      195.99449      188.71958      287.22599    
     37000  -37757.545      213.1145      -37544.431      195.97319      188.68224      287.34723    
     37100  -37742.574      213.07386     -37529.5        195.95697      188.64954      287.46847    
     37200  -37723.476      216.33115     -37507.145      195.93823      188.61256      287.58972    
     37300  -37708.652      219.22096     -37489.431      195.91895      188.5727       287.71096    
     37400  -37689.846      215.76337     -37474.083      195.90331      188.53684      287.83221    
     37500  -37680.222      219.91102     -37460.311      195.88515      188.498        287.95345    
     37600  -37667.2        218.58189     -37448.618      195.86636      188.45681      288.07469    
     37700  -37651.182      215.98914     -37435.192      195.85244      188.41982      288.19594    
     37800  -37628.992      214.27329     -37414.718      195.83468      188.37991      288.31718    
     37900  -37612.898      218.1489      -37394.75       195.81397      188.33744      288.43842    
     38000  -37599.473      220.4784      -37378.994      195.79904      188.29947      288.55967    
     38100  -37582.33       217.93432     -37364.395      195.78152      188.25962      288.68091    
     38200  -37568.433      215.97084     -37352.462      195.76034      188.21754      288.80215    
     38300  -37553.027      213.09409     -37339.933      195.74263      188.17836      288.9234     
     38400  -37537.898      217.11961     -37320.779      195.72481      188.14033      289.04464    
     38500  -37519.335      219.65656     -37299.679      195.70117      188.09903      289.16588    
     38600  -37501.3        217.19618     -37284.104      195.68164      188.062        289.28713    
     38700  -37487.244      216.26317     -37270.98       195.66253      188.02638      289.40837    
     38800  -37474.389      216.81287     -37257.576      195.63563      187.98565      289.52962    
     38900  -37456.868      214.63045     -37242.238      195.61241      187.94999      289.65086    
     39000  -37437.876      216.75407     -37221.122      195.59046      187.91645      289.7721     
     39100  -37421.698      219.93314     -37201.765      195.56165      187.87917      289.89335    
     39200  -37404.582      218.21297     -37186.369      195.53388      187.8448       290.01459    
     39300  -37389.406      215.06883     -37174.337      195.50836      187.81376      290.13583    
     39400  -37375.149      212.60022     -37162.549      195.47723      187.7803       290.25708    
     39500  -37362.173      216.38632     -37145.787      195.4459       187.74821      290.37832    
     39600  -37339.526      217.46263     -37122.064      195.41694      187.71972      290.49956    
     39700  -37323.066      216.9771      -37106.089      195.38393      187.68917      290.62081    
     39800  -37309.875      216.27104     -37093.604      195.34911      187.65872      290.74205    
     39900  -37295.385      214.82057     -37080.565      195.31485      187.63084      290.86329    
     40000  -37277.302      214.10122     -37063.201      195.27952      187.60239      290.98454    
     40100  -37258.484      217.68139     -37040.802      195.2434       187.57468      291.10578    
     40200  -37245.698      221.14004     -37024.558      195.20714      187.54859      291.22703    
     40300  -37231.005      219.2659      -37011.739      195.16881      187.52069      291.34827    
     40400  -37219.194      220.73057     -36998.464      195.13156      187.49499      291.46951    
     40500  -37195.213      212.31023     -36982.903      195.09445      187.46988      291.59076    
     40600  -37181.614      215.98692     -36965.627      195.05558      187.44335      291.712      
     40700  -37163.789      218.02816     -36945.761      195.0173       187.41704      291.83324    
     40800  -37143.113      220.58998     -36922.523      194.98012      187.39163      291.95449    
     40900  -37130.033      220.96035     -36909.073      194.93995      187.36299      292.07573    
     41000  -37115.93       218.07821     -36897.852      194.9021       187.33613      292.19697    
     41100  -37098.082      213.91974     -36884.162      194.86686      187.31071      292.31822    
     41200  -37082.279      213.90805     -36868.371      194.82737      187.28079      292.43946    
     41300  -37069.287      219.92004     -36849.367      194.78979      187.25211      292.5607     
     41400  -37045.635      217.40911     -36828.226      194.75681      187.22641      292.68195    
     41500  -37031.277      218.38594     -36812.891      194.71996      187.19475      292.80319    
     41600  -37020.792      218.34931     -36802.443      194.68374      187.1635       292.92443    
     41700  -37002.833      216.01094     -36786.822      194.65142      187.13401      293.04568    
     41800  -36985.746      216.86559     -36768.88       194.61687      187.09963      293.16692    
     41900  -36969.267      219.24421     -36750.023      194.58443      187.06664      293.28817    
     42000  -36950.893      218.07007     -36732.823      194.55376      187.03438      293.40941    
     42100  -36936.2        216.59692     -36719.603      194.52091      186.99675      293.53065    
     42200  -36923.175      214.96363     -36708.211      194.49217      186.96247      293.6519     
     42300  -36905.126      213.85446     -36691.271      194.46458      186.92761      293.77314    
     42400  -36890.714      220.04642     -36670.668      194.43564      186.88892      293.89438    
     42500  -36869.563      217.78436     -36651.779      194.40928      186.8514       294.01563    
     42600  -36854.323      218.09181     -36636.231      194.38386      186.81315      294.13687    
     42700  -36838.332      216.79513     -36621.537      194.35675      186.77195      294.25811    
     42800  -36821.842      214.90387     -36606.938      194.33304      186.73288      294.37936    
     42900  -36806.32       213.4856      -36592.834      194.31021      186.6932       294.5006     
     43000  -36792.239      214.82327     -36577.415      194.28493      186.65001      294.62184    
     43100  -36773.147      216.62713     -36556.52       194.26267      186.60915      294.74309    
     43200  -36757.523      221.12329     -36536.4        194.24154      186.56838      294.86433    
     43300  -36740.113      219.45083     -36520.663      194.2185       186.52537      294.98558    
     43400  -36724.631      216.0587      -36508.572      194.19719      186.48351      295.10682    
     43500  -36706.375      211.7766      -36494.599      194.17544      186.44121      295.22806    
     43600  -36694.384      217.48474     -36476.899      194.15249      186.39789      295.34931    
     43700  -36670.852      212.66182     -36458.19       194.13169      186.35597      295.47055    
     43800  -36656.942      218.07062     -36438.871      194.1091       186.31321      295.59179    
     43900  -36639.268      218.25486     -36421.013      194.08651      186.27155      295.71304    
     44000  -36624.006      217.78541     -36406.221      194.0657       186.23144      295.83428    
     44100  -36608.573      212.85593     -36395.717      194.04284      186.1905       295.95552    
     44200  -36596.385      217.39714     -36378.988      194.01701      186.14862      296.07677    
     44300  -36575.322      217.18138     -36358.141      193.9958       186.11134      296.19801    
     44400  -36555.59       216.49987     -36339.09       193.97349      186.07314      296.31925    
     44500  -36543.048      220.00273     -36323.046      193.94513      186.03224      296.4405     
     44600  -36521.786      214.2286      -36307.558      193.92145      185.99636      296.56174    
     44700  -36507.349      215.54644     -36291.803      193.89866      185.96221      296.68299    
     44800  -36491.878      216.77102     -36275.107      193.86722      185.92289      296.80423    
     44900  -36473.945      215.71162     -36258.233      193.84094      185.89022      296.92547    
     45000  -36459.936      217.8541      -36242.082      193.81724      185.86082      297.04672    
     45100  -36442.049      216.28844     -36225.76       193.78424      185.82488      297.16796    
     45200  -36422.354      213.4058      -36208.948      193.75422      185.79389      297.2892     
     45300  -36405.705      215.04524     -36190.66       193.72802      185.76769      297.41045    
     45400  -36392.855      221.04096     -36171.814      193.69307      185.73501      297.53169    
     45500  -36374.534      218.24086     -36156.293      193.65968      185.70574      297.65293    
     45600  -36357.68       213.69838     -36143.981      193.63104      185.68244      297.77418    
     45700  -36348.304      219.26938     -36129.034      193.59445      185.65307      297.89542    
     45800  -36327.16       217.19997     -36109.96       193.56058      185.62701      298.01666    
     45900  -36310.779      224.27614     -36086.502      193.52964      185.60482      298.13791    
     46000  -36292.001      220.95304     -36071.048      193.49323      185.57929      298.25915    
     46100  -36274.306      215.63879     -36058.667      193.45737      185.55448      298.3804     
     46200  -36259.241      215.42122     -36043.82       193.4252       185.53366      298.50164    
     46300  -36244.039      217.43608     -36026.603      193.38962      185.51011      298.62288    
     46400  -36222.572      214.73655     -36007.835      193.35264      185.48656      298.74413    
     46500  -36206.622      222.08416     -35984.538      193.31883      185.46513      298.86537    
     46600  -36187.884      220.90084     -35966.983      193.28376      185.44245      298.98661    
     46700  -36173.704      219.10178     -35954.602      193.24886      185.42067      299.10786    
     46800  -36158.064      217.79122     -35940.272      193.21526      185.40005      299.2291     
     46900  -36141.363      215.34891     -35926.014      193.18136      185.3776       299.35034    
     47000  -36130.211      219.6539      -35910.557      193.14752      185.35463      299.47159    
     47100  -36109.062      217.01402     -35892.048      193.11502      185.3332       299.59283    
     47200  -36088.419      218.54253     -35869.876      193.08314      185.31001      299.71407    
     47300  -36072.915      220.78706     -35852.128      193.05127      185.28591      299.83532    
     47400  -36056.089      215.8996      -35840.189      193.02093      185.2627       299.95656    
     47500  -36041.394      215.97557     -35825.419      192.99133      185.23822      300.0778     
     47600  -36022.908      215.19569     -35807.712      192.96187      185.21214      300.19905    
     47700  -36005.52       215.99823     -35789.521      192.93508      185.18838      300.32029    
     47800  -35986.966      217.55782     -35769.408      192.90756      185.16284      300.44154    
     47900  -35971.155      221.98135     -35749.174      192.88117      185.13513      300.56278    
     48000  -35956.16       218.34425     -35737.815      192.85749      185.1096       300.68402    
     48100  -35938.411      214.4517      -35723.959      192.83324      185.08205      300.80527    
     48200  -35925.338      218.33262     -35707.005      192.80953      185.0531       300.92651    
     48300  -35910.989      221.39946     -35689.589      192.7887       185.02506      301.04775    
     48400  -35886.874      216.69669     -35670.178      192.76761      184.99589      301.169      
     48500  -35869.75       219.89411     -35649.856      192.74704      184.96486      301.29024    
     48600  -35854.997      220.17532     -35634.822      192.7286       184.93456      301.41148    
     48700  -35840.187      216.79006     -35623.397      192.71075      184.90415      301.53273    
     48800  -35824.879      218.01277     -35606.866      192.69371      184.87331      301.65397    
     48900  -35805.661      217.18583     -35588.475      192.67795      184.84255      301.77521    
     49000  -35784.657      217.76552     -35566.891      192.66059      184.80935      301.89646    
     49100  -35766.782      220.62004     -35546.162      192.64517      184.7774       302.0177     
     49200  -35753.514      219.56563     -35533.948      192.63125      184.74605      302.13895    
     49300  -35738.149      217.43863     -35520.71       192.61543      184.71322      302.26019    
     49400  -35718.703      214.88262     -35503.82       192.60108      184.68138      302.38143    
     49500  -35704.36       218.96735     -35485.393      192.58752      184.64967      302.50268    
     49600  -35685.157      218.78903     -35466.368      192.57131      184.6157       302.62392    
     49700  -35669.347      219.90252     -35449.445      192.55868      184.58649      302.74516    
     49800  -35651.6        213.5233      -35438.077      192.54623      184.55682      302.86641    
     49900  -35636.301      214.45107     -35421.85       192.52849      184.52228      302.98765    
     50000  -35617.487      215.74879     -35401.739      192.51452      184.49361      303.10889    
     50100  -35598.441      217.65953     -35380.781      192.50257      184.46592      303.23014    
     50200  -35580.025      217.55261     -35362.472      192.48444      184.4338       303.35138    
     50300  -35569.402      216.62806     -35352.774      192.46862      184.40558      303.47262    
     50400  -35549.874      213.11596     -35336.758      192.45567      184.38141      303.59387    
     50500  -35532.394      214.81771     -35317.577      192.43744      184.35287      303.71511    
     50600  -35514.426      218.58044     -35295.845      192.41805      184.3249       303.83636    
     50700  -35498.225      221.11849     -35277.106      192.40357      184.30292      303.9576     
     50800  -35481.095      216.52803     -35264.567      192.38576      184.27859      304.07884    
     50900  -35466.166      215.68152     -35250.484      192.36421      184.25266      304.20009    
     51000  -35447.896      216.33081     -35231.565      192.34678      184.23205      304.32133    
     51100  -35432.977      221.10184     -35211.875      192.32746      184.21168      304.44257    
     51200  -35412.766      219.43737     -35193.329      192.30344      184.18767      304.56382    
     51300  -35396.489      220.08246     -35176.406      192.28341      184.16896      304.68506    
     51400  -35381.113      217.07677     -35164.037      192.26334      184.15206      304.8063     
     51500  -35362.536      213.98919     -35148.547      192.23865      184.13164      304.92755    
     51600  -35343.083      213.73245     -35129.35       192.21586      184.11425      305.04879    
     51700  -35324.752      217.88499     -35106.867      192.19358      184.09957      305.17003    
     51800  -35308.07       221.53755     -35086.532      192.16765      184.08219      305.29128    
     51900  -35292.668      218.17586     -35074.492      192.1437       184.06682      305.41252    
     52000  -35275.225      215.50067     -35059.724      192.12021      184.05378      305.53376    
     52100  -35260.256      218.04224     -35042.214      192.09284      184.03808      305.65501    
     52200  -35243.802      219.20541     -35024.596      192.06791      184.02447      305.77625    
     52300  -35227.355      217.7977      -35009.558      192.04487      184.01328      305.8975     
     52400  -35207.215      212.28195     -34994.933      192.01704      183.9986       306.01874    
     52500  -35191.549      215.24298     -34976.306      191.99054      183.98489      306.13998    
     52600  -35172.782      221.12045     -34951.661      191.9677       183.97493      306.26123    
     52700  -35155.498      221.86928     -34933.629      191.94105      183.96138      306.38247    
     52800  -35138.994      218.78835     -34920.205      191.91565      183.94891      306.50371    
     52900  -35121.468      216.91468     -34904.553      191.89082      183.93631      306.62496    
     53000  -35102.16       214.79183     -34887.368      191.86576      183.92339      306.7462     
     53100  -35086.451      216.82998     -34869.621      191.8417       183.91135      306.86744    
     53200  -35069.172      216.02174     -34853.15       191.81704      183.89822      306.98869    
     53300  -35055.409      216.55305     -34838.856      191.79351      183.88495      307.10993    
     53400  -35037.039      214.6497      -34822.389      191.76994      183.87039      307.23117    
     53500  -35020.65       218.13546     -34802.515      191.74709      183.8566       307.35242    
     53600  -34996.775      218.06579     -34778.709      191.72546      183.84204      307.47366    
     53700  -34979.886      219.47451     -34760.411      191.70437      183.82685      307.59491    
     53800  -34964.591      218.60042     -34745.99       191.68475      183.81221      307.71615    
     53900  -34948.787      218.80837     -34729.979      191.66403      183.79565      307.83739    
     54000  -34935.223      221.50712     -34713.716      191.64539      183.77859      307.95864    
     54100  -34913.873      216.02401     -34697.849      191.62827      183.76189      308.07988    
     54200  -34897.598      215.07894     -34682.519      191.60996      183.74328      308.20112    
     54300  -34882.452      213.2707      -34669.181      191.59343      183.7255       308.32237    
     54400  -34866.472      213.06767     -34653.404      191.57881      183.70699      308.44361    
     54500  -34848.315      219.2046      -34629.11       191.56277      183.68667      308.56485    
     54600  -34827.847      219.93149     -34607.915      191.54814      183.66692      308.6861     
     54700  -34808.079      218.90646     -34589.173      191.53584      183.64703      308.80734    
     54800  -34789.751      215.49747     -34574.253      191.52348      183.62627      308.92858    
     54900  -34774.211      214.24952     -34559.961      191.51026      183.60447      309.04983    
     55000  -34759.531      217.33574     -34542.195      191.49887      183.58231      309.17107    
     55100  -34740.8        217.58087     -34523.219      191.48796      183.55994      309.29232    
     55200  -34721.552      217.22861     -34504.323      191.47649      183.53642      309.41356    
     55300  -34703.751      212.96704     -34490.784      191.46615      183.51363      309.5348     
     55400  -34687.632      211.19477     -34476.437      191.45692      183.49048      309.65605    
     55500  -34670.801      215.85919     -34454.942      191.44676      183.46542      309.77729    
     55600  -34655.427      222.96485     -34432.462      191.43755      183.44238      309.89853    
     55700  -34631.026      217.58136     -34413.445      191.42916      183.41915      310.01978    
     55800  -34616.556      216.95738     -34399.598      191.42025      183.39537      310.14102    
     55900  -34600.083      216.19033     -34383.893      191.41187      183.37189      310.26226    
     56000  -34582.131      216.45782     -34365.673      191.40318      183.34843      310.38351    
     56100  -34563.616      215.64211     -34347.974      191.39288      183.32313      310.50475    
     56200  -34548.804      215.87549     -34332.928      191.38397      183.30035      310.62599    
     56300  -34534.244      216.03885     -34318.206      191.37596      183.27857      310.74724    
     56400  -34512.975      214.66906     -34298.306      191.36484      183.25403      310.86848    
     56500  -34492.11       219.92889     -34272.181      191.35397      183.23082      310.98972    
     56600  -34475.149      221.07238     -34254.077      191.34524      183.21108      311.11097    
     56700  -34456.666      216.41464     -34240.252      191.33384      183.18837      311.23221    
     56800  -34439.87       214.81117     -34225.059      191.32149      183.16674      311.35346    
     56900  -34425.145      217.20971     -34207.936      191.31171      183.14914      311.4747     
     57000  -34410.789      219.46611     -34191.323      191.29837      183.1288       311.59594    
     57100  -34388.275      211.59091     -34176.684      191.28271      183.10801      311.71719    
     57200  -34377.356      215.93657     -34161.42       191.26964      183.09146      311.83843    
     57300  -34354.055      217.12619     -34136.929      191.25622      183.0741       311.95967    
     57400  -34331.058      216.90944     -34114.149      191.23908      183.05552      312.08092    
     57500  -34316.955      220.27971     -34096.676      191.22285      183.03917      312.20216    
     57600  -34301.016      218.52997     -34082.486      191.20769      183.02521      312.3234     
     57700  -34282.869      217.06326     -34065.806      191.19026      183.00949      312.44465    
     57800  -34263.478      215.7297      -34047.748      191.1728       182.99504      312.56589    
     57900  -34245.656      215.12952     -34030.527      191.15624      182.98292      312.68713    
     58000  -34231.552      214.08587     -34017.466      191.1359       182.96874      312.80838    
     58100  -34213.532      213.85847     -33999.673      191.11686      182.95574      312.92962    
     58200  -34191.877      214.65689     -33977.221      191.09772      182.94483      313.05087    
     58300  -34175.17       219.009       -33956.161      191.07569      182.93149      313.17211    
     58400  -34154.964      218.05936     -33936.905      191.05453      182.92051      313.29335    
     58500  -34137.046      217.33278     -33919.713      191.03509      182.91113      313.4146     
     58600  -34118.787      214.69984     -33904.087      191.01265      182.89978      313.53584    
     58700  -34106.299      220.78539     -33885.514      190.99064      182.88912      313.65708    
     58800  -34083.003      215.43378     -33867.569      190.96935      182.88097      313.77833    
     58900  -34067.73       216.45627     -33851.273      190.94617      182.86972      313.89957    
     59000  -34050.006      215.21198     -33834.794      190.92291      182.85909      314.02081    
     59100  -34033.488      216.14683     -33817.341      190.90182      182.85072      314.14206    
     59200  -34018.387      215.78175     -33802.606      190.87821      182.84059      314.2633     
     59300  -33997.372      214.05983     -33783.312      190.85488      182.829        314.38454    
     59400  -33976.875      218.74897     -33758.126      190.8349       182.8214       314.50579    
     59500  -33960.462      223.0245      -33737.437      190.81096      182.81007      314.62703    
     59600  -33941.662      220.97122     -33720.69       190.78811      182.79886      314.74828    
     59700  -33919.623      216.18703     -33703.436      190.76894      182.79064      314.86952    
     59800  -33902.797      216.78322     -33686.014      190.74608      182.77825      314.99076    
     59900  -33886.889      218.37207     -33668.517      190.72353      182.76567      315.11201    
     60000  -33866.957      216.10829     -33650.849      190.70498      182.75612      315.23325    
     60100  -33848.487      215.28109     -33633.205      190.68395      182.74263      315.35449    
     60200  -33834.154      214.41585     -33619.738      190.66323      182.72896      315.47574    
     60300  -33814.862      215.6612      -33599.201      190.64551      182.7176       315.59698    
     60400  -33794.406      218.74282     -33575.663      190.62626      182.70286      315.71822    
     60500  -33771.153      216.78741     -33554.365      190.60616      182.68649      315.83947    
     60600  -33757.191      218.05539     -33539.135      190.59102      182.67408      315.96071    
     60700  -33742.888      218.73926     -33524.148      190.57324      182.65867      316.08195    
     60800  -33719.07       215.43841     -33503.632      190.55483      182.63968      316.2032     
     60900  -33699.903      218.4224      -33481.48       190.54086      182.62504      316.32444    
     61000  -33682.082      220.82086     -33461.261      190.52585      182.60788      316.44569    
     61100  -33663.041      216.58875     -33446.452      190.50822      182.58677      316.56693    
     61200  -33644.578      216.19684     -33428.382      190.49674      182.57031      316.68817    
     61300  -33628.108      218.78599     -33409.322      190.48398      182.55226      316.80942    
     61400  -33608.336      217.20154     -33391.134      190.46723      182.52908      316.93066    
     61500  -33592.975      219.00932     -33373.966      190.45653      182.51047      317.0519     
     61600  -33572.772      213.42006     -33359.352      190.44577      182.49117      317.17315    
     61700  -33554.283      214.90089     -33339.382      190.43161      182.46836      317.29439    
     61800  -33530.704      214.77274     -33315.931      190.42147      182.44788      317.41563    
     61900  -33513.161      220.19675     -33292.964      190.41047      182.42619      317.53688    
     62000  -33491.438      218.01046     -33273.427      190.39722      182.40225      317.65812    
     62100  -33473.115      214.27022     -33258.845      190.38928      182.38236      317.77936    
     62200  -33455.03       215.60237     -33239.428      190.3784       182.35868      317.90061    
     62300  -33436.223      217.53818     -33218.685      190.36515      182.33321      318.02185    
     62400  -33415.291      216.95388     -33198.337      190.35751      182.31342      318.14309    
     62500  -33398.504      215.23964     -33183.264      190.34682      182.28965      318.26434    
     62600  -33379.312      215.20867     -33164.103      190.33338      182.26299      318.38558    
     62700  -33358.215      216.89954     -33141.316      190.32653      182.24418      318.50683    
     62800  -33341.319      222.54224     -33118.777      190.3141       182.21951      318.62807    
     62900  -33321.386      217.78418     -33103.602      190.30067      182.194        318.74931    
     63000  -33302.266      216.89858     -33085.367      190.29341      182.17478      318.87056    
     63100  -33281.159      216.47169     -33064.688      190.27927      182.15013      318.9918     
     63200  -33264.337      220.61237     -33043.725      190.26467      182.12605      319.11304    
     63300  -33241.732      217.3679      -33024.364      190.25737      182.10831      319.23429    
     63400  -33222.97       215.45212     -33007.518      190.24201      182.08457      319.35553    
     63500  -33205.206      218.4381      -32986.768      190.22658      182.06134      319.47677    
     63600  -33179.513      216.47142     -32963.042      190.21635      182.04447      319.59802    
     63700  -33156.842      219.1887      -32937.653      190.19822      182.02127      319.71926    
     63800  -33132.841      219.31651     -32913.524      190.18265      182.00066      319.8405     
     63900  -33116.821      218.78441     -32898.037      190.1711       181.98483      319.96175    
     64000  -33098.907      218.35106     -32880.556      190.1511       181.96292      320.08299    
     64100  -33079.434      216.99322     -32862.441      190.13406      181.94489      320.20424    
     64200  -33060.448      216.89366     -32843.554      190.11974      181.92932      320.32548    
     64300  -33038.502      215.42141     -32823.081      190.09665      181.90818      320.44672    
     64400  -33019.48       218.41031     -32801.07       190.07927      181.8927       320.56797    
     64500  -32999.643      215.70048     -32783.942      190.06286      181.87862      320.68921    
     64600  -32979.318      215.82935     -32763.488      190.03919      181.85879      320.81045    
     64700  -32957.781      218.18227     -32739.598      190.02046      181.84483      320.9317     
     64800  -32932.637      216.09645     -32716.54       190.00079      181.83118      321.05294    
     64900  -32913.388      214.17688     -32699.211      189.9768       181.81352      321.17418    
     65000  -32897.604      219.78826     -32677.816      189.95741      181.80035      321.29543    
     65100  -32872.713      217.74129     -32654.971      189.93475      181.78634      321.41667    
     65200  -32853.618      219.28667     -32634.332      189.91028      181.7711       321.53791    
     65300  -32831.26       216.1054      -32615.155      189.88908      181.75841      321.65916    
     65400  -32809.709      216.54232     -32593.167      189.86595      181.74523      321.7804     
     65500  -32791.438      221.80298     -32569.635      189.84088      181.73118      321.90165    
     65600  -32765.676      218.56842     -32547.108      189.81749      181.71814      322.02289    
     65700  -32746.481      218.89809     -32527.583      189.79452      181.70523      322.14413    
     65800  -32722.757      216.90487     -32505.852      189.76947      181.69126      322.26538    
     65900  -32700.462      218.34638     -32482.115      189.74439      181.67826      322.38662    
     66000  -32677.276      217.34396     -32459.932      189.72114      181.66565      322.50786    
     66100  -32655.336      215.76051     -32439.576      189.69743      181.65182      322.62911    
     66200  -32636.114      219.6649      -32416.449      189.67167      181.63688      322.75035    
     66300  -32610.178      216.03499     -32394.143      189.64897      181.62461      322.87159    
     66400  -32591.858      219.26142     -32372.596      189.62461      181.61035      322.99284    
     66500  -32566.744      216.60527     -32350.139      189.60057      181.59525      323.11408    
     66600  -32546.648      219.79117     -32326.856      189.57898      181.58244      323.23532    
     66700  -32523.28       218.87128     -32304.409      189.55437      181.56646      323.35657    
     66800  -32499.795      217.69322     -32282.102      189.53098      181.55086      323.47781    
     66900  -32478.036      219.59794     -32258.438      189.51036      181.53694      323.59905    
     67000  -32456.895      220.42919     -32236.465      189.48703      181.51911      323.7203     
     67100  -32435.251      221.87969     -32213.372      189.46492      181.50257      323.84154    
     67200  -32408.74       219.20356     -32189.537      189.4447       181.48769      323.96279    
     67300  -32387.053      220.12935     -32166.923      189.42164      181.46817      324.08403    
     67400  -32364.571      220.70509     -32143.866      189.40123      181.45025      324.20527    
     67500  -32338.445      218.19058     -32120.254      189.38277      181.4344       324.32652    
     67600  -32315.701      218.45533     -32097.245      189.36077      181.414        324.44776    
     67700  -32292.057      218.60461     -32073.453      189.34099      181.39469      324.569      
     67800  -32269.595      219.86769     -32049.727      189.32376      181.37676      324.69025    
     67900  -32246.478      219.06754     -32027.411      189.30427      181.35612      324.81149    
     68000  -32222.919      220.08895     -32002.831      189.28556      181.33529      324.93273    
     68100  -32196.701      217.62753     -31979.073      189.26946      181.31653      325.05398    
     68200  -32174.893      219.83796     -31955.055      189.2505       181.29351      325.17522    
     68300  -32147.669      216.55548     -31931.113      189.23344      181.27207      325.29646    
     68400  -32124.963      218.79456     -31906.169      189.21828      181.25199      325.41771    
     68500  -32100.107      218.64609     -31881.461      189.20003      181.22746      325.53895    
     68600  -32077.617      221.48213     -31856.135      189.18446      181.2064       325.6602     
     68700  -32051.792      218.67901     -31833.113      189.17024      181.1856       325.78144    
     68800  -32028.463      220.50144     -31807.962      189.15198      181.16019      325.90268    
     68900  -32003.259      218.88339     -31784.375      189.13717      181.1376       326.02393    
     69000  -31981.059      220.55195     -31760.507      189.12383      181.11669      326.14517    
     69100  -31956.287      221.44891     -31734.838      189.10525      181.09008      326.26641    
     69200  -31930.587      221.34014     -31709.247      189.09106      181.06796      326.38766    
     69300  -31906.271      222.7657      -31683.505      189.07822      181.04645      326.5089     
     69400  -31879.515      221.53222     -31657.983      189.05943      181.01907      326.63014    
     69500  -31854.507      221.67683     -31632.83       189.04578      180.9976       326.75139    
     69600  -31826.819      219.03284     -31607.787      189.03316      180.97635      326.87263    
     69700  -31801.715      219.72447     -31581.99       189.01459      180.94931      326.99387    
     69800  -31775.78       219.8279      -31555.952      189.00086      180.92737      327.11512    
     69900  -31753.754      222.2535      -31531.5        188.98713      180.90599      327.23636    
     70000  -31725.818      220.56568     -31505.253      188.96829      180.87969      327.35761    
     70100  -31702.908      222.79758     -31480.11       188.95508      180.85894      327.47885    
     70200  -31674.034      221.67766     -31452.356      188.94006      180.83728      327.60009    
     70300  -31646.462      220.24042     -31426.222      188.92018      180.81191      327.72134    
     70400  -31622.786      223.20969     -31399.577      188.90691      180.793        327.84258    
     70500  -31595.725      222.49115     -31373.234      188.89096      180.77114      327.96382    
     70600  -31565.789      219.68318     -31346.105      188.8712       180.74667      328.08507    
     70700  -31540.955      222.42291     -31318.532      188.8574       180.72844      328.20631    
     70800  -31515.192      223.05177     -31292.14       188.8393       180.70716      328.32755    
     70900  -31485.779      220.58955     -31265.189      188.81987      180.68525      328.4488     
     71000  -31462.959      223.78772     -31239.171      188.80514      180.66779      328.57004    
     71100  -31436.761      223.79182     -31212.969      188.78572      180.64703      328.69128    
     71200  -31408.857      223.70977     -31185.147      188.7659       180.6263       328.81253    
     71300  -31382.496      224.49434     -31158.002      188.74965      180.60976      328.93377    
     71400  -31354.291      223.55922     -31130.732      188.7294       180.59003      329.05502    
     71500  -31325.615      223.47959     -31102.136      188.70893      180.57048      329.17626    
     71600  -31298.613      224.81854     -31073.794      188.69211      180.55461      329.2975     
     71700  -31271.565      225.08208     -31046.483      188.67147      180.53585      329.41875    
     71800  -31242.188      222.91631     -31019.272      188.6508       180.51765      329.53999    
     71900  -31212.915      224.27435     -30988.641      188.63316      180.50244      329.66123    
     72000  -31182.241      223.06325     -30959.178      188.6114       180.4845       329.78248    
     72100  -31156.15       225.49452     -30930.655      188.59015      180.46764      329.90372    
     72200  -31130.229      227.71635     -30902.513      188.57155      180.45304      330.02496    
     72300  -31097.205      223.76205     -30873.443      188.54956      180.43589      330.14621    
     72400  -31070.295      225.10661     -30845.188      188.5285       180.41991      330.26745    
     72500  -31045.339      227.36499     -30817.974      188.50912      180.406        330.38869    
     72600  -31016.506      226.7297      -30789.777      188.48673      180.38956      330.50994    
     72700  -30987.217      228.83001     -30758.387      188.46571      180.3742       330.63118    
     72800  -30958.325      227.00403     -30731.321      188.44628      180.36041      330.75242    
     72900  -30927.796      226.34391     -30701.452      188.42457      180.345        330.87367    
     73000  -30899.588      226.95715     -30672.63       188.4025       180.32974      330.99491    
     73100  -30871.702      230.22049     -30641.482      188.38261      180.31589      331.11616    
     73200  -30835.03       225.15489     -30609.876      188.36135      180.30084      331.2374     
     73300  -30810.214      231.30244     -30578.911      188.33966      180.28591      331.35864    
     73400  -30783.096      233.22336     -30549.873      188.31958      180.2726       331.47989    
     73500  -30750.887      230.68479     -30520.202      188.29802      180.25735      331.60113    
     73600  -30722.854      232.06847     -30490.785      188.27709      180.24268      331.72237    
     73700  -30688.759      228.34468     -30460.415      188.25758      180.22952      331.84362    
     73800  -30659.842      229.48766     -30430.355      188.23614      180.21429      331.96486    
     73900  -30633.254      230.05579     -30403.199      188.2155       180.19968      332.0861     
     74000  -30604.547      230.38218     -30374.165      188.19645      180.18628      332.20735    
     74100  -30575.901      235.31362     -30340.587      188.17533      180.17044      332.32859    
     74200  -30540.133      231.62867     -30308.505      188.15531      180.15575      332.44983    
     74300  -30516.193      239.18387     -30277.009      188.13656      180.14197      332.57108    
     74400  -30481.18       236.29718     -30244.883      188.1163       180.12652      332.69232    
     74500  -30447.428      234.44949     -30212.978      188.09715      180.11154      332.81357    
     74600  -30417.783      234.55362     -30183.229      188.0789       180.09743      332.93481    
     74700  -30389.514      241.5269      -30147.988      188.05912      180.0816       333.05605    
     74800  -30351.683      236.47764     -30115.206      188.04072      180.06629      333.1773     
     74900  -30320.951      238.22443     -30082.726      188.02323      180.05181      333.29854    
     75000  -30288.72       239.07545     -30049.644      188.00383      180.03558      333.41978    
     75100  -30255.563      238.28429     -30017.279      187.98594      180.02024      333.54103    
     75200  -30221.683      237.26032     -29984.423      187.96895      180.00499      333.66227    
     75300  -30193.702      240.82442     -29952.878      187.95011      179.98803      333.78351    
     75400  -30159.752      239.02398     -29920.728      187.9331       179.97294      333.90476    
     75500  -30129.568      241.76442     -29887.804      187.91631      179.9574       334.026      
     75600  -30096.959      243.12866     -29853.83       187.89811      179.93999      334.14724    
     75700  -30066.585      248.60587     -29817.979      187.88177      179.92481      334.26849    
     75800  -30027.555      243.34675     -29784.208      187.86528      179.90912      334.38973    
     75900  -30000.06       249.46625     -29750.594      187.84749      179.8913       334.51098    
     76000  -29966.301      254.82588     -29711.475      187.83151      179.87547      334.63222    
     76100  -29927.828      251.37842     -29676.449      187.81515      179.85962      334.75346    
     76200  -29891.396      253.53191     -29637.864      187.79797      179.84206      334.87471    
     76300  -29860.049      250.23745     -29609.812      187.78237      179.82568      334.99595    
     76400  -29832.845      256.6647      -29576.18       187.76671      179.80988      335.11719    
     76500  -29793.409      254.25798     -29539.151      187.74917      179.79212      335.23844    
     76600  -29759.511      256.18007     -29503.33       187.73355      179.77522      335.35968    
     76700  -29727.658      259.91488     -29467.743      187.7182       179.75908      335.48092    
     76800  -29691.104      255.49135     -29435.612      187.70107      179.74141      335.60217    
     76900  -29658.685      258.43523     -29400.25       187.68564      179.72481      335.72341    
     77000  -29623.193      260.03526     -29363.158      187.67022      179.70805      335.84465    
     77100  -29587.618      257.90519     -29329.713      187.65351      179.69032      335.9659     
     77200  -29549.171      259.349       -29289.822      187.63773      179.6734       336.08714    
     77300  -29512.046      258.30579     -29253.74       187.62249      179.6567       336.20838    
     77400  -29485.599      268.23718     -29217.362      187.60605      179.63892      336.32963    
     77500  -29446.116      266.61516     -29179.501      187.58968      179.62151      336.45087    
     77600  -29407.937      265.82659     -29142.111      187.57448      179.60466      336.57212    
     77700  -29446.242      333.84177     -29112.401      187.55883      179.58716      336.69336    
     77800  -29783.913      598.3038      -29185.609      187.5454       179.56936      336.8146     
     77900  -30622.417      1041.3765     -29581.04       187.54257      179.56382      336.93585    
     78000  -31915.407      1421.6256     -30493.781      187.56127      179.58387      337.05709    
     78100  -33287.684      1387.9651     -31899.719      187.61195      179.63651      337.17833    
     78200  -34380.943      1151.2231     -33229.72       187.68906      179.7104       337.29958    
     78300  -35291.114      975.9058      -34315.208      187.7509       179.76045      337.42082    
     78400  -36023.778      825.74519     -35198.033      187.8221       179.81767      337.54206    
     78500  -36630.774      716.77338     -35914          187.90201      179.88554      337.66331    
     78600  -37156.961      640.1502      -36516.811      187.96874      179.94302      337.78455    
     78700  -37628.694      587.66808     -37041.026      188.02975      179.99545      337.90579    
     78800  -38057.721      547.1055      -37510.616      188.08993      180.04785      338.02704    
     78900  -38452.04       514.86176     -37937.178      188.14902      180.10129      338.14828    
     79000  -38817.391      488.09569     -38329.295      188.20739      180.155        338.26953    
     79100  -39161.358      467.23407     -38694.124      188.26186      180.20562      338.39077    
     79200  -39487.956      450.5536      -39037.403      188.31573      180.25605      338.51201    
     79300  -39799.652      436.29295     -39363.359      188.36885      180.30651      338.63326    
     79400  -40099.415      424.42132     -39674.993      188.41807      180.35378      338.7545     
     79500  -40357.504      393.33712     -39964.167      188.46695      180.40094      338.87574    
     79600  -40572.55       358.43711     -40214.113      188.51838      180.45067      338.99699    
     79700  -40750.924      325.85361     -40425.07       188.5689       180.4997       339.11823    
     79800  -40895.15       295.06266     -40600.088      188.62032      180.54975      339.23947    
     79900  -41007.231      265.96788     -40741.263      188.6741       180.60222      339.36072    
     80000  -41087.359      237.81733     -40849.542      188.72856      180.65548      339.48196    
     80100  -41135.722      211.58846     -40924.133      188.78598      180.71173      339.6032     
     80200  -41156.766      194.86243     -40961.904      188.84428      180.7687       339.72445    
     80300  -41157.442      197.72248     -40959.719      188.89858      180.82117      339.84569    
     80400  -41132.825      207.48967     -40925.336      188.95187      180.87176      339.96694    
     80500  -41074.961      195.80313     -40879.158      188.99779      180.91404      340.08818    
     80600  -40986.64       165.13789     -40821.502      189.04467      180.95672      340.20942    
     80700  -40887.586      132.3005      -40755.285      189.08814      180.99625      340.33067    
     80800  -40792.346      96.290649     -40696.055      189.12864      181.03254      340.45191    
     80900  -40759.571      118.40399     -40641.167      189.16909      181.06881      340.57315    
     81000  -40824.028      265.14326     -40558.885      189.17332      181.07166      340.6944     
     81100  -40833.876      263.01439     -40570.862      189.16135      181.05536      340.81564    
     81200  -40835.739      195.63025     -40640.108      189.18247      181.07752      340.93688    
     81300  -40848.622      195.95218     -40652.67       189.22427      181.1184       341.05813    
     81400  -40860.249      235.14092     -40625.108      189.23903      181.14672      341.17937    
     81500  -40885.41       249.67423     -40635.736      189.2537       181.16571      341.30061    
     81600  -40911.057      214.3949      -40696.662      189.29666      181.21019      341.42186    
     81700  -40929.069      192.57906     -40736.49       189.3342       181.2503       341.5431     
     81800  -40929.679      194.96126     -40734.718      189.36353      181.27958      341.66435    
     81900  -40924.957      227.37755     -40697.58       189.37983      181.29216      341.78559    
     82000  -40912.809      238.03663     -40674.773      189.39614      181.30677      341.90683    
     82100  -40919.423      226.58386     -40692.839      189.42084      181.32804      342.02808    
     82200  -40929.378      205.48806     -40723.89       189.45094      181.35741      342.14932    
     82300  -40943.7        209.87663     -40733.823      189.48213      181.39871      342.27056    
     82400  -40943.58       214.08427     -40729.496      189.51332      181.44355      342.39181    
     82500  -40937.136      215.2716      -40721.864      189.52999      181.46372      342.51305    
     82600  -40938.021      224.32235     -40713.699      189.5467       181.49513      342.63429    
     82700  -40938.602      224.93643     -40713.666      189.56954      181.54387      342.75554    
     82800  -40956.894      228.00274     -40728.891      189.57878      181.58018      342.87678    
     82900  -40966.219      208.70946     -40757.509      189.5992       181.6278       342.99802    
     83000  -40981.701      208.16846     -40773.533      189.61198      181.67091      343.11927    
     83100  -40989.825      213.14556     -40776.68       189.62557      181.71931      343.24051    
     83200  -40991.14       216.93454     -40774.206      189.63975      181.76742      343.36175    
     83300  -40991.278      217.63122     -40773.647      189.64624      181.80532      343.483      
     83400  -40992.707      215.7945      -40776.913      189.65318      181.84308      343.60424    
     83500  -40989.98       213.3202      -40776.66       189.66038      181.87352      343.72549    
     83600  -40983.975      214.22907     -40769.746      189.67042      181.89763      343.84673    
     83700  -40972.63       215.14379     -40757.486      189.68009      181.91015      343.96797    
     83800  -40963.041      218.54893     -40744.492      189.70015      181.9194       344.08922    
     83900  -40963.49       224.69239     -40738.797      189.72741      181.92956      344.21046    
     84000  -40964.469      218.51622     -40745.953      189.74495      181.92299      344.3317     
     84100  -40976.517      219.32612     -40757.191      189.77987      181.92732      344.45295    
     84200  -40981.587      214.15924     -40767.428      189.81332      181.93119      344.57419    
     84300  -40980.8        211.70041     -40769.099      189.84173      181.93319      344.69543    
     84400  -40977.245      216.56142     -40760.684      189.87384      181.94472      344.81668    
     84500  -40961.431      214.83988     -40746.591      189.89354      181.9423       344.93792    
     84600  -40948.366      217.90591     -40730.46       189.92316      181.95114      345.05916    
     84700  -40947.107      228.35773     -40718.749      189.96087      181.97526      345.18041    
     84800  -40948.642      222.07349     -40726.569      189.98383      181.98555      345.30165    
     84900  -40960.418      212.90951     -40747.509      190.01303      182.00308      345.4229     
     85000  -40958.435      202.40678     -40756.029      190.02875      182.01951      345.54414    
     85100  -40958.4        216.46285     -40741.937      190.03795      182.03282      345.66538    
     85200  -40956.814      231.90728     -40724.906      190.05228      182.05669      345.78663    
     85300  -40958.644      228.74045     -40729.904      190.05194      182.07549      345.90787    
     85400  -40967.103      213.51695     -40753.586      190.05368      182.10348      346.02911    
     85500  -40981.151      209.32541     -40771.826      190.05303      182.1299       346.15036    
     85600  -40986.641      210.58271     -40776.058      190.05769      182.16452      346.2716     
     85700  -40980.794      216.66316     -40764.131      190.06291      182.20317      346.39284    
     85800  -40973.273      226.99181     -40746.282      190.06474      182.237        346.51409    
     85900  -40970.94       225.65841     -40745.281      190.07222      182.27419      346.63533    
     86000  -40971.324      212.89634     -40758.427      190.07308      182.30404      346.75657    
     86100  -40973.41       208.01875     -40765.391      190.07483      182.32905      346.87782    
     86200  -40970.345      211.86093     -40758.484      190.07476      182.35022      346.99906    
     86300  -40966.608      223.324       -40743.284      190.07215      182.36678      347.12031    
     86400  -40969.471      229.38755     -40740.084      190.07987      182.39236      347.24155    
     86500  -40976.039      219.08605     -40756.953      190.08341      182.41577      347.36279    
     86600  -40985.202      210.72134     -40774.48       190.08836      182.42841      347.48404    
     86700  -40990.046      211.54891     -40778.497      190.11172      182.44969      347.60528    
     86800  -40985.623      215.58636     -40770.037      190.12504      182.45993      347.72652    
     86900  -40975.493      217.62527     -40757.867      190.13591      182.46765      347.84777    
     87000  -40968.203      218.85861     -40749.344      190.15623      182.48233      347.96901    
     87100  -40968.307      220.44004     -40747.867      190.16535      182.4858       348.09025    
     87200  -40961.59       214.3225      -40747.267      190.1782       182.49577      348.2115     
     87300  -40950.244      212.92148     -40737.323      190.19433      182.51087      348.33274    
     87400  -40946.573      221.34746     -40725.226      190.20004      182.51835      348.45398    
     87500  -40949.217      227.44019     -40721.777      190.21025      182.53295      348.57523    
     87600  -40955.676      221.46794     -40734.208      190.22216      182.55202      348.69647    
     87700  -40968.17       216.39741     -40751.772      190.22386      182.56081      348.81771    
     87800  -40978.083      215.15388     -40762.93       190.2312       182.57879      348.93896    
     87900  -40979.771      215.2765      -40764.495      190.23462      182.59271      349.0602     
     88000  -40972.915      214.90301     -40758.012      190.23222      182.59728      349.18145    
     88100  -40969.429      222.63857     -40746.79       190.24221      182.61398      349.30269    
     88200  -40969.169      224.32153     -40744.847      190.24871      182.62286      349.42393    
     88300  -40972.071      218.39028     -40753.681      190.25187      182.6233       349.54518    
     88400  -40970.16       208.96142     -40761.199      190.26324      182.63264      349.66642    
     88500  -40970.779      214.12952     -40756.65       190.26906      182.63652      349.78766    
     88600  -40969.845      222.22478     -40747.621      190.27699      182.63966      349.90891    
     88700  -40971.377      223.72553     -40747.652      190.28865      182.64235      350.03015    
     88800  -40976.198      217.27636     -40758.921      190.2945       182.63785      350.15139    
     88900  -40980.22       209.83052     -40770.39       190.30672      182.63657      350.27264    
     89000  -40989.194      217.75971     -40771.435      190.31743      182.6324       350.39388    
     89100  -40984.375      217.59809     -40766.777      190.3271       182.62587      350.51512    
     89200  -40979.874      217.86705     -40762.007      190.33783      182.61936      350.63637    
     89300  -40976.165      216.01074     -40760.155      190.35212      182.61812      350.75761    
     89400  -40977.694      218.50208     -40759.192      190.36119      182.61925      350.87886    
     89500  -40974.592      217.17567     -40757.416      190.36969      182.62487      351.0001     
     89600  -40974.066      219.9354      -40754.13       190.37723      182.63064      351.12134    
     89700  -40966.419      216.00086     -40750.419      190.38098      182.63772      351.24259    
     89800  -40968.869      221.52281     -40747.347      190.38478      182.64793      351.36383    
     89900  -40968.068      220.05587     -40748.012      190.38981      182.66261      351.48507    
     90000  -40972.552      216.71007     -40755.842      190.38875      182.67364      351.60632    
     90100  -40980.249      214.69632     -40765.552      190.39186      182.68933      351.72756    
     90200  -40983.225      212.64213     -40770.582      190.38864      182.70181      351.8488     
     90300  -40982.654      214.75073     -40767.903      190.38443      182.71226      351.97005    
     90400  -40978.674      219.23616     -40759.438      190.38237      182.72636      352.09129    
     90500  -40975.073      224.82119     -40750.251      190.3737       182.73845      352.21253    
     90600  -40969.085      222.20351     -40746.881      190.37177      182.75097      352.33378    
     90700  -40970.899      219.93654     -40750.963      190.36871      182.76181      352.45502    
     90800  -40967.912      212.05621     -40755.856      190.36328      182.76884      352.57627    
     90900  -40970.695      217.40289     -40753.292      190.36117      182.78037      352.69751    
     91000  -40966.432      219.84724     -40746.585      190.35714      182.79294      352.81875    
     91100  -40966.503      221.16114     -40745.342      190.35469      182.80286      352.94       
     91200  -40980.311      224.49416     -40755.816      190.35267      182.81335      353.06124    
     91300  -40984.691      212.54312     -40772.147      190.34839      182.82095      353.18248    
     91400  -40995.092      212.8548      -40782.238      190.34748      182.83048      353.30373    
     91500  -40995.364      214.91566     -40780.449      190.35082      182.84276      353.42497    
     91600  -40986.809      217.62876     -40769.181      190.3483       182.84848      353.54621    
     91700  -40979.697      220.64606     -40759.051      190.34726      182.85429      353.66746    
     91800  -40975.316      221.39009     -40753.926      190.3516       182.86535      353.7887     
     91900  -40972.051      217.20536     -40754.845      190.35714      182.87471      353.90994    
     92000  -40973.828      215.00223     -40758.826      190.36139      182.87885      354.03119    
     92100  -40974.543      213.7036      -40760.839      190.36764      182.88345      354.15243    
     92200  -40972.248      214.39723     -40757.85       190.37723      182.8902       354.27368    
     92300  -40976.364      220.91712     -40755.447      190.38447      182.89412      354.39492    
     92400  -40981.446      220.2134      -40761.232      190.39309      182.89996      354.51616    
     92500  -40984.362      213.30202     -40771.06       190.39712      182.90228      354.63741    
     92600  -40991.473      215.2948      -40776.178      190.40211      182.90478      354.75865    
     92700  -40983.503      211.02305     -40772.48       190.40972      182.91013      354.87989    
     92800  -40982.585      220.16257     -40762.422      190.41133      182.91004      355.00114    
     92900  -40974.457      219.98088     -40754.476      190.41253      182.90985      355.12238    
     93000  -40972.123      220.26859     -40751.854      190.41784      182.9149       355.24362    
     93100  -40970.121      217.10833     -40753.012      190.41752      182.91162      355.36487    
     93200  -40970.266      217.10784     -40753.158      190.41807      182.90762      355.48611    
     93300  -40966.006      216.84938     -40749.156      190.41615      182.90684      355.60735    
     93400  -40959.335      216.63238     -40742.703      190.41121      182.90287      355.7286     
     93500  -40962.029      223.1955      -40738.834      190.41324      182.90249      355.84984    
     93600  -40965.316      220.31117     -40745.005      190.41274      182.90306      355.97108    
     93700  -40976.738      216.6193      -40760.119      190.41172      182.90205      356.09233    
     93800  -40986.195      213.35432     -40772.841      190.41486      182.90697      356.21357    
     93900  -40984.129      208.24345     -40775.886      190.41469      182.90949      356.33482    
     94000  -40986.124      214.99109     -40771.133      190.4155       182.91171      356.45606    
     94100  -40989.502      224.78614     -40764.716      190.41676      182.91805      356.5773     
     94200  -40981.083      216.6884      -40764.395      190.41719      182.92188      356.69855    
     94300  -40981.938      216.93165     -40765.006      190.41413      182.9184       356.81979    
     94400  -40977.129      213.46139     -40763.667      190.41633      182.92011      356.94103    
     94500  -40975.293      217.23701     -40758.056      190.41465      182.9193       357.06228    
     94600  -40972.184      221.2437      -40750.941      190.41222      182.9149       357.18352    
     94700  -40967.422      220.41921     -40747.003      190.41743      182.91349      357.30476    
     94800  -40970.91       219.5596      -40751.351      190.41519      182.90422      357.42601    
     94900  -40983.112      220.79643     -40762.316      190.41856      182.90281      357.54725    
     95000  -40990.464      216.04698     -40774.417      190.42409      182.90368      357.66849    
     95100  -40991.208      210.86215     -40780.346      190.41927      182.89621      357.78974    
     95200  -40989.406      213.03277     -40776.373      190.41978      182.89626      357.91098    
     95300  -40981.879      217.64471     -40764.235      190.4155       182.89531      358.03223    
     95400  -40971.777      217.48118     -40754.296      190.40957      182.89744      358.15347    
     95500  -40970.848      220.21243     -40750.635      190.40049      182.89979      358.27471    
     95600  -40969.458      217.77393     -40751.684      190.39014      182.90115      358.39596    
     95700  -40971.065      218.29798     -40752.767      190.38002      182.90618      358.5172     
     95800  -40968.326      217.59643     -40750.729      190.36878      182.9114       358.63844    
     95900  -40963.205      216.40257     -40746.802      190.3537       182.91518      358.75969    
     96000  -40966.89       220.22613     -40746.664      190.33926      182.92055      358.88093    
     96100  -40973.882      220.3709      -40753.512      190.32191      182.92149      359.00217    
     96200  -40979.484      214.79727     -40764.687      190.30571      182.92407      359.12342    
     96300  -40982.147      210.5036      -40771.643      190.28897      182.92691      359.24466    
     96400  -40984.57       214.45302     -40770.117      190.27632      182.93025      359.3659     
     96500  -40978.683      216.12463     -40762.558      190.26296      182.93348      359.48715    
     96600  -40974.231      218.93437     -40755.297      190.24968      182.93366      359.60839    
     96700  -40973.308      220.74043     -40752.568      190.24054      182.93513      359.72964    
     96800  -40969.78       214.93971     -40754.84       190.2305       182.93303      359.85088    
     96900  -40974.016      215.49745     -40758.519      190.22379      182.92778      359.97212    
     97000  -40977.867      218.01917     -40759.848      190.21983      182.92265      360.09337    
     97100  -40976.48       219.05317     -40757.427      190.21553      182.91637      360.21461    
     97200  -40974.288      218.40242     -40755.886      190.21844      182.91375      360.33585    
     97300  -40975.109      216.02439     -40759.085      190.21913      182.90524      360.4571     
     97400  -40981.991      214.94591     -40767.045      190.22535      182.89647      360.57834    
     97500  -40988.24       213.58169     -40774.658      190.23297      182.89219      360.69958    
     97600  -40989.4        212.08134     -40777.319      190.2356       182.88082      360.82083    
     97700  -40984.211      211.11957     -40773.091      190.23926      182.86894      360.94207    
     97800  -40983.177      220.09184     -40763.085      190.24091      182.85842      361.06331    
     97900  -40969.331      216.53788     -40752.794      190.23941      182.84744      361.18456    
     98000  -40968.058      221.54157     -40746.517      190.23871      182.84167      361.3058     
     98100  -40965.269      218.97339     -40746.296      190.23511      182.83557      361.42704    
     98200  -40965.704      217.19522     -40748.509      190.22819      182.82792      361.54829    
     98300  -40964.852      216.18008     -40748.672      190.22213      182.82593      361.66953    
     98400  -40967.395      219.5089      -40747.886      190.2116       182.82009      361.79078    
     98500  -40970.366      220.8686      -40749.498      190.19718      182.81089      361.91202    
     98600  -40977.76       221.74178     -40756.018      190.18348      182.80287      362.03326    
     98700  -40979.067      214.12446     -40764.942      190.16803      182.79557      362.15451    
     98800  -40983.063      214.10191     -40768.961      190.15031      182.7862       362.27575    
     98900  -40980.824      213.87514     -40766.949      190.13646      182.78098      362.39699    
     99000  -40977.947      216.79051     -40761.156      190.12232      182.77285      362.51824    
     99100  -40976.399      220.14246     -40756.256      190.10627      182.7628       362.63948    
     99200  -40972.766      217.975       -40754.791      190.09318      182.75634      362.76072    
     99300  -40973.947      219.00669     -40754.94       190.07723      182.74718      362.88197    
     99400  -40970.014      214.46173     -40755.552      190.06255      182.73932      363.00321    
     99500  -40974.433      218.01303     -40756.42       190.04852      182.73141      363.12445    
     99600  -40975.727      216.3108      -40759.416      190.03307      182.72207      363.2457     
     99700  -40979.693      217.495       -40762.198      190.01914      182.7134       363.36694    
     99800  -40982.088      215.436       -40766.652      190.00707      182.70809      363.48819    
     99900  -40985.388      213.11838     -40772.27       189.99343      182.70173      363.60943    
    100000  -40991.945      216.31179     -40775.634      189.97811      182.69537      363.73067    
Loop time of 1009.79 on 12 procs for 100000 steps with 5600 atoms

Performance: 8.556 ns/day, 2.805 hours/ns, 99.031 timesteps/s, 554.572 katom-step/s
95.1% CPU use with 12 MPI tasks x 1 OpenMP threads

MPI task timing breakdown:
Section |  min time  |  avg time  |  max time  |%varavg| %total
---------------------------------------------------------------
Pair    | 677.79     | 829.11     | 953.58     | 383.3 | 82.11
Neigh   | 2.0896     | 4.929      | 6.9009     |  92.9 |  0.49
Comm    | 22.439     | 149        | 302.61     | 919.3 | 14.76
Output  | 0.28324    | 0.30767    | 0.34099    |   3.1 |  0.03
Modify  | 24.41      | 25.328     | 26.039     |   7.7 |  2.51
Other   |            | 1.118      |            |       |  0.11

Nlocal:        466.667 ave         739 max          10 min
Histogram: 4 0 0 0 0 0 0 0 1 7
Nghost:           1804 ave        2505 max         568 min
Histogram: 4 0 0 0 0 0 0 0 0 8
Neighs:              0 ave           0 max           0 min
Histogram: 12 0 0 0 0 0 0 0 0 0

Total # of neighbors = 0
Ave neighs/atom = 0
Neighbor list builds = 518
Dangerous builds = 0
Total wall time: 0:16:50
