LAMMPS (2 Aug 2023 - Update 3)
OMP_NUM_THREADS environment is not set. Defaulting to 1 thread. (src/comm.cpp:98)
  using 1 OpenMP thread(s) per MPI task

# 1------general---------------
units                             metal      #单位为lammps 中的metel 类型
dimension                    3          #模拟的维度 三维
boundary                    p p p      #周期边界条件
atom_style                  atomic   #原子类型自动
atom_modify              map array sort 100 2.0
neighbor                    3.0 bin
neigh_modify            every 1 delay 0 check yes
#2 -----global variable-------定义全局变量，方便统一修改；
variable temperature equal 300
variable tstep equal 0.001
variable pressure equal 0
variable thermalstep equal 100
variable dumpstep equal 1000
variable relaxtime equal 0
variable totaltime equal 100000
variable deformrate equal 5e-3
#3 -------model------------
#box tilt large
read_data     1.lmp
Reading data file ...
  orthogonal box = (-100 -100 -2.3312512) to (100 100 41.316429)
  2 by 5 by 1 MPI processor grid
  reading atoms ...
  1824 atoms
  read_data CPU = 0.016 seconds
replicate 1 1 13
Replication is creating a 1x1x13 = 13 times larger system...
  orthogonal box = (-100 -100 -2.3312512) to (100 100 565.08859)
  1 by 2 by 5 MPI processor grid
  23712 atoms
  replicate CPU = 0.002 seconds
write_data h.data
System init for write_data ...
WARNING: Communication cutoff is 0.0. No ghost atoms will be generated. Atoms may get lost. (src/comm_brick.cpp:210)
pair_style hybrid airebo 3.0 airebo 3.0 airebo 3.0 lj/cut 10
pair_coeff * * airebo 1 CH.airebo C NULL NULL
Reading airebo potential file CH.airebo with DATE: 2011-10-25
pair_coeff * * airebo 2 CH.airebo NULL C NULL
Reading airebo potential file CH.airebo with DATE: 2011-10-25
pair_coeff * * airebo 3 CH.airebo NULL NULL C
Reading airebo potential file CH.airebo with DATE: 2011-10-25
pair_coeff 1 2 lj/cut 0.00456 3.431
pair_coeff 1 3 lj/cut 0.00456 3.431
pair_coeff 2 3 lj/cut 0.00456 3.431

# 5------minimize -----------
min_style      sd
minimize       1.0e-4 1.0e-6 100 1000
Neighbor list info ...
  update: every = 1 steps, delay = 0 steps, check = yes
  max neighbors/atom: 2000, page size: 100000
  master list distance cutoff = 13.2
  ghost atom cutoff = 13.2
  binsize = 6.6, bins = 31 31 86
  6 neighbor lists, perpetual/occasional/extra = 6 0 0
  (1) pair airebo, perpetual, skip from (5)
      attributes: full, newton on, ghost
      pair build: skip/ghost
      stencil: none
      bin: none
  (2) pair airebo, perpetual, skip from (5)
      attributes: full, newton on, ghost
      pair build: skip/ghost
      stencil: none
      bin: none
  (3) pair airebo, perpetual, skip from (5)
      attributes: full, newton on, ghost
      pair build: skip/ghost
      stencil: none
      bin: none
  (4) pair lj/cut, perpetual, skip from (6)
      attributes: half, newton on, cut 13
      pair build: skip
      stencil: none
      bin: none
  (5) neighbor class addition, perpetual
      attributes: full, newton on, ghost
      pair build: full/bin/ghost
      stencil: full/ghost/bin/3d
      bin: standard
  (6) neighbor class addition, perpetual
      attributes: half, newton on, cut 13
      pair build: half/bin/atomonly/newton
      stencil: half/bin/3d
      bin: standard
Per MPI rank memory allocation (min/avg/max) = 18.47 | 18.47 | 18.47 Mbytes
   Step          Temp          E_pair         E_mol          TotEng         Press     
         0   0             -170824.74      0             -170824.74      705.43265    
         4   0             -171407.32      0             -171407.32      93.415916    
Loop time of 0.52506 on 10 procs for 4 steps with 23712 atoms

85.9% CPU use with 10 MPI tasks x 1 OpenMP threads

Minimization stats:
  Stopping criterion = energy tolerance
  Energy initial, next-to-last, final = 
     -170824.740265209  -171392.733332237  -171407.318902015
  Force two-norm initial, final = 248.99496 41.51217
  Force max component initial, final = 3.4318528 0.54749295
  Final line search alpha, max atom move = 0.13695896 0.074984064
  Iterations, force evaluations = 4 8

MPI task timing breakdown:
Section |  min time  |  avg time  |  max time  |%varavg| %total
---------------------------------------------------------------
Pair    | 0.25964    | 0.32346    | 0.42131    |   8.6 | 61.60
Neigh   | 0          | 0          | 0          |   0.0 |  0.00
Comm    | 0.014238   | 0.11746    | 0.19008    |  16.7 | 22.37
Output  | 0          | 0          | 0          |   0.0 |  0.00
Modify  | 0          | 0          | 0          |   0.0 |  0.00
Other   |            | 0.08414    |            |       | 16.02

Nlocal:         2371.2 ave        2432 max        2304 min
Histogram: 3 1 1 0 0 0 0 0 1 4
Nghost:         3475.2 ave        3571 max        3377 min
Histogram: 1 1 1 2 0 1 1 1 0 2
Neighs:              0 ave           0 max           0 min
Histogram: 10 0 0 0 0 0 0 0 0 0

Total # of neighbors = 0
Ave neighs/atom = 0
Neighbor list builds = 0
Dangerous builds = 0
#6----define computes------
variable nums equal count(all) #计算原子数目
variable toval equal 22.7273*22.7165*lz #计算系统总体积，单层石墨烯厚度为0.335nm
variable vol equal ${toval} #体系的初始体积
variable vol equal 292950.19015245 
variable vatom equal v_vol/v_nums #单个原子体积
compute 1 all stress/atom NULL #计算体系中单原子应力
compute xalls all reduce sum c_1[1]
variable xstress equal (c_xalls)/(v_toval*10000)
compute yalls all reduce sum c_1[2]
variable ystress equal (c_yalls)/(v_toval*10000)
compute zalls all reduce sum c_1[3]
variable zstress equal (c_zalls)/(v_toval*10000)
#7---------relaxation-------------------------
timestep ${tstep}
timestep 0.001
velocity all create ${temperature} 231743 units box dist gaussian
velocity all create 300 231743 units box dist gaussian
dump   1 all atom 100 all-cy.lammpstrj
#fix    1 all npt temp 300 300  0.1 aniso 0 0 10 drag 1  #三个方向独立控压
fix  1 all npt temp ${temperature} ${temperature} 0.1 x ${pressure} ${pressure} 10 y ${pressure} ${pressure} 10
fix  1 all npt temp 300 ${temperature} 0.1 x ${pressure} ${pressure} 10 y ${pressure} ${pressure} 10
fix  1 all npt temp 300 300 0.1 x ${pressure} ${pressure} 10 y ${pressure} ${pressure} 10
fix  1 all npt temp 300 300 0.1 x 0 ${pressure} 10 y ${pressure} ${pressure} 10
fix  1 all npt temp 300 300 0.1 x 0 0 10 y ${pressure} ${pressure} 10
fix  1 all npt temp 300 300 0.1 x 0 0 10 y 0 ${pressure} 10
fix  1 all npt temp 300 300 0.1 x 0 0 10 y 0 0 10
compute  2 all pe/atom
compute  pe all reduce sum c_2
variable PE equal "c_pe"
fix    pe all print 100 "${PE} " file PE.txt screen no
thermo  ${thermalstep}
thermo  100
#thermo_style  custom step pe ke etotal lx ly lz
run   ${relaxtime}
run   0
Per MPI rank memory allocation (min/avg/max) = 19.1 | 19.1 | 19.1 Mbytes
   Step          Temp          E_pair         E_mol          TotEng         Press          Volume    
         4   300           -171407.32      0             -170487.85      136.68626      22696794     
Loop time of 0.000801083 on 10 procs for 0 steps with 23712 atoms

74.8% CPU use with 10 MPI tasks x 1 OpenMP threads

MPI task timing breakdown:
Section |  min time  |  avg time  |  max time  |%varavg| %total
---------------------------------------------------------------
Pair    | 0          | 0          | 0          |   0.0 |  0.00
Neigh   | 0          | 0          | 0          |   0.0 |  0.00
Comm    | 0          | 0          | 0          |   0.0 |  0.00
Output  | 0          | 0          | 0          |   0.0 |  0.00
Modify  | 0          | 0          | 0          |   0.0 |  0.00
Other   |            | 0.0008011  |            |       |100.00

Nlocal:         2371.2 ave        2396 max        2339 min
Histogram: 2 1 0 0 1 1 0 1 1 3
Nghost:         3474.2 ave        3532 max        3413 min
Histogram: 1 0 2 1 1 1 2 0 0 2
Neighs:              0 ave           0 max           0 min
Histogram: 10 0 0 0 0 0 0 0 0 0

Total # of neighbors = 0
Ave neighs/atom = 0
Neighbor list builds = 0
Dangerous builds = 0
#8 -------tension-----------------------------
unfix  1
undump  1
unfix  pe
reset_timestep 0
fix avestress all ave/atom 1 ${dumpstep} ${dumpstep} c_1[1] c_1[2] c_1[3] c_1[4] c_1[5] c_1[6]
fix avestress all ave/atom 1 1000 ${dumpstep} c_1[1] c_1[2] c_1[3] c_1[4] c_1[5] c_1[6]
fix avestress all ave/atom 1 1000 1000 c_1[1] c_1[2] c_1[3] c_1[4] c_1[5] c_1[6]

#-----calculation of strain and Cumulative compression--------
variable                tmp equal "lz"
variable                L0 equal ${tmp}
variable                L0 equal 567.4198445604
variable                strain equal "(lz - v_L0)/v_L0"
variable                Cumulativels equal "(lz - v_L0)/10"
fix Step all print 100 "${strain} ${Cumulativels} ${zstress}" file grapoten.txt screen no

dump 2 all custom ${dumpstep} tension.xyz type x y z f_avestress[1] f_avestress[2] f_avestress[3] f_avestress[4] f_avestress[5] f_avestress[6]
dump 2 all custom 1000 tension.xyz type x y z f_avestress[1] f_avestress[2] f_avestress[3] f_avestress[4] f_avestress[5] f_avestress[6]

fix  1 all npt temp ${temperature} ${temperature} 0.1 y ${pressure} ${pressure} 10 x ${pressure} ${pressure} 10
fix  1 all npt temp 300 ${temperature} 0.1 y ${pressure} ${pressure} 10 x ${pressure} ${pressure} 10
fix  1 all npt temp 300 300 0.1 y ${pressure} ${pressure} 10 x ${pressure} ${pressure} 10
fix  1 all npt temp 300 300 0.1 y 0 ${pressure} 10 x ${pressure} ${pressure} 10
fix  1 all npt temp 300 300 0.1 y 0 0 10 x ${pressure} ${pressure} 10
fix  1 all npt temp 300 300 0.1 y 0 0 10 x 0 ${pressure} 10
fix  1 all npt temp 300 300 0.1 y 0 0 10 x 0 0 10

thermo_style custom step pe ke etotal lx ly lz
fix   2 all deform 1 z erate ${deformrate} remap x units box
fix   2 all deform 1 z erate 0.005 remap x units box
fix   3 all ave/time 2 500 1000 v_xstress v_ystress v_zstress file pressure.out
run   ${totaltime}
run   100000
WARNING: Dump 2 includes no atom IDs and is not sorted by ID. This may complicate post-processing tasks or visualization (src/dump.cpp:221)
Per MPI rank memory allocation (min/avg/max) = 20.6 | 20.6 | 20.6 Mbytes
   Step         PotEng         KinEng         TotEng           Lx             Ly             Lz      
         0  -171407.32      919.46619     -170487.85      200            200            567.41984    
       100  -170887.76      459.95561     -170427.81      199.99218      199.99133      567.70355    
       200  -170929.94      581.77361     -170348.17      199.98493      199.98611      567.98726    
       300  -170871.99      617.90208     -170254.09      200.00401      200.00826      568.27097    
       400  -170832.01      680.13579     -170151.88      199.99588      200.00654      568.55468    
       500  -170785.61      740.53109     -170045.08      199.98499      200.00509      568.83839    
       600  -170732.68      797.39342     -169935.29      199.99876      200.02663      569.1221     
       700  -170674.23      844.55919     -169829.67      199.98948      200.02228      569.40581    
       800  -170589.66      855.29761     -169734.36      199.97114      200.00809      569.68952    
       900  -170554.32      900.17146     -169654.15      199.9737       200.01135      569.97323    
      1000  -170500.49      898.30629     -169602.19      199.98275      200.01968      570.25694    
      1100  -170542.8       945.21713     -169597.58      199.97427      200.00974      570.54065    
      1200  -170537.19      901.01907     -169636.17      199.98351      200.01735      570.82436    
      1300  -170581.92      915.67316     -169666.24      199.98606      200.01814      571.10807    
      1400  -170575.01      909.94168     -169665.07      199.97604      200.00895      571.39178    
      1500  -170570.23      933.64159     -169636.59      199.97732      200.01092      571.67549    
      1600  -170562.96      957.72613     -169605.24      199.9804       200.01391      571.9592     
      1700  -170527.48      933.76453     -169593.71      199.96987      200.00468      572.24291    
      1800  -170551.79      938.5117      -169613.28      199.96629      200.00255      572.52662    
      1900  -170526.79      889.29831     -169637.49      199.97415      200.01181      572.81033    
      2000  -170545.14      904.36183     -169640.78      199.96328      200.0051       573.09404    
      2100  -170517.49      894.9394      -169622.55      199.95496      200.00233      573.37775    
      2200  -170524.58      925.20829     -169599.37      199.95157      200.00503      573.66146    
      2300  -170511.17      924.47644     -169586.69      199.94676      200.0082       573.94517    
      2400  -170524.54      929.77927     -169594.76      199.93635      200.00628      574.22888    
      2500  -170529.4       918.00269     -169611.39      199.93448      200.0143       574.51259    
      2600  -170522.58      909.37801     -169613.2       199.92859      200.01945      574.7963     
      2700  -170522.04      925.50397     -169596.54      199.91449      200.01802      575.08001    
      2800  -170498.16      924.82326     -169573.34      199.90301      200.02052      575.36372    
      2900  -170497.19      937.49739     -169559.7       199.89608      200.02776      575.64743    
      3000  -170478.04      914.53096     -169563.51      199.88934      200.03469      575.93114    
      3100  -170497.99      924.22518     -169573.76      199.87733      200.03406      576.21485    
      3200  -170475.57      901.18623     -169574.38      199.87002      200.0348       576.49856    
      3300  -170477.7       917.11276     -169560.59      199.85786      200.02845      576.78227    
      3400  -170453.43      912.68315     -169540.75      199.84967      200.0255       577.06598    
      3500  -170453.3       925.33675     -169527.96      199.84441      200.02437      577.34969    
      3600  -170448.54      922.14983     -169526.39      199.84005      200.02251      577.6334     
      3700  -170455.31      924.50971     -169530.8       199.83157      200.01602      577.91711    
      3800  -170453.57      922.5481      -169531.02      199.82765      200.01078      578.20082    
      3900  -170439.5       920.79837     -169518.71      199.82241      200.0027       578.48453    
      4000  -170426.82      928.31652     -169498.51      199.8179       199.9927       578.76824    
      4100  -170409.93      926.61823     -169483.31      199.82207      199.9895       579.05195    
      4200  -170412.83      928.35065     -169484.48      199.82253      199.98293      579.33566    
      4300  -170393.84      903.68179     -169490.16      199.81822      199.97052      579.61937    
      4400  -170395.47      909.64955     -169485.82      199.81448      199.96154      579.90308    
      4500  -170380.15      913.0695      -169467.09      199.81404      199.95783      580.18679    
      4600  -170369.74      923.42326     -169446.32      199.80456      199.94882      580.4705     
      4700  -170356.69      922.61627     -169434.08      199.79589      199.94266      580.75421    
      4800  -170356.32      922.3952      -169433.93      199.78861      199.94112      581.03792    
      4900  -170357.17      918.26231     -169438.9       199.77566      199.93643      581.32163    
      5000  -170347.68      909.43264     -169438.24      199.75991      199.9298       581.60534    
      5100  -170341.76      918.22843     -169423.53      199.74888      199.92917      581.88905    
      5200  -170328.4       927.30142     -169401.1       199.73685      199.92684      582.17276    
      5300  -170317.56      932.16301     -169385.4       199.71944      199.91792      582.45647    
      5400  -170297.72      917.55387     -169380.17      199.70878      199.9156       582.74018    
      5500  -170286.76      908.84291     -169377.92      199.69943      199.91254      583.02389    
      5600  -170287.19      916.68361     -169370.51      199.68485      199.90458      583.3076     
      5700  -170279.75      919.76011     -169359.99      199.67014      199.89937      583.59131    
      5800  -170260.1       913.94821     -169346.16      199.65865      199.89673      583.87502    
      5900  -170260.12      930.0543      -169330.07      199.64471      199.89115      584.15873    
      6000  -170233.17      916.0473      -169317.12      199.63299      199.88996      584.44244    
      6100  -170223.87      917.78256     -169306.09      199.61959      199.88805      584.72615    
      6200  -170217.8       922.08504     -169295.71      199.60351      199.88394      585.00986    
      6300  -170197.69      910.93879     -169286.75      199.59         199.88205      585.29357    
      6400  -170193.42      918.62257     -169274.8       199.57568      199.87708      585.57728    
      6500  -170178.9       921.29822     -169257.6       199.56231      199.87009      585.86099    
      6600  -170167         924.66467     -169242.33      199.54828      199.86242      586.1447     
      6700  -170149.71      918.79939     -169230.91      199.5337       199.85281      586.42841    
      6800  -170143.87      921.58192     -169222.29      199.51733      199.84056      586.71212    
      6900  -170126.65      912.33369     -169214.31      199.50383      199.82944      586.99583    
      7000  -170119.35      919.80716     -169199.54      199.49192      199.81752      587.27954    
      7100  -170096.71      917.64031     -169179.07      199.48043      199.80577      587.56325    
      7200  -170082.68      922.55581     -169160.13      199.46878      199.79247      587.84696    
      7300  -170068.02      915.91441     -169152.11      199.45804      199.78045      588.13067    
      7400  -170064.06      916.46791     -169147.59      199.44683      199.76941      588.41438    
      7500  -170057.56      919.50832     -169138.05      199.43535      199.75843      588.69809    
      7600  -170034.88      916.32643     -169118.56      199.42323      199.74767      588.9818     
      7700  -170019.6       924.9345      -169094.66      199.41013      199.73671      589.26551    
      7800  -169996.25      920.2945      -169075.95      199.39778      199.72603      589.54922    
      7900  -169993.14      927.01206     -169066.12      199.38351      199.71181      589.83293    
      8000  -169980.42      917.67213     -169062.75      199.36969      199.69792      590.11664    
      8100  -169966         910.85512     -169055.14      199.35512      199.68248      590.40035    
      8200  -169949.2       913.11474     -169036.09      199.33949      199.66991      590.68406    
      8300  -169933.78      925.23579     -169008.55      199.32345      199.65879      590.96777    
      8400  -169914.32      929.98684     -168984.33      199.30539      199.64548      591.25148    
      8500  -169897.58      924.16123     -168973.42      199.28596      199.63255      591.53519    
      8600  -169895.46      922.10325     -168973.35      199.26925      199.62095      591.8189     
      8700  -169875.03      908.4412      -168966.59      199.24926      199.60892      592.10261    
      8800  -169856.63      914.3262      -168942.31      199.22743      199.59608      592.38632    
      8900  -169832.32      921.7994      -168910.53      199.21128      199.58776      592.67003    
      9000  -169819.25      931.70072     -168887.54      199.19111      199.57685      592.95374    
      9100  -169802.04      921.55841     -168880.48      199.16867      199.56328      593.23745    
      9200  -169791.68      911.58559     -168880.1       199.14917      199.55276      593.52116    
      9300  -169776.51      905.39218     -168871.12      199.13116      199.54309      593.80487    
      9400  -169765.33      917.97761     -168847.35      199.10777      199.52963      594.08858    
      9500  -169735.42      921.04058     -168814.38      199.08606      199.51831      594.37229    
      9600  -169722.2       933.64732     -168788.55      199.06561      199.50817      594.656      
      9700  -169701.25      921.91041     -168779.34      199.04033      199.49485      594.93971    
      9800  -169686.64      910.12848     -168776.51      199.01709      199.48135      595.22342    
      9900  -169680.82      912.20876     -168768.61      198.99714      199.46938      595.50713    
     10000  -169660.35      911.07757     -168749.28      198.9756       199.45383      595.79084    
     10100  -169642.75      923.61472     -168719.13      198.95221      199.43713      596.07455    
     10200  -169612.92      923.0686      -168689.86      198.93076      199.42475      596.35826    
     10300  -169599.94      927.38969     -168672.55      198.90611      199.40632      596.64197    
     10400  -169576.8       912.83894     -168663.96      198.87931      199.3875       596.92568    
     10500  -169567.38      915.00344     -168652.38      198.85584      199.37263      597.20939    
     10600  -169548.69      917.72209     -168630.97      198.83059      199.35547      597.4931     
     10700  -169524.67      919.62345     -168605.05      198.80465      199.34028      597.77681    
     10800  -169507.2       923.34829     -168583.86      198.78169      199.32774      598.06052    
     10900  -169490.84      921.12859     -168569.71      198.75525      199.31362      598.34423    
     11000  -169469.99      912.8267      -168557.16      198.72947      199.29966      598.62794    
     11100  -169452.13      914.75646     -168537.37      198.70395      199.28665      598.91165    
     11200  -169433.82      922.92775     -168510.89      198.67624      199.27168      599.19536    
     11300  -169406.88      921.8759      -168485.01      198.65118      199.25688      599.47907    
     11400  -169387.95      923.93284     -168464.01      198.62756      199.24252      599.76278    
     11500  -169365.04      913.68302     -168451.35      198.60362      199.22618      600.04649    
     11600  -169353.9       913.49016     -168440.41      198.58121      199.2106       600.3302     
     11700  -169334.99      915.85175     -168419.14      198.55927      199.19485      600.61391    
     11800  -169307.62      915.3517      -168392.27      198.53479      199.1755       600.89762    
     11900  -169293.39      926.95914     -168366.43      198.51259      199.15651      601.18133    
     12000  -169257.26      914.01441     -168343.25      198.4919       199.13552      601.46504    
     12100  -169254.72      930.55601     -168324.17      198.46729      199.10911      601.74875    
     12200  -169231.83      923.06542     -168308.77      198.44264      199.08307      602.03246    
     12300  -169215.61      922.05516     -168293.56      198.42244      199.06172      602.31617    
     12400  -169194.72      921.92297     -168272.79      198.40041      199.03818      602.59987    
     12500  -169167.54      916.37418     -168251.17      198.37611      199.01348      602.88358    
     12600  -169149.92      921.11815     -168228.8       198.35356      198.99167      603.16729    
     12700  -169122.08      917.54596     -168204.53      198.3283       198.97003      603.451      
     12800  -169101.52      920.79914     -168180.72      198.30125      198.94684      603.73471    
     12900  -169072.42      913.1991      -168159.22      198.27431      198.92525      604.01842    
     13000  -169056.88      918.14256     -168138.74      198.24793      198.90487      604.30213    
     13100  -169037.54      919.07178     -168118.47      198.22251      198.88508      604.58584    
     13200  -169016.02      919.26881     -168096.75      198.20052      198.86893      604.86955    
     13300  -168991.29      919.84447     -168071.45      198.17925      198.85431      605.15326    
     13400  -168969.57      924.16005     -168045.41      198.15429      198.83693      605.43697    
     13500  -168946.57      920.32697     -168026.24      198.12869      198.82173      605.72068    
     13600  -168925.62      917.18397     -168008.44      198.10437      198.80635      606.00439    
     13700  -168902.58      917.52247     -167985.06      198.0772       198.78731      606.2881     
     13800  -168884.82      925.97925     -167958.85      198.04812      198.76849      606.57181    
     13900  -168853.81      919.67047     -167934.14      198.02         198.75139      606.85552    
     14000  -168832.24      920.54128     -167911.69      197.9901       198.7334       607.13923    
     14100  -168813.13      922.20825     -167890.92      197.96236      198.71705      607.42294    
     14200  -168784.14      916.76299     -167867.38      197.93812      198.70146      607.70665    
     14300  -168761.82      923.32707     -167838.49      197.91206      198.68236      607.99036    
     14400  -168731.01      919.03845     -167811.97      197.88526      198.66321      608.27407    
     14500  -168708.35      918.22923     -167790.12      197.85989      198.64558      608.55778    
     14600  -168687.08      916.28014     -167770.8       197.83303      198.62751      608.84149    
     14700  -168664.56      916.77488     -167747.79      197.80792      198.61202      609.1252     
     14800  -168632.1       912.48339     -167719.62      197.78612      198.59734      609.40891    
     14900  -168613.33      926.31391     -167687.02      197.76165      198.57958      609.69262    
     15000  -168580.95      924.02969     -167656.92      197.73868      198.56302      609.97633    
     15100  -168557.67      922.61529     -167635.05      197.71655      198.54823      610.26004    
     15200  -168532.98      910.87206     -167622.11      197.6922       198.53288      610.54375    
     15300  -168510.44      915.30279     -167595.14      197.67019      198.51928      610.82746    
     15400  -168483.12      920.89269     -167562.22      197.64963      198.50778      611.11117    
     15500  -168454.94      922.41268     -167532.53      197.62562      198.49206      611.39488    
     15600  -168436.67      930.9048      -167505.76      197.60146      198.47599      611.67859    
     15700  -168402.57      918.94352     -167483.63      197.57921      198.46202      611.9623     
     15800  -168388.24      915.52256     -167472.72      197.5574       198.4465       612.24601    
     15900  -168359.81      915.19396     -167444.62      197.53771      198.43281      612.52972    
     16000  -168326.08      917.92512     -167408.16      197.52308      198.41903      612.81343    
     16100  -168292.5       917.26561     -167375.24      197.50568      198.40077      613.09714    
     16200  -168265.38      917.44969     -167347.93      197.48826      198.38137      613.38085    
     16300  -168242.08      916.95915     -167325.12      197.47043      198.36183      613.66456    
     16400  -168225.43      914.83886     -167310.59      197.45305      198.3452       613.94827    
     16500  -168190.48      906.74048     -167283.74      197.44032      198.32968      614.23198    
     16600  -168163.75      914.89201     -167248.86      197.4279       198.31392      614.51569    
     16700  -168136.95      920.89345     -167216.05      197.41534      198.29614      614.7994     
     16800  -168113.14      927.33495     -167185.81      197.40266      198.27626      615.08311    
     16900  -168085.62      924.89976     -167160.72      197.38605      198.2574       615.36682    
     17000  -168055.93      911.72312     -167144.21      197.36909      198.23946      615.65053    
     17100  -168028.4       912.98162     -167115.42      197.3536       198.22712      615.93424    
     17200  -167993.17      916.17411     -167077         197.33837      198.21492      616.21795    
     17300  -167969.92      923.75005     -167046.17      197.3225       198.20071      616.50166    
     17400  -167940.17      920.10335     -167020.06      197.30693      198.18494      616.78537    
     17500  -167912.04      914.27266     -166997.77      197.29036      198.16971      617.06908    
     17600  -167895.42      917.16247     -166978.26      197.27449      198.15897      617.35279    
     17700  -167866.88      912.19211     -166954.69      197.25946      198.15039      617.6365     
     17800  -167828.34      914.07641     -166914.27      197.2433       198.1429       617.92021    
     17900  -167796.27      920.42425     -166875.84      197.22792      198.13445      618.20392    
     18000  -167765.57      918.47223     -166847.1       197.21172      198.12589      618.48763    
     18100  -167742.51      920.29478     -166822.21      197.1956       198.11653      618.77134    
     18200  -167716.69      916.51893     -166800.17      197.18003      198.10735      619.05505    
     18300  -167690.27      913.16251     -166777.11      197.16461      198.09862      619.33876    
     18400  -167663.6       918.99811     -166744.61      197.14999      198.08921      619.62247    
     18500  -167624.69      923.55933     -166701.13      197.13496      198.07925      619.90618    
     18600  -167595.51      923.26261     -166672.25      197.12126      198.06846      620.18989    
     18700  -167567.15      918.08409     -166649.06      197.1078       198.05917      620.4736     
     18800  -167542.92      917.09665     -166625.82      197.09511      198.04767      620.75731    
     18900  -167518.24      920.26467     -166597.97      197.08315      198.0355       621.04102    
     19000  -167476.06      920.12257     -166555.94      197.07309      198.02525      621.32473    
     19100  -167442.72      921.51537     -166521.2       197.06456      198.01283      621.60844    
     19200  -167420.45      922.83514     -166497.61      197.0563       198.00062      621.89215    
     19300  -167388.62      912.58444     -166476.03      197.05131      197.99034      622.17586    
     19400  -167361.74      917.75858     -166443.98      197.04214      197.97767      622.45957    
     19500  -167325.09      917.70006     -166407.39      197.03262      197.96433      622.74328    
     19600  -167293.31      919.31879     -166374         197.02642      197.95308      623.02699    
     19700  -167265.83      921.98078     -166343.85      197.01704      197.93888      623.3107     
     19800  -167234.07      917.35666     -166316.71      197.00938      197.92463      623.59441    
     19900  -167205.39      918.33485     -166287.06      197.00296      197.91485      623.87812    
     20000  -167173.89      922.06978     -166251.82      196.99283      197.90291      624.16183    
     20100  -167130.54      925.54015     -166205         196.98236      197.88884      624.44554    
     20200  -167104.05      924.53448     -166179.52      196.97245      197.87686      624.72925    
     20300  -167075.38      917.09817     -166158.28      196.96451      197.86588      625.01296    
     20400  -167049.21      919.09047     -166130.12      196.95775      197.85631      625.29667    
     20500  -167013.07      916.27146     -166096.8       196.94903      197.84766      625.58038    
     20600  -166977.04      922.04025     -166055         196.93893      197.8386       625.86409    
     20700  -166941.17      922.93558     -166018.23      196.92798      197.83132      626.1478     
     20800  -166919.3       924.11084     -165995.19      196.91589      197.82467      626.43151    
     20900  -166890.5       916.63055     -165973.87      196.90285      197.81847      626.71522    
     21000  -166851.53      912.9033      -165938.63      196.89288      197.81356      626.99893    
     21100  -166815.72      917.16488     -165898.55      196.88015      197.80692      627.28264    
     21200  -166783.78      923.21211     -165860.57      196.86454      197.79892      627.56635    
     21300  -166746.63      919.389       -165827.24      196.8505       197.79537      627.85006    
     21400  -166714.49      914.17507     -165800.32      196.83529      197.79133      628.13377    
     21500  -166691.28      913.98656     -165777.3       196.81956      197.78331      628.41748    
     21600  -166655.69      913.33024     -165742.36      196.80839      197.77873      628.70119    
     21700  -166616.03      916.8732      -165699.15      196.79812      197.77371      628.9849     
     21800  -166584.19      921.26136     -165662.93      196.78373      197.76429      629.26861    
     21900  -166555.64      921.90555     -165633.74      196.77064      197.75884      629.55232    
     22000  -166521.49      917.17066     -165604.32      196.75759      197.75196      629.83603    
     22100  -166490.24      918.16104     -165572.08      196.74024      197.74183      630.11974    
     22200  -166449.84      914.43555     -165535.4       196.72937      197.73414      630.40345    
     22300  -166409.7       916.18477     -165493.52      196.72296      197.72795      630.68716    
     22400  -166377.25      922.31195     -165454.94      196.7113       197.71463      630.97087    
     22500  -166349.08      921.14969     -165427.93      196.70117      197.70094      631.25458    
     22600  -166321.26      918.55773     -165402.7       196.69638      197.69415      631.53829    
     22700  -166284.48      916.83043     -165367.65      196.68803      197.68132      631.822      
     22800  -166243.82      916.57532     -165327.24      196.67749      197.66928      632.10571    
     22900  -166208.44      921.12295     -165287.32      196.67323      197.66383      632.38942    
     23000  -166179.97      925.10587     -165254.87      196.66666      197.65458      632.67313    
     23100  -166146.94      920.84496     -165226.1       196.65585      197.64206      632.95684    
     23200  -166104.28      911.36764     -165192.91      196.65144      197.63268      633.24055    
     23300  -166077.04      921.4463      -165155.59      196.64329      197.62068      633.52426    
     23400  -166039.81      923.20797     -165116.6       196.63361      197.60658      633.80797    
     23500  -166002.47      923.62718     -165078.84      196.62713      197.5969       634.09168    
     23600  -165971.79      924.32726     -165047.47      196.61795      197.58638      634.37539    
     23700  -165935.27      912.43185     -165022.84      196.60786      197.57455      634.6591     
     23800  -165909.55      918.43188     -164991.12      196.59867      197.56478      634.94281    
     23900  -165865.21      915.60034     -164949.61      196.58812      197.55357      635.22652    
     24000  -165828.72      919.08985     -164909.63      196.57607      197.54089      635.51023    
     24100  -165791.35      918.97552     -164872.38      196.56432      197.52837      635.79394    
     24200  -165756.42      920.66431     -164835.76      196.55528      197.51833      636.07765    
     24300  -165714.39      914.91825     -164799.47      196.54278      197.50792      636.36136    
     24400  -165684.85      918.61245     -164766.24      196.52831      197.4983       636.64507    
     24500  -165655.49      920.54606     -164734.94      196.51837      197.49354      636.92878    
     24600  -165612.95      908.80711     -164704.15      196.50507      197.48512      637.21249    
     24700  -165580.29      913.35981     -164666.93      196.48995      197.47213      637.4962     
     24800  -165540.14      921.38945     -164618.75      196.48026      197.46481      637.77991    
     24900  -165501.83      923.97956     -164577.85      196.46636      197.45577      638.06362    
     25000  -165462.17      915.59757     -164546.57      196.45024      197.44373      638.34733    
     25100  -165439         920.70846     -164518.29      196.43834      197.43863      638.63104    
     25200  -165398.07      914.17495     -164483.89      196.42665      197.43396      638.91474    
     25300  -165360.37      915.81184     -164444.56      196.41334      197.42375      639.19845    
     25400  -165318.57      913.67295     -164404.9       196.4017       197.41608      639.48216    
     25500  -165287.85      922.26753     -164365.58      196.39157      197.4074       639.76587    
     25600  -165249.06      925.95351     -164323.1       196.37749      197.39409      640.04958    
     25700  -165201.22      926.10292     -164275.12      196.3644       197.3823       640.33329    
     25800  -165170.54      928.11892     -164242.42      196.35437      197.37482      640.617      
     25900  -165136.52      920.14503     -164216.38      196.34027      197.36505      640.90071    
     26000  -165103.52      919.8215      -164183.7       196.32757      197.35303      641.18442    
     26100  -165063.76      915.4499      -164148.31      196.31741      197.34285      641.46813    
     26200  -165025.89      920.09806     -164105.79      196.30515      197.32824      641.75184    
     26300  -164984.68      926.55318     -164058.13      196.29357      197.31242      642.03555    
     26400  -164946.61      925.72437     -164020.89      196.28359      197.29854      642.31926    
     26500  -164904.65      914.45539     -163990.19      196.27251      197.28198      642.60297    
     26600  -164880.67      924.39491     -163956.28      196.26182      197.2652       642.88668    
     26700  -164835.33      917.59083     -163917.74      196.25282      197.24891      643.17039    
     26800  -164795.75      919.43603     -163876.32      196.2424       197.23107      643.4541     
     26900  -164750.23      917.48125     -163832.74      196.23497      197.21592      643.73781    
     27000  -164712.44      921.92574     -163790.52      196.22847      197.20234      644.02152    
     27100  -164675.92      919.94848     -163755.97      196.22015      197.18804      644.30523    
     27200  -164643.24      913.11325     -163730.13      196.2124       197.17363      644.58894    
     27300  -164607.45      916.8834      -163690.57      196.20317      197.15763      644.87265    
     27400  -164557.51      913.89347     -163643.62      196.19224      197.13968      645.15636    
     27500  -164522.31      920.31426     -163602         196.1822       197.12245      645.44007    
     27600  -164485.44      921.10185     -163564.34      196.17354      197.10723      645.72378    
     27700  -164445.34      918.20284     -163527.14      196.16388      197.09243      646.00749    
     27800  -164409.48      913.6676      -163495.82      196.1517       197.07773      646.2912     
     27900  -164374.06      909.64744     -163464.41      196.13887      197.06278      646.57491    
     28000  -164337.17      917.63896     -163419.54      196.12599      197.05028      646.85862    
     28100  -164295.87      924.7662      -163371.11      196.1109       197.03441      647.14233    
     28200  -164252.67      921.85758     -163330.81      196.09454      197.01774      647.42604    
     28300  -164208.02      914.24307     -163293.77      196.08018      197.00404      647.70975    
     28400  -164169.37      910.94353     -163258.43      196.0653       196.98862      647.99346    
     28500  -164140.79      917.74174     -163223.05      196.04913      196.97322      648.27717    
     28600  -164098.88      913.90891     -163184.97      196.03701      196.96375      648.56088    
     28700  -164052.39      915.25835     -163137.13      196.02272      196.95393      648.84459    
     28800  -164016.62      926.91378     -163089.71      196.00562      196.94175      649.1283     
     28900  -163975.06      924.61987     -163050.44      195.99072      196.93033      649.41201    
     29000  -163934.7       920.2158      -163014.48      195.97285      196.91523      649.69572    
     29100  -163898.1       915.40328     -162982.7       195.95167      196.89877      649.97943    
     29200  -163862.23      912.3815      -162949.85      195.93613      196.88702      650.26314    
     29300  -163815.44      914.42276     -162901.02      195.92189      196.87513      650.54685    
     29400  -163776.36      923.47368     -162852.89      195.90505      196.86097      650.83056    
     29500  -163730.38      918.74032     -162811.64      195.89125      196.847        651.11427    
     29600  -163693.72      920.11042     -162773.61      195.87679      196.83397      651.39798    
     29700  -163663.08      923.6246      -162739.45      195.85965      196.81868      651.68169    
     29800  -163620.11      912.10048     -162708.01      195.84385      196.80288      651.9654     
     29900  -163580.26      914.42417     -162665.84      195.82995      196.78866      652.24911    
     30000  -163530.99      917.99011     -162613         195.81703      196.77251      652.53282    
     30100  -163484.53      912.77051     -162571.76      195.80298      196.75478      652.81653    
     30200  -163459         925.32164     -162533.68      195.78691      196.73919      653.10024    
     30300  -163421.08      922.71108     -162498.37      195.77148      196.72501      653.38395    
     30400  -163378.58      915.19308     -162463.39      195.75437      196.70951      653.66766    
     30500  -163336.54      916.8448      -162419.7       195.73827      196.69476      653.95137    
     30600  -163289.43      922.44093     -162366.99      195.72337      196.68122      654.23508    
     30700  -163242.25      918.1631      -162324.09      195.70626      196.66742      654.51879    
     30800  -163207.7       918.7747      -162288.93      195.68918      196.65407      654.8025     
     30900  -163171.18      914.15201     -162257.02      195.67125      196.642        655.08621    
     31000  -163130.94      914.05979     -162216.88      195.65244      196.63012      655.36992    
     31100  -163083.88      922.38292     -162161.5       195.63264      196.61706      655.65363    
     31200  -163040.13      923.6014      -162116.53      195.61203      196.60074      655.93734    
     31300  -163004.6       923.12306     -162081.48      195.59467      196.58431      656.22105    
     31400  -162959.74      911.95071     -162047.79      195.57825      196.5708       656.50476    
     31500  -162922.97      916.90987     -162006.06      195.56016      196.5548       656.78847    
     31600  -162879.24      922.93118     -161956.31      195.54293      196.54016      657.07218    
     31700  -162829.97      920.70769     -161909.26      195.52866      196.52749      657.35589    
     31800  -162792.41      921.59802     -161870.81      195.51294      196.50988      657.6396     
     31900  -162759.93      914.36565     -161845.56      195.49609      196.49102      657.92331    
     32000  -162715.17      912.23541     -161802.94      195.48221      196.47316      658.20702    
     32100  -162663.93      912.14002     -161751.79      195.46851      196.45494      658.49073    
     32200  -162621.61      918.60538     -161703.01      195.45389      196.43459      658.77444    
     32300  -162582.94      924.52276     -161658.42      195.4435       196.41525      659.05815    
     32400  -162538.05      919.20773     -161618.85      195.43355      196.39778      659.34186    
     32500  -162503.73      914.37771     -161589.35      195.42042      196.37664      659.62557    
     32600  -162458.98      909.47951     -161549.5       195.40488      196.35545      659.90928    
     32700  -162408.73      909.13175     -161499.6       195.39231      196.33976      660.19299    
     32800  -162374.65      921.79655     -161452.85      195.37744      196.32042      660.4767     
     32900  -162327.84      919.49292     -161408.35      195.35976      196.29977      660.76041    
     33000  -162280.1       917.63753     -161362.46      195.34776      196.28358      661.04412    
     33100  -162239         926.76056     -161312.24      195.33434      196.26702      661.32783    
     33200  -162198.96      933.15928     -161265.8       195.31703      196.24688      661.61154    
     33300  -162154.55      917.15534     -161237.4       195.30491      196.22869      661.89525    
     33400  -162115.03      914.93963     -161200.09      195.29276      196.21183      662.17896    
     33500  -162069.49      914.78256     -161154.71      195.27708      196.19185      662.46267    
     33600  -162024.35      918.31213     -161106.03      195.26365      196.17519      662.74638    
     33700  -161977.6       919.04553     -161058.56      195.24925      196.16017      663.03009    
     33800  -161928.54      920.66417     -161007.88      195.23         196.14102      663.3138     
     33900  -161891.44      929.0648      -160962.38      195.21071      196.12396      663.59751    
     34000  -161853.54      919.51387     -160934.03      195.19315      196.10956      663.88122    
     34100  -161810.96      915.50848     -160895.45      195.17488      196.09373      664.16493    
     34200  -161773.53      921.36284     -160852.16      195.16001      196.07973      664.44864    
     34300  -161731.85      925.03542     -160806.81      195.14438      196.0648       664.73235    
     34400  -161682.39      921.85951     -160760.53      195.12361      196.04692      665.01606    
     34500  -161642.71      926.59619     -160716.12      195.10459      196.03155      665.29977    
     34600  -161602.39      924.53037     -160677.86      195.087        196.01811      665.58348    
     34700  -161559.59      917.86757     -160641.72      195.06893      196.00232      665.86719    
     34800  -161512.63      913.74048     -160598.89      195.05399      195.98871      666.1509     
     34900  -161464.24      920.75865     -160543.48      195.04087      195.97693      666.43461    
     35000  -161417.79      922.61095     -160495.18      195.02337      195.95959      666.71832    
     35100  -161372.93      917.50599     -160455.42      195.00521      195.94131      667.00203    
     35200  -161337.47      919.10831     -160418.36      194.99118      195.92657      667.28574    
     35300  -161299.7       918.78727     -160380.91      194.97572      195.90857      667.56945    
     35400  -161254.39      908.807       -160345.58      194.95814      195.88865      667.85316    
     35500  -161215.87      919.9378      -160295.93      194.94422      195.87207      668.13687    
     35600  -161152.67      912.05348     -160240.62      194.92771      195.85521      668.42058    
     35700  -161110.38      919.53302     -160190.85      194.90774      195.83387      668.70429    
     35800  -161074.99      928.8069      -160146.19      194.88936      195.81481      668.988      
     35900  -161025.87      916.21081     -160109.66      194.87306      195.79791      669.27171    
     36000  -160985.91      912.15209     -160073.76      194.85554      195.77972      669.55542    
     36100  -160939.11      910.84245     -160028.27      194.83773      195.76477      669.83913    
     36200  -160892.08      923.61579     -159968.46      194.82114      195.75149      670.12284    
     36300  -160844.8       921.24383     -159923.55      194.80437      195.73879      670.40655    
     36400  -160798.07      915.43263     -159882.63      194.78821      195.7265       670.69026    
     36500  -160757.67      917.3707      -159840.3       194.77649      195.71334      670.97397    
     36600  -160714.81      919.39554     -159795.42      194.76359      195.70123      671.25768    
     36700  -160666.37      923.05389     -159743.32      194.75013      195.68903      671.54139    
     36800  -160616.95      924.21218     -159692.74      194.73581      195.67572      671.8251     
     36900  -160574.46      921.99225     -159652.47      194.71844      195.66219      672.10881    
     37000  -160538.33      917.60598     -159620.73      194.70077      195.64643      672.39252    
     37100  -160488.5       913.40738     -159575.09      194.68385      195.6331       672.67623    
     37200  -160437.18      913.46584     -159523.72      194.66872      195.62146      672.95994    
     37300  -160389.47      916.16733     -159473.3       194.65255      195.60784      673.24365    
     37400  -160348         921.2129      -159426.79      194.63437      195.59482      673.52736    
     37500  -160307.83      925.15754     -159382.67      194.61714      195.58103      673.81107    
     37600  -160263.82      913.58631     -159350.24      194.59846      195.56547      674.09478    
     37700  -160228.59      916.76962     -159311.82      194.57967      195.5469       674.37849    
     37800  -160176.72      918.26201     -159258.46      194.56496      195.52802      674.6622     
     37900  -160123.52      916.59649     -159206.92      194.55091      195.50938      674.94591    
     38000  -160082.07      922.14938     -159159.92      194.53635      195.48764      675.22962    
     38100  -160039.83      924.14564     -159115.69      194.52203      195.46752      675.51332    
     38200  -159985.17      910.9907      -159074.18      194.50866      195.45038      675.79703    
     38300  -159956.61      920.74651     -159035.86      194.49605      195.43237      676.08074    
     38400  -159904.96      910.80745     -158994.15      194.4847       195.41558      676.36445    
     38500  -159861.81      918.82764     -158942.98      194.47565      195.39801      676.64816    
     38600  -159803.44      916.21131     -158887.22      194.46568      195.37934      676.93187    
     38700  -159768.2       927.67507     -158840.53      194.45402      195.36213      677.21558    
     38800  -159716.35      916.19117     -158800.16      194.4424       195.34695      677.49929    
     38900  -159676.35      914.3182      -158762.03      194.42841      195.33195      677.783      
     39000  -159638.46      911.28183     -158727.18      194.41382      195.31747      678.06671    
     39100  -159591.11      904.19627     -158686.91      194.39848      195.30425      678.35042    
     39200  -159541.48      915.39014     -158626.09      194.38013      195.28946      678.63413    
     39300  -159488.96      915.39377     -158573.56      194.36399      195.27735      678.91784    
     39400  -159446.32      924.68989     -158521.63      194.35158      195.26818      679.20155    
     39500  -159403.58      931.12057     -158472.46      194.3357       195.25565      679.48526    
     39600  -159354.86      922.35781     -158432.5       194.31935      195.24334      679.76897    
     39700  -159305.48      908.7135      -158396.76      194.30444      195.23204      680.05268    
     39800  -159270.15      919.83088     -158350.32      194.2871       195.21847      680.33639    
     39900  -159222.12      922.09067     -158300.03      194.26888      195.20331      680.6201     
     40000  -159174.71      921.44604     -158253.27      194.25293      195.18977      680.90381    
     40100  -159126.53      919.95957     -158206.57      194.23753      195.17612      681.18752    
     40200  -159075.59      920.01605     -158155.57      194.22287      195.16123      681.47123    
     40300  -159029.06      930.07588     -158098.99      194.20841      195.14616      681.75494    
     40400  -158981.14      928.05342     -158053.09      194.19449      195.13045      682.03865    
     40500  -158939.97      916.47814     -158023.49      194.18171      195.11529      682.32236    
     40600  -158900.6       920.56669     -157980.03      194.16795      195.09937      682.60607    
     40700  -158848.83      917.86318     -157930.96      194.15268      195.08258      682.88978    
     40800  -158804.14      924.68344     -157879.45      194.13902      195.06995      683.17349    
     40900  -158752.21      922.59728     -157829.61      194.12562      195.05761      683.4572     
     41000  -158711.01      924.8234      -157786.19      194.11206      195.0438       683.74091    
     41100  -158666.24      913.87752     -157752.37      194.10074      195.03153      684.02462    
     41200  -158618.69      911.50743     -157707.18      194.08976      195.01708      684.30833    
     41300  -158572.73      918.84899     -157653.88      194.07674      195.00052      684.59204    
     41400  -158522.59      921.71372     -157600.88      194.06601      194.98671      684.87575    
     41500  -158478.85      923.85717     -157554.99      194.05556      194.97506      685.15946    
     41600  -158425.62      913.39347     -157512.22      194.04325      194.96076      685.44317    
     41700  -158389.5       921.75306     -157467.75      194.02951      194.94564      685.72688    
     41800  -158337.8       913.69237     -157424.11      194.01853      194.93167      686.01059    
     41900  -158297.76      914.83386     -157382.93      194.00682      194.91746      686.2943     
     42000  -158256.48      920.80219     -157335.67      193.99283      194.90297      686.57801    
     42100  -158195.21      917.32947     -157277.88      193.98023      194.88963      686.86172    
     42200  -158150.55      923.48696     -157227.06      193.96563      194.87874      687.14543    
     42300  -158098.82      917.63607     -157181.18      193.94939      194.86643      687.42914    
     42400  -158062.82      919.15266     -157143.67      193.93232      194.85198      687.71285    
     42500  -158011.46      905.76639     -157105.69      193.91583      194.83787      687.99656    
     42600  -157967.72      914.66731     -157053.05      193.90339      194.82554      688.28027    
     42700  -157921.51      920.64383     -157000.87      193.89097      194.81406      688.56398    
     42800  -157867.22      915.02977     -156952.19      193.87699      194.80019      688.84769    
     42900  -157821.83      917.68809     -156904.14      193.86578      194.78748      689.1314     
     43000  -157775.77      918.90849     -156856.86      193.85271      194.77343      689.41511    
     43100  -157728.26      913.2412      -156815.01      193.83775      194.75607      689.69882    
     43200  -157686.29      912.07255     -156774.21      193.82537      194.74166      689.98253    
     43300  -157644.06      917.73659     -156726.32      193.81354      194.72734      690.26624    
     43400  -157588.56      920.35217     -156668.21      193.80024      194.71085      690.54995    
     43500  -157534.79      917.41859     -156617.37      193.78939      194.69762      690.83366    
     43600  -157501.25      925.76038     -156575.49      193.77833      194.68449      691.11737    
     43700  -157457.91      924.80625     -156533.11      193.76383      194.6698       691.40108    
     43800  -157405.2       918.934       -156486.27      193.7507       194.65872      691.68479    
     43900  -157357.8       922.26116     -156435.54      193.7378       194.64902      691.9685     
     44000  -157302.84      920.37353     -156382.46      193.7268       194.63995      692.25221    
     44100  -157258.83      933.15052     -156325.68      193.71748      194.63215      692.53592    
     44200  -157204.92      927.28468     -156277.64      193.7054       194.62135      692.81963    
     44300  -157168.77      924.84951     -156243.92      193.68998      194.60813      693.10334    
     44400  -157123.55      921.27296     -156202.28      193.67443      194.59773      693.38705    
     44500  -157074.26      917.50338     -156156.75      193.6574       194.58689      693.67076    
     44600  -157021.76      919.74909     -156102.01      193.63913      194.57515      693.95447    
     44700  -156971.54      924.11111     -156047.43      193.62476      194.56886      694.23818    
     44800  -156929.4       923.25275     -156006.15      193.61012      194.5631       694.52189    
     44900  -156887.15      917.84934     -155969.3       193.59089      194.55146      694.8056     
     45000  -156833.35      913.26686     -155920.09      193.57361      194.53856      695.08931    
     45100  -156789.45      922.67409     -155866.78      193.55611      194.52612      695.37302    
     45200  -156732.89      919.73956     -155813.15      193.5359       194.5117       695.65673    
     45300  -156692.12      926.71592     -155765.4       193.51961      194.49797      695.94044    
     45400  -156649.17      916.71645     -155732.46      193.50487      194.48649      696.22415    
     45500  -156600.82      914.17446     -155686.64      193.49106      194.47066      696.50786    
     45600  -156557.25      923.88595     -155633.37      193.47812      194.45219      696.79157    
     45700  -156504.53      925.20953     -155579.32      193.46738      194.43669      697.07528    
     45800  -156452.02      920.71171     -155531.31      193.459        194.42243      697.35899    
     45900  -156412.15      915.37027     -155496.78      193.44858      194.40826      697.6427     
     46000  -156365.54      912.60426     -155452.93      193.43852      194.39446      697.92641    
     46100  -156314.39      915.1489      -155399.24      193.43072      194.38143      698.21012    
     46200  -156259.94      918.1094      -155341.83      193.42187      194.3676       698.49383    
     46300  -156217.61      923.29874     -155294.31      193.41482      194.35454      698.77754    
     46400  -156171.79      920.946       -155250.84      193.40753      194.34341      699.06125    
     46500  -156124.59      919.17279     -155205.42      193.39405      194.33067      699.34496    
     46600  -156075.37      918.6527      -155156.72      193.38004      194.31984      699.62867    
     46700  -156024.97      928.50545     -155096.47      193.3661       194.31112      699.91238    
     46800  -155970.82      926.74752     -155044.07      193.34886      194.29917      700.19609    
     46900  -155929.87      924.12052     -155005.75      193.33187      194.28785      700.4798     
     47000  -155877.84      914.21298     -154963.63      193.31727      194.28119      700.76351    
     47100  -155838.36      923.74579     -154914.62      193.29952      194.27038      701.04722    
     47200  -155783.88      922.12274     -154861.76      193.28081      194.25939      701.33093    
     47300  -155728.01      921.50692     -154806.51      193.26548      194.25031      701.61464    
     47400  -155687.77      928.46065     -154759.31      193.24868      194.23713      701.89835    
     47500  -155641.27      917.29666     -154723.97      193.23261      194.22357      702.18206    
     47600  -155598.02      916.88627     -154681.13      193.22155      194.21126      702.46577    
     47700  -155553.88      920.46319     -154633.41      193.20912      194.19587      702.74948    
     47800  -155503.46      921.36619     -154582.1       193.19736      194.17898      703.03319    
     47900  -155440.53      916.73992     -154523.8       193.18687      194.16301      703.3169     
     48000  -155398.66      926.50624     -154472.16      193.17325      194.14413      703.60061    
     48100  -155357.01      921.6326      -154435.38      193.16038      194.12447      703.88432    
     48200  -155307.36      916.02147     -154391.34      193.14963      194.10862      704.16803    
     48300  -155265.05      922.39567     -154342.65      193.13863      194.0904       704.45174    
     48400  -155213.29      919.40266     -154293.89      193.12792      194.07298      704.73545    
     48500  -155169.8       924.19326     -154245.6       193.11992      194.06141      705.01916    
     48600  -155115.63      914.85412     -154200.77      193.11036      194.04871      705.30287    
     48700  -155072.43      915.88242     -154156.54      193.09706      194.03581      705.58658    
     48800  -155025.05      916.6087      -154108.44      193.08633      194.02506      705.87029    
     48900  -154974.02      924.19663     -154049.82      193.07473      194.01356      706.154      
     49000  -154914.1       921.08531     -153993.02      193.06009      194.00232      706.43771    
     49100  -154872.41      924.3861      -153948.02      193.04744      193.99174      706.72142    
     49200  -154824.1       917.70135     -153906.4       193.03493      193.98287      707.00513    
     49300  -154781.09      922.29706     -153858.79      193.01925      193.97121      707.28884    
     49400  -154730.01      918.09014     -153811.92      193.00245      193.96011      707.57255    
     49500  -154684.15      918.22422     -153765.93      192.98442      193.94909      707.85626    
     49600  -154635.82      915.92478     -153719.9       192.96705      193.93584      708.13997    
     49700  -154590.14      916.48108     -153673.66      192.95279      193.92438      708.42368    
     49800  -154541.95      918.30924     -153623.64      192.93821      193.91227      708.70739    
     49900  -154488.82      921.0022      -153567.82      192.91944      193.89602      708.9911     
     50000  -154437.51      926.01211     -153511.5       192.90116      193.88063      709.27481    
     50100  -154395.18      926.31424     -153468.86      192.88496      193.86585      709.55852    
     50200  -154351.62      921.54025     -153430.08      192.86795      193.84888      709.84223    
     50300  -154299.7       918.22693     -153381.48      192.85358      193.83131      710.12594    
     50400  -154254.13      923.2185      -153330.91      192.84349      193.81617      710.40965    
     50500  -154203.26      919.14364     -153284.11      192.83493      193.80066      710.69336    
     50600  -154156.57      913.33345     -153243.24      192.82469      193.78322      710.97707    
     50700  -154110.07      914.20752     -153195.86      192.81311      193.76632      711.26078    
     50800  -154053.03      918.65703     -153134.38      192.80353      193.75156      711.54449    
     50900  -154000.19      922.83374     -153077.35      192.79375      193.73706      711.8282     
     51000  -153953.72      921.40981     -153032.31      192.78279      193.72135      712.1119     
     51100  -153910.11      920.23198     -152989.88      192.77431      193.70626      712.39561    
     51200  -153860.04      917.11768     -152942.92      192.76525      193.69277      712.67932    
     51300  -153814.54      921.34989     -152893.19      192.75449      193.67765      712.96303    
     51400  -153764.08      922.68651     -152841.39      192.73977      193.66173      713.24674    
     51500  -153709.09      924.90395     -152784.18      192.72483      193.64565      713.53045    
     51600  -153661.49      927.2922      -152734.2       192.71319      193.63174      713.81416    
     51700  -153615.02      920.25487     -152694.77      192.70051      193.61826      714.09787    
     51800  -153566.35      916.40067     -152649.95      192.68697      193.60262      714.38158    
     51900  -153521.66      922.93485     -152598.73      192.67428      193.58937      714.66529    
     52000  -153470.76      924.89277     -152545.87      192.66239      193.57776      714.949      
     52100  -153419.04      920.79566     -152498.24      192.64682      193.56242      715.23271    
     52200  -153376.65      918.79056     -152457.86      192.63008      193.54729      715.51642    
     52300  -153322.31      912.40052     -152409.91      192.61511      193.53464      715.80013    
     52400  -153273.11      918.40091     -152354.71      192.59913      193.52125      716.08384    
     52500  -153220.97      927.94617     -152293.02      192.58261      193.50729      716.36755    
     52600  -153176.63      932.30073     -152244.33      192.56633      193.49345      716.65126    
     52700  -153130.79      922.94288     -152207.85      192.54851      193.47677      716.93497    
     52800  -153081.46      921.0588      -152160.4       192.53084      193.45974      717.21868    
     52900  -153026.86      913.99892     -152112.86      192.51333      193.44389      717.50239    
     53000  -152984.2       918.84879     -152065.35      192.49616      193.42768      717.7861     
     53100  -152938.43      920.19226     -152018.24      192.48089      193.41241      718.06981    
     53200  -152886.41      915.20907     -151971.2       192.46922      193.39882      718.35352    
     53300  -152834.54      913.57186     -151920.97      192.45804      193.38301      718.63723    
     53400  -152778.8       918.6637      -151860.14      192.44662      193.36567      718.92094    
     53500  -152729.97      926.11652     -151803.85      192.43707      193.35003      719.20465    
     53600  -152683.85      923.37556     -151760.47      192.42598      193.33483      719.48836    
     53700  -152637.79      921.59519     -151716.2       192.41291      193.31913      719.77207    
     53800  -152588.13      922.80898     -151665.32      192.40044      193.30428      720.05578    
     53900  -152537.3       920.31773     -151616.99      192.38938      193.28916      720.33949    
     54000  -152490.87      918.3067      -151572.57      192.37834      193.27246      720.6232     
     54100  -152438.17      908.71162     -151529.45      192.36656      193.25568      720.90691    
     54200  -152395.56      914.65116     -151480.91      192.35517      193.24009      721.19062    
     54300  -152334.54      918.63243     -151415.91      192.3428       193.22455      721.47433    
     54400  -152281.44      923.13291     -151358.3       192.32973      193.20845      721.75804    
     54500  -152232.38      919.89595     -151312.49      192.31665      193.19117      722.04175    
     54600  -152191.71      922.408       -151269.3       192.30305      193.17442      722.32546    
     54700  -152140.41      919.9201      -151220.49      192.29083      193.15987      722.60917    
     54800  -152096.34      923.38973     -151172.96      192.27787      193.14634      722.89288    
     54900  -152045.77      917.32412     -151128.45      192.26286      193.13138      723.17659    
     55000  -151997.31      911.38646     -151085.92      192.24977      193.1165       723.4603     
     55100  -151948.93      914.35707     -151034.58      192.23671      193.09996      723.74401    
     55200  -151892.59      926.91646     -150965.68      192.22032      193.08059      724.02772    
     55300  -151832.55      920.15984     -150912.39      192.2042       193.06357      724.31143    
     55400  -151791.45      920.29022     -150871.16      192.18843      193.04762      724.59514    
     55500  -151745.28      918.76921     -150826.51      192.1701       193.02971      724.87885    
     55600  -151696.43      916.51901     -150779.91      192.1537       193.01455      725.16256    
     55700  -151655.74      923.90359     -150731.83      192.13919      193.00051      725.44627    
     55800  -151605.89      922.19013     -150683.7       192.124        192.98271      725.72998    
     55900  -151554.97      913.17703     -150641.79      192.11105      192.96612      726.01369    
     56000  -151509.62      915.92637     -150593.7       192.09895      192.94932      726.2974     
     56100  -151449.42      917.30432     -150532.12      192.08418      192.93098      726.58111    
     56200  -151394.31      923.35916     -150470.95      192.07253      192.91759      726.86482    
     56300  -151342.54      920.89215     -150421.65      192.06205      192.90472      727.14853    
     56400  -151302.87      925.93095     -150376.93      192.04907      192.89127      727.43224    
     56500  -151247.09      917.58068     -150329.51      192.03613      192.87901      727.71595    
     56600  -151197.35      918.72114     -150278.63      192.02158      192.86351      727.99966    
     56700  -151146.15      916.76167     -150229.39      192.00596      192.84852      728.28337    
     56800  -151108.61      919.52047     -150189.09      191.99247      192.83626      728.56708    
     56900  -151051.08      915.86809     -150135.21      191.9777       192.82459      728.85079    
     57000  -151000.6       925.22326     -150075.37      191.96193      192.81302      729.1345     
     57100  -150945.03      925.12748     -150019.9       191.94575      192.80095      729.41821    
     57200  -150896.39      917.69859     -149978.69      191.92673      192.78677      729.70192    
     57300  -150854.38      923.39417     -149930.99      191.90746      192.77196      729.98563    
     57400  -150797.06      922.09975     -149874.96      191.88964      192.75808      730.26934    
     57500  -150741.22      925.66871     -149815.56      191.87112      192.74278      730.55305    
     57600  -150684.74      920.32016     -149764.42      191.85536      192.7273       730.83676    
     57700  -150644.72      921.28682     -149723.43      191.84094      192.71426      731.12047    
     57800  -150598.51      925.2123      -149673.3       191.82389      192.6994       731.40418    
     57900  -150544.4       921.8573      -149622.54      191.80628      192.6838       731.68789    
     58000  -150493.53      923.00516     -149570.52      191.79212      192.6712       731.9716     
     58100  -150440.67      915.37889     -149525.29      191.77668      192.65477      732.25531    
     58200  -150388.59      911.64589     -149476.95      191.75947      192.63735      732.53902    
     58300  -150340.42      921.11786     -149419.3       191.74402      192.62207      732.82273    
     58400  -150285.51      923.55306     -149361.96      191.72871      192.60562      733.10644    
     58500  -150239.22      921.82729     -149317.4       191.71314      192.58881      733.39015    
     58600  -150189.66      918.40698     -149271.25      191.69811      192.57196      733.67386    
     58700  -150140.62      924.47682     -149216.14      191.68359      192.55554      733.95757    
     58800  -150083.4       922.04068     -149161.36      191.67026      192.54167      734.24128    
     58900  -150031.83      920.23941     -149111.59      191.65562      192.52609      734.52499    
     59000  -149979.16      914.78194     -149064.38      191.64244      192.51029      734.8087     
     59100  -149925.93      915.37271     -149010.56      191.63211      192.49628      735.09241    
     59200  -149884.51      928.27927     -148956.23      191.61836      192.47899      735.37612    
     59300  -149828.47      913.76828     -148914.7       191.60386      192.46004      735.65983    
     59400  -149776.59      915.11678     -148861.47      191.59256      192.44553      735.94354    
     59500  -149720.24      919.02288     -148801.21      191.57736      192.42911      736.22725    
     59600  -149668.69      927.58351     -148741.11      191.56195      192.41385      736.51096    
     59700  -149613.31      920.48493     -148692.82      191.54599      192.4001       736.79467    
     59800  -149563.17      917.59022     -148645.58      191.53004      192.38542      737.07838    
     59900  -149516.34      922.97502     -148593.36      191.51585      192.37346      737.36209    
     60000  -149462.64      918.9661      -148543.67      191.49805      192.35917      737.6458     
     60100  -149407.3       914.76557     -148492.54      191.47816      192.34448      737.92951    
     60200  -149356.14      917.90207     -148438.23      191.46284      192.33433      738.21322    
     60300  -149301.27      907.68553     -148393.59      191.4435       192.31936      738.49693    
     60400  -149254.04      912.64609     -148341.39      191.42524      192.30301      738.78064    
     60500  -149202.06      922.70231     -148279.36      191.41261      192.29105      739.06435    
     60600  -149148.74      926.87588     -148221.86      191.39511      192.27429      739.34806    
     60700  -149093.72      919.05272     -148174.66      191.37796      192.25643      739.63177    
     60800  -149042.32      918.24477     -148124.08      191.36327      192.24157      739.91548    
     60900  -148989.56      919.358       -148070.21      191.34407      192.22141      740.19919    
     61000  -148936.41      919.54785     -148016.86      191.32723      192.20336      740.4829     
     61100  -148885.89      921.13341     -147964.76      191.31285      192.18941      740.76661    
     61200  -148836.64      922.20095     -147914.44      191.29556      192.17205      741.05032    
     61300  -148779.33      923.19628     -147856.14      191.27952      192.15552      741.33403    
     61400  -148719.99      919.78154     -147800.21      191.26457      192.1401       741.61774    
     61500  -148671.99      921.8048      -147750.19      191.2497       192.12473      741.90145    
     61600  -148619.78      922.57032     -147697.21      191.23471      192.1114       742.18516    
     61700  -148563.64      923.78831     -147639.85      191.21801      192.09842      742.46887    
     61800  -148506.98      923.67711     -147583.31      191.20254      192.08759      742.75258    
     61900  -148459.66      925.85945     -147533.8       191.18818      192.0764       743.03629    
     62000  -148399.06      920.4651      -147478.6       191.17246      192.06068      743.32       
     62100  -148347.62      927.25074     -147420.37      191.15821      192.04516      743.60371    
     62200  -148291.09      924.80958     -147366.28      191.14231      192.02936      743.88742    
     62300  -148236.79      922.42632     -147314.36      191.12493      192.01434      744.17113    
     62400  -148175.73      918.25946     -147257.47      191.11051      192.00056      744.45484    
     62500  -148121.98      920.14553     -147201.84      191.09282      191.98335      744.73855    
     62600  -148067.62      922.72886     -147144.89      191.07532      191.96597      745.02226    
     62700  -148014.44      926.11427     -147088.32      191.0599       191.94989      745.30597    
     62800  -147957.13      925.05082     -147032.08      191.04209      191.93244      745.58968    
     62900  -147903.39      925.93061     -146977.46      191.02628      191.91717      745.87339    
     63000  -147850.57      927.8938      -146922.68      191.01178      191.90284      746.1571     
     63100  -147794.25      926.38171     -146867.87      190.99577      191.8877       746.44081    
     63200  -147728.89      918.26249     -146810.63      190.9814       191.87269      746.72452    
     63300  -147677.68      923.70505     -146753.98      190.96784      191.85569      747.00823    
     63400  -147616.69      920.87232     -146695.82      190.95391      191.83782      747.29194    
     63500  -147558.72      922.35178     -146636.37      190.94366      191.82189      747.57565    
     63600  -147509.77      929.74443     -146580.02      190.93072      191.8046       747.85936    
     63700  -147451.03      927.38947     -146523.64      190.91494      191.78684      748.14307    
     63800  -147393.35      925.46191     -146467.88      190.8998       191.7695       748.42677    
     63900  -147333.19      922.53381     -146410.65      190.88303      191.75065      748.71048    
     64000  -147272.91      920.11002     -146352.8       190.86724      191.7321       748.99419    
     64100  -147218.14      923.31211     -146294.83      190.85315      191.71462      749.2779     
     64200  -147161.39      925.18916     -146236.2       190.83802      191.6982       749.56161    
     64300  -147099.3       922.54431     -146176.76      190.82135      191.68176      749.84532    
     64400  -147047.08      929.99314     -146117.09      190.8023       191.66526      750.12903    
     64500  -146983.1       922.68049     -146060.42      190.78324      191.65142      750.41274    
     64600  -146921.88      919.94623     -146001.94      190.76494      191.63809      750.69645    
     64700  -146866.03      923.03638     -145943         190.748        191.62602      750.98016    
     64800  -146804.53      921.27486     -145883.26      190.73388      191.61578      751.26387    
     64900  -146745.05      921.47816     -145823.57      190.71803      191.60226      751.54758    
     65000  -146685.19      922.65097     -145762.54      190.70129      191.58701      751.83129    
     65100  -146620.15      917.72602     -145702.42      190.68591      191.57284      752.115      
     65200  -146564.88      922.77627     -145642.11      190.66917      191.55807      752.39871    
     65300  -146502.44      920.56826     -145581.87      190.6525       191.54442      752.68242    
     65400  -146447.33      926.56112     -145520.77      190.63839      191.53057      752.96613    
     65500  -146387.62      927.20074     -145460.42      190.62255      191.51439      753.24984    
     65600  -146328.76      929.62692     -145399.13      190.60562      191.49791      753.53355    
     65700  -146258.56      921.08206     -145337.48      190.58857      191.48192      753.81726    
     65800  -146201.62      926.06892     -145275.55      190.57079      191.46891      754.10097    
     65900  -146144.53      930.49082     -145214.04      190.55294      191.45606      754.38468    
     66000  -146073.88      921.77175     -145152.11      190.53453      191.44282      754.66839    
     66100  -146009.46      920.51686     -145088.94      190.51742      191.4289       754.9521     
     66200  -145950.23      924.83909     -145025.39      190.49852      191.41496      755.23581    
     66300  -145885.62      924.61778     -144961.01      190.47951      191.39954      755.51952    
     66400  -145821.82      923.24191     -144898.57      190.46302      191.38602      755.80323    
     66500  -145760.53      926.54764     -144833.98      190.44643      191.37192      756.08694    
     66600  -145692.2       922.71454     -144769.49      190.43003      191.35576      756.37065    
     66700  -145638.7       932.57036     -144706.13      190.41494      191.33973      756.65436    
     66800  -145572.65      930.57167     -144642.08      190.40059      191.32338      756.93807    
     66900  -145505.11      927.93291     -144577.18      190.38507      191.30619      757.22178    
     67000  -145431.27      918.90898     -144512.36      190.36912      191.28926      757.50549    
     67100  -145368.76      922.93554     -144445.82      190.355        191.27317      757.7892     
     67200  -145307.5       926.47683     -144381.02      190.33912      191.25646      758.07291    
     67300  -145239.22      924.95313     -144314.27      190.32216      191.24008      758.35662    
     67400  -145170.87      923.63009     -144247.24      190.30523      191.22563      758.64033    
     67500  -145101.53      920.47548     -144181.06      190.28585      191.20846      758.92404    
     67600  -145032.03      920.41069     -144111.62      190.26788      191.19374      759.20775    
     67700  -144969.93      924.14822     -144045.78      190.25238      191.17989      759.49146    
     67800  -144905.69      925.454       -143980.24      190.23572      191.16551      759.77517    
     67900  -144831.44      919.02569     -143912.41      190.21922      191.1514       760.05888    
     68000  -144770.32      926.15341     -143844.17      190.20351      191.13591      760.34259    
     68100  -144700.86      923.99461     -143776.87      190.18979      191.12165      760.6263     
     68200  -144637.62      927.34318     -143710.28      190.17738      191.10683      760.91001    
     68300  -144563.01      921.73912     -143641.27      190.16382      191.08969      761.19372    
     68400  -144493.12      922.82355     -143570.3       190.14943      191.07329      761.47743    
     68500  -144427.99      926.31533     -143501.67      190.13495      191.05662      761.76114    
     68600  -144350.51      918.47208     -143432.04      190.1191       191.03844      762.04485    
     68700  -144290.07      927.29347     -143362.77      190.10399      191.02034      762.32856    
     68800  -144222.91      931.82667     -143291.08      190.08802      191.00291      762.61227    
     68900  -144138.77      918.33274     -143220.44      190.07106      190.98753      762.89598    
     69000  -144079         929.77969     -143149.22      190.05162      190.97214      763.17969    
     69100  -144009.04      930.31066     -143078.73      190.03238      190.95651      763.4634     
     69200  -143934.7       926.27265     -143008.42      190.0158       190.94187      763.74711    
     69300  -143860.54      922.96918     -142937.57      189.99836      190.92651      764.03082    
     69400  -143786.11      920.71253     -142865.39      189.98108      190.91271      764.31453    
     69500  -143724.5       931.66789     -142792.84      189.96587      190.90112      764.59824    
     69600  -143655.12      935.14016     -142719.98      189.94785      190.88891      764.88195    
     69700  -143576.05      929.59281     -142646.46      189.92859      190.87457      765.16566    
     69800  -143497.35      926.34249     -142571.01      189.91108      190.85878      765.44937    
     69900  -143428.42      932.15137     -142496.27      189.89405      190.84371      765.73308    
     70000  -143355.52      934.36414     -142421.15      189.87745      190.82756      766.01679    
     70100  -143279.18      931.25746     -142347.92      189.85898      190.81027      766.3005     
     70200  -143205.88      931.94652     -142273.94      189.84066      190.79268      766.58421    
     70300  -143135.87      934.29668     -142201.57      189.82441      190.77588      766.86792    
     70400  -143057.49      932.69784     -142124.79      189.80776      190.75823      767.15163    
     70500  -142983.36      932.39368     -142050.96      189.79226      190.74141      767.43534    
     70600  -142910.95      938.31871     -141972.63      189.77794      190.72568      767.71905    
     70700  -142833.24      936.94568     -141896.29      189.76324      190.70903      768.00276    
     70800  -142751.33      930.54716     -141820.79      189.74728      190.69377      768.28647    
     70900  -142678.86      936.28004     -141742.58      189.73375      190.6806       768.57018    
     71000  -142603.27      940.20074     -141663.07      189.71942      190.66772      768.85389    
     71100  -142518.04      931.97239     -141586.07      189.70366      190.6533       769.1376     
     71200  -142438.36      929.49496     -141508.87      189.68785      190.63926      769.42131    
     71300  -142368.57      938.33029     -141430.24      189.67         190.62525      769.70502    
     71400  -142287.72      938.29154     -141349.43      189.65047      190.60778      769.98873    
     71500  -142211.22      940.58859     -141270.63      189.63286      190.59368      770.27244    
     71600  -142138.63      946.72532     -141191.9       189.6144       190.57778      770.55615    
     71700  -142050.07      937.18436     -141112.88      189.59561      190.55966      770.83986    
     71800  -141975.29      942.51569     -141032.77      189.58014      190.54289      771.12357    
     71900  -141889.73      939.66362     -140950.06      189.565        190.52436      771.40728    
     72000  -141824.63      957.54431     -140867.08      189.55083      190.50669      771.69099    
     72100  -141741.92      954.7282      -140787.19      189.5367       190.49037      771.9747     
     72200  -141653.23      947.39234     -140705.83      189.52084      190.47364      772.25841    
     72300  -141576.15      947.28151     -140628.87      189.50636      190.45723      772.54212    
     72400  -141494.14      947.90623     -140546.24      189.49021      190.43962      772.82583    
     72500  -141406.12      944.73305     -140461.39      189.47365      190.42062      773.10954    
     72600  -141327.02      948.31163     -140378.71      189.45813      190.4036       773.39325    
     72700  -141244.73      947.87989     -140296.85      189.44075      190.38557      773.67696    
     72800  -141170.74      959.38944     -140211.35      189.42323      190.36817      773.96067    
     72900  -141078.95      956.26674     -140122.68      189.40668      190.35107      774.24438    
     73000  -140993.97      959.182       -140034.79      189.38987      190.33332      774.52809    
     73100  -140912.87      964.66345     -139948.21      189.37438      190.31568      774.8118     
     73200  -140822.38      959.49737     -139862.88      189.3594       190.30039      775.09551    
     73300  -140747.5       969.32418     -139778.18      189.34265      190.28527      775.37922    
     73400  -140652.53      963.10644     -139689.42      189.32576      190.27139      775.66293    
     73500  -140559.51      961.13741     -139598.37      189.30911      190.25735      775.94664    
     73600  -140478.63      965.12115     -139513.51      189.29346      190.24133      776.23035    
     73700  -140391.11      972.45495     -139418.66      189.27865      190.22582      776.51406    
     73800  -140307.95      975.75689     -139332.19      189.26419      190.20929      776.79777    
     73900  -140220.82      971.26506     -139249.56      189.24855      190.19186      777.08148    
     74000  -140138.7       977.2551      -139161.44      189.23164      190.17412      777.36519    
     74100  -140058.2       986.03715     -139072.17      189.21573      190.15716      777.6489     
     74200  -139957.22      982.41302     -138974.81      189.19925      190.14031      777.93261    
     74300  -139865.04      982.83863     -138882.2       189.18338      190.12212      778.21632    
     74400  -139782.74      988.59491     -138794.14      189.16839      190.1057       778.50003    
     74500  -139700.76      993.48328     -138707.28      189.15273      190.08878      778.78374    
     74600  -139602.59      995.00765     -138607.58      189.13557      190.07141      779.06745    
     74700  -139511.19      999.06442     -138512.13      189.11831      190.05454      779.35116    
     74800  -139413.35      1004.1463     -138409.2       189.1014       190.03817      779.63487    
     74900  -139314.59      997.4816      -138317.11      189.08467      190.02133      779.91858    
     75000  -139230.18      1012.3892     -138217.79      189.06836      190.00475      780.20229    
     75100  -139143.95      1023.1964     -138120.75      189.05119      189.98766      780.486      
     75200  -139041.91      1019.6628     -138022.25      189.0334       189.97056      780.76971    
     75300  -138943.95      1021.0322     -137922.92      189.01588      189.95335      781.05342    
     75400  -138854.95      1035.9222     -137819.03      188.99992      189.93568      781.33713    
     75500  -138761.95      1045.2136     -137716.74      188.98385      189.91807      781.62084    
     75600  -138657.43      1045.8634     -137611.57      188.96706      189.89931      781.90455    
     75700  -138565.89      1055.2477     -137510.64      188.95063      189.882        782.18826    
     75800  -138460.99      1046.5613     -137414.43      188.93364      189.86627      782.47197    
     75900  -138389.05      1074.6602     -137314.39      188.91558      189.84937      782.75568    
     76000  -138385.77      1149.4849     -137236.28      188.89856      189.83301      783.03939    
     76100  -138750.57      1513.8346     -137236.73      188.88524      189.81778      783.3231     
     76200  -139565.7       2128.4385     -137437.26      188.87767      189.80499      783.60681    
     76300  -141036.49      2934.0358     -138102.45      188.86984      189.79753      783.89052    
     76400  -143363.51      3876.3179     -139487.19      188.86709      189.8005       784.17423    
     76500  -145919.6       4233.377      -141686.22      188.87871      189.81857      784.45794    
     76600  -148575.67      4249.0705     -144326.6       188.8973       189.84596      784.74165    
     76700  -151072.52      4012.6067     -147059.91      188.92117      189.87279      785.02535    
     76800  -153133.48      3525.7134     -149607.76      188.95713      189.9052       785.30906    
     76900  -154584.7       2893.271      -151691.43      188.99336      189.94165      785.59277    
     77000  -155698.14      2406.6686     -153291.47      189.02637      189.97625      785.87648    
     77100  -156631.78      2086.2846     -154545.5       189.06514      190.01721      786.16019    
     77200  -157534.73      1933.8658     -155600.87      189.10399      190.05861      786.4439     
     77300  -158440.69      1856.2732     -156584.41      189.13949      190.09224      786.72761    
     77400  -159274.05      1772.453      -157501.6       189.1764       190.12842      787.01132    
     77500  -160047.06      1690.6431     -158356.42      189.21517      190.16652      787.29503    
     77600  -160753.33      1609.1689     -159144.17      189.25356      190.20341      787.57874    
     77700  -161407.07      1537.065      -159870         189.29297      190.24017      787.86245    
     77800  -162026.27      1481.0618     -160545.21      189.3303       190.27551      788.14616    
     77900  -162605.96      1429.3011     -161176.66      189.36687      190.3114       788.42987    
     78000  -163159.52      1388.8894     -161770.63      189.40239      190.34761      788.71358    
     78100  -163689.1       1355.1182     -162333.98      189.43544      190.38228      788.99729    
     78200  -164196.84      1324.3968     -162872.44      189.46702      190.41499      789.281      
     78300  -164688.76      1299.698      -163389.06      189.49754      190.4482       789.56471    
     78400  -165164.37      1277.0663     -163887.31      189.52903      190.48136      789.84842    
     78500  -165624.44      1256.6688     -164367.77      189.56002      190.51326      790.13213    
     78600  -166071.77      1239.2086     -164832.56      189.58992      190.54371      790.41584    
     78700  -166506.99      1222.2959     -165284.69      189.6199       190.57429      790.69955    
     78800  -166932.51      1208.4013     -165724.1       189.64829      190.60356      790.98326    
     78900  -167349.04      1196.1288     -166152.91      189.6745       190.63055      791.26697    
     79000  -167758.7       1186.4046     -166572.3       189.70039      190.65729      791.55068    
     79100  -168157.49      1174.5717     -166982.92      189.72531      190.68274      791.83439    
     79200  -168530.7       1147.9613     -167382.74      189.74866      190.7066       792.1181     
     79300  -168859.89      1107.6738     -167752.22      189.77291      190.73091      792.40181    
     79400  -169151.07      1067.3872     -168083.68      189.79728      190.75528      792.68552    
     79500  -169409.43      1030.6594     -168378.77      189.8212       190.7788       792.96923    
     79600  -169642.52      1001.9459     -168640.57      189.8459       190.80308      793.25294    
     79700  -169847.38      976.11403     -168871.27      189.87046      190.82736      793.53665    
     79800  -170025.05      953.10257     -169071.95      189.89456      190.85114      793.82036    
     79900  -170175.65      933.38435     -169242.27      189.91926      190.87574      794.10407    
     80000  -170297.89      917.33125     -169380.56      189.94393      190.90001      794.38778    
     80100  -170390.12      905.58757     -169484.53      189.96888      190.92424      794.67149    
     80200  -170450.71      899.02369     -169551.69      189.99541      190.9499       794.9552     
     80300  -170474.96      896.14983     -169578.81      190.02196      190.97558      795.23891    
     80400  -170459.17      896.55156     -169562.61      190.04907      191.00198      795.52262    
     80500  -170411.97      906.24867     -169505.72      190.07539      191.02777      795.80633    
     80600  -170331.7       904.23362     -169427.46      190.09812      191.04966      796.09004    
     80700  -170212.35      881.83702     -169330.52      190.11911      191.0687       796.37375    
     80800  -170066.87      869.82915     -169197.05      190.13873      191.08566      796.65746    
     80900  -169932.51      894.50063     -169038.01      190.14982      191.09387      796.94117    
     81000  -169861.4       962.90873     -168898.49      190.15208      191.09284      797.22488    
     81100  -169818.52      962.80651     -168855.71      190.14677      191.08635      797.50859    
     81200  -169753.02      870.09395     -168882.93      190.14123      191.07781      797.7923     
     81300  -169716.77      878.67819     -168838.1       190.15451      191.08383      798.07601    
     81400  -169678.29      946.484       -168731.8       190.17612      191.09958      798.35972    
     81500  -169621.21      951.18889     -168670.02      190.19142      191.11501      798.64343    
     81600  -169584.31      918.13936     -168666.17      190.20506      191.12566      798.92714    
     81700  -169553.2       892.53369     -168660.66      190.21946      191.13793      799.21085    
     81800  -169521.15      910.39459     -168610.76      190.2434       191.15704      799.49456    
     81900  -169501.08      952.32737     -168548.75      190.26789      191.18277      799.77827    
     82000  -169474.55      940.85006     -168533.7       190.28563      191.21032      800.06198    
     82100  -169449.11      899.08899     -168550.02      190.29492      191.24009      800.34569    
     82200  -169444.14      905.14415     -168539         190.30236      191.27003      800.6294     
     82300  -169434.81      927.16007     -168507.65      190.31381      191.3039       800.91311    
     82400  -169444.03      945.48244     -168498.55      190.32796      191.33591      801.19682    
     82500  -169448.63      917.70486     -168530.93      190.34851      191.3662       801.48053    
     82600  -169462.76      901.38935     -168561.37      190.36609      191.39478      801.76424    
     82700  -169464.85      906.74996     -168558.1       190.38305      191.42069      802.04795    
     82800  -169452.83      917.73657     -168535.09      190.39836      191.44481      802.33166    
     82900  -169431.56      920.82038     -168510.74      190.41664      191.46128      802.61537    
     83000  -169425.68      936.34166     -168489.34      190.43766      191.48223      802.89908    
     83100  -169403.12      918.87754     -168484.25      190.45708      191.5071       803.18279    
     83200  -169414.81      928.66781     -168486.15      190.47113      191.52899      803.4665     
     83300  -169404.35      903.85445     -168500.5       190.48004      191.5553       803.75021    
     83400  -169393.78      901.14096     -168492.64      190.48895      191.58542      804.03392    
     83500  -169394.78      932.50525     -168462.27      190.49568      191.6171       804.31763    
     83600  -169385.85      931.06716     -168454.78      190.5053       191.64558      804.60134    
     83700  -169400.66      923.546       -168477.12      190.51092      191.67013      804.88505    
     83800  -169403.96      898.89773     -168505.06      190.52454      191.70193      805.16876    
     83900  -169417.53      918.5358      -168498.99      190.53368      191.73447      805.45247    
     84000  -169407.16      926.60874     -168480.55      190.54287      191.76144      805.73618    
     84100  -169404.63      927.47725     -168477.15      190.55612      191.79078      806.01989    
     84200  -169413.38      919.10052     -168494.28      190.57533      191.82074      806.3036     
     84300  -169418.37      906.20161     -168512.17      190.59565      191.84505      806.58731    
     84400  -169414.12      909.63089     -168504.49      190.62071      191.8716       806.87102    
     84500  -169411.18      930.69813     -168480.49      190.64866      191.90048      807.15473    
     84600  -169392.57      925.63089     -168466.94      190.67597      191.93337      807.43844    
     84700  -169405.34      930.37254     -168474.97      190.70381      191.9678       807.72215    
     84800  -169406.16      908.33602     -168497.83      190.73384      191.99788      808.00586    
     84900  -169415.46      908.86981     -168506.59      190.76956      192.03676      808.28957    
     85000  -169413.48      917.76734     -168495.72      190.80343      192.07358      808.57328    
     85100  -169401.45      923.12498     -168478.32      190.82839      192.104        808.85699    
     85200  -169403.3       931.98005     -168471.32      190.85116      192.13598      809.1407     
     85300  -169404.8       918.65775     -168486.14      190.87357      192.16617      809.42441    
     85400  -169409.84      906.91192     -168502.92      190.90466      192.19555      809.70812    
     85500  -169409.53      906.28999     -168503.24      190.94215      192.22986      809.99183    
     85600  -169401.64      917.58686     -168484.05      190.97821      192.25715      810.27554    
     85700  -169398.81      934.69431     -168464.11      191.00951      192.277        810.55925    
     85800  -169396.28      924.32468     -168471.96      191.03915      192.29876      810.84296    
     85900  -169406.15      910.57068     -168495.58      191.06615      192.32412      811.12667    
     86000  -169415.29      911.7484      -168503.54      191.09273      192.34762      811.41038    
     86100  -169409.6       920.83779     -168488.76      191.12236      192.36831      811.69409    
     86200  -169408.84      934.56846     -168474.27      191.14809      192.39099      811.9778     
     86300  -169415.94      929.74582     -168486.19      191.17164      192.41507      812.26151    
     86400  -169424.34      914.28516     -168510.05      191.19749      192.44172      812.54522    
     86500  -169421.09      901.33541     -168519.76      191.2234       192.47514      812.82893    
     86600  -169415.12      911.30255     -168503.82      191.24996      192.50848      813.11264    
     86700  -169405.13      930.72563     -168474.41      191.27454      192.5348       813.39635    
     86800  -169405.01      944.15818     -168460.85      191.29308      192.55257      813.68006    
     86900  -169405         920.23933     -168484.76      191.30624      192.56799      813.96377    
     87000  -169424.32      911.20809     -168513.12      191.32133      192.58336      814.24748    
     87100  -169434.95      910.29365     -168524.66      191.34513      192.60595      814.53119    
     87200  -169422.13      901.51879     -168520.61      191.36491      192.62292      814.8149     
     87300  -169405.82      913.10188     -168492.72      191.38572      192.64096      815.09861    
     87400  -169403.42      940.75312     -168462.67      191.41248      192.66384      815.38232    
     87500  -169411.8       939.06742     -168472.73      191.44036      192.68499      815.66603    
     87600  -169425.22      908.58946     -168516.63      191.46539      192.70373      815.94974    
     87700  -169438.22      895.94007     -168542.28      191.4819       192.72247      816.23345    
     87800  -169434.25      909.56338     -168524.69      191.49763      192.74381      816.51716    
     87900  -169421.43      933.37366     -168488.06      191.51774      192.76615      816.80087    
     88000  -169406.2       936.95812     -168469.24      191.53858      192.78177      817.08458    
     88100  -169415.06      927.94697     -168487.11      191.55538      192.79627      817.36829    
     88200  -169427.58      908.59488     -168518.99      191.57565      192.81582      817.652      
     88300  -169426.85      898.64775     -168528.2       191.59635      192.84064      817.93571    
     88400  -169425.5       922.12139     -168503.38      191.62315      192.8678       818.21942    
     88500  -169406.71      931.17464     -168475.53      191.64873      192.89051      818.50313    
     88600  -169401.92      933.42992     -168468.49      191.67011      192.91336      818.78684    
     88700  -169403.83      920.90421     -168482.92      191.69059      192.94227      819.07055    
     88800  -169415.93      911.30235     -168504.63      191.70831      192.96803      819.35426    
     88900  -169413.89      910.41298     -168503.47      191.72681      192.99485      819.63797    
     89000  -169403.62      920.53273     -168483.09      191.74499      193.02268      819.92168    
     89100  -169396.99      928.13289     -168468.86      191.76318      193.05088      820.20539    
     89200  -169398.48      921.27868     -168477.2       191.78767      193.08758      820.4891     
     89300  -169403.19      907.67783     -168495.51      191.80927      193.12566      820.77281    
     89400  -169408.16      907.26803     -168500.89      191.82752      193.16417      821.05652    
     89500  -169412.61      921.85816     -168490.75      191.84828      193.20797      821.34023    
     89600  -169402.75      922.02091     -168480.73      191.86313      193.2486       821.62393    
     89700  -169406.14      924.08164     -168482.05      191.86922      193.28551      821.90764    
     89800  -169408.88      915.55477     -168493.33      191.87479      193.32567      822.19135    
     89900  -169413.91      916.51482     -168497.4       191.87536      193.36961      822.47506    
     90000  -169408.94      918.768       -168490.18      191.87509      193.41115      822.75877    
     90100  -169397.76      920.40351     -168477.36      191.87869      193.45194      823.04248    
     90200  -169401.46      932.75868     -168468.7       191.88257      193.50082      823.32619    
     90300  -169400.25      920.8671      -168479.38      191.88184      193.55002      823.6099     
     90400  -169412.48      918.01831     -168494.47      191.87266      193.59648      823.89361    
     90500  -169399.88      906.90535     -168492.97      191.86321      193.64451      824.17732    
     90600  -169382.91      915.01447     -168467.89      191.85744      193.696        824.46103    
     90700  -169377.51      938.75176     -168438.76      191.85279      193.7551       824.74474    
     90800  -169389.65      942.55312     -168447.1       191.84256      193.81225      825.02845    
     90900  -169398.8       909.52095     -168489.28      191.82854      193.86826      825.31216    
     91000  -169417.11      900.68279     -168516.42      191.81257      193.92124      825.59587    
     91100  -169407.13      902.93095     -168504.2       191.79445      193.96955      825.87958    
     91200  -169383.6       922.08566     -168461.51      191.77325      194.01324      826.16329    
     91300  -169373.73      958.53722     -168415.19      191.74923      194.05554      826.447      
     91400  -169371.62      930.27757     -168441.34      191.72819      194.09604      826.73071    
     91500  -169397.31      900.9694      -168496.34      191.7075       194.13457      827.01442    
     91600  -169412.11      890.7119      -168521.4       191.6839       194.17591      827.29813    
     91700  -169400.74      913.03203     -168487.71      191.66119      194.21873      827.58184    
     91800  -169378.31      943.49822     -168434.81      191.64231      194.26125      827.86555    
     91900  -169366.99      944.32097     -168422.67      191.62449      194.2967       828.14926    
     92000  -169380.08      920.61241     -168459.47      191.60401      194.32784      828.43297    
     92100  -169393.22      894.61572     -168498.6       191.58622      194.35956      828.71668    
     92200  -169398.67      896.51621     -168502.16      191.56868      194.38344      829.00039    
     92300  -169386.06      917.84093     -168468.22      191.55563      194.40307      829.2841     
     92400  -169366.39      934.44327     -168431.95      191.54718      194.41761      829.56781    
     92500  -169370.06      939.14311     -168430.91      191.54245      194.43148      829.85152    
     92600  -169381.91      918.53617     -168463.37      191.54276      194.44352      830.13523    
     92700  -169397.31      907.39085     -168489.92      191.54584      194.45469      830.41894    
     92800  -169396.15      907.11511     -168489.04      191.55293      194.46458      830.70265    
     92900  -169389.39      924.56324     -168464.83      191.56387      194.47062      830.98636    
     93000  -169379.73      937.36694     -168442.36      191.57512      194.47148      831.27007    
     93100  -169369.5       924.02924     -168445.47      191.58209      194.46804      831.55378    
     93200  -169385.99      918.31545     -168467.68      191.59017      194.46519      831.83749    
     93300  -169389.88      906.28666     -168483.59      191.60154      194.46169      832.1212     
     93400  -169386.47      905.8848      -168480.58      191.61506      194.4536       832.40491    
     93500  -169382.72      920.56595     -168462.15      191.63048      194.44243      832.68862    
     93600  -169383.39      935.3267      -168448.06      191.64518      194.42975      832.97233    
     93700  -169384.78      928.48628     -168456.29      191.66223      194.41303      833.25604    
     93800  -169393.68      914.42273     -168479.25      191.68251      194.39068      833.53975    
     93900  -169400.77      908.04604     -168492.72      191.70611      194.3626       833.82346    
     94000  -169386.79      907.22747     -168479.56      191.73373      194.33684      834.10717    
     94100  -169384         928.82476     -168455.18      191.76592      194.31077      834.39088    
     94200  -169385.47      935.53902     -168449.93      191.79814      194.2824       834.67459    
     94300  -169391.5       920.3609      -168471.14      191.827        194.25117      834.9583     
     94400  -169401.15      904.36676     -168496.79      191.85706      194.21652      835.24201    
     94500  -169405.83      907.63069     -168498.2       191.89199      194.17937      835.52572    
     94600  -169393.98      919.18029     -168474.8       191.92943      194.13961      835.80943    
     94700  -169389.21      937.54024     -168451.67      191.96551      194.09623      836.09314    
     94800  -169380.95      928.56768     -168452.39      192.00909      194.04903      836.37685    
     94900  -169389.84      914.6726      -168475.17      192.05493      194.00191      836.66056    
     95000  -169407.99      910.45829     -168497.53      192.09991      193.95442      836.94427    
     95100  -169402.84      906.70853     -168496.13      192.15219      193.90856      837.22798    
     95200  -169406.4       932.53247     -168473.87      192.20882      193.86137      837.51169    
     95300  -169387.86      927.7758      -168460.08      192.2662       193.81022      837.7954     
     95400  -169397.72      933.70305     -168464.01      192.33101      193.75909      838.07911    
     95500  -169400.13      917.95001     -168482.18      192.39708      193.70337      838.36282    
     95600  -169412.91      917.79892     -168495.11      192.4584       193.64124      838.64653    
     95700  -169409.1       916.31587     -168492.78      192.51939      193.57134      838.93024    
     95800  -169396.5       917.7289      -168478.77      192.5791       193.4953       839.21395    
     95900  -169399.76      933.35179     -168466.41      192.64283      193.42098      839.49766    
     96000  -169399.33      930.05124     -168469.28      192.70902      193.35467      839.78137    
     96100  -169404.46      914.84279     -168489.61      192.77131      193.29132      840.06508    
     96200  -169420.87      913.27197     -168507.6       192.83419      193.23306      840.34879    
     96300  -169418.83      914.93278     -168503.9       192.89776      193.17834      840.6325     
     96400  -169404.4       919.47152     -168484.93      192.95717      193.12434      840.91621    
     96500  -169406.87      932.29888     -168474.57      193.01319      193.06733      841.19992    
     96600  -169406.71      919.58666     -168487.12      193.0676       193.00888      841.48363    
     96700  -169426.28      912.48256     -168513.79      193.11986      192.95429      841.76734    
     96800  -169433.48      908.00327     -168525.48      193.17186      192.9034       842.05105    
     96900  -169428.66      913.76631     -168514.89      193.22909      192.85642      842.33476    
     97000  -169422.16      926.17686     -168495.98      193.28156      192.80889      842.61847    
     97100  -169425.59      931.51317     -168494.08      193.32926      192.75406      842.90218    
     97200  -169439.92      927.94626     -168511.97      193.37305      192.69435      843.18589    
     97300  -169451.48      917.56194     -168533.92      193.41105      192.63225      843.4696     
     97400  -169451.63      907.91916     -168543.71      193.44309      192.57604      843.75331    
     97500  -169444.62      907.65629     -168536.96      193.47842      192.52293      844.03702    
     97600  -169447.34      923.93279     -168523.4       193.51821      192.47416      844.32073    
     97700  -169443.96      921.28258     -168522.67      193.55957      192.42813      844.60444    
     97800  -169459.3       922.95615     -168536.34      193.59781      192.38259      844.88815    
     97900  -169473.37      921.20161     -168552.17      193.64031      192.3405       845.17186    
     98000  -169473.36      915.19613     -168558.16      193.6827       192.3004       845.45557    
     98100  -169466.58      914.21685     -168552.36      193.71825      192.25793      845.73928    
     98200  -169474.99      930.45301     -168544.54      193.75862      192.21792      846.02299    
     98300  -169475.44      925.94424     -168549.5       193.80175      192.1784       846.3067     
     98400  -169480.68      916.23632     -168564.45      193.83953      192.13923      846.59041    
     98500  -169479.27      903.21214     -168576.06      193.87928      192.10624      846.87412    
     98600  -169489.49      915.91224     -168573.58      193.91472      192.07047      847.15783    
     98700  -169476.31      917.43882     -168558.87      193.94374      192.03588      847.44154    
     98800  -169475.44      931.1565      -168544.29      193.97267      192.00504      847.72525    
     98900  -169480.13      934.70246     -168545.43      193.99777      191.97566      848.00896    
     99000  -169485.19      916.67254     -168568.51      194.02044      191.94993      848.29267    
     99100  -169498.46      906.92309     -168591.54      194.04065      191.92677      848.57638    
     99200  -169501.64      910.09388     -168591.54      194.04695      191.90395      848.86009    
     99300  -169498.22      924.86935     -168573.35      194.04364      191.8878       849.1438     
     99400  -169487.01      927.18052     -168559.83      194.03744      191.88018      849.42751    
     99500  -169498.53      931.93492     -168566.59      194.02921      191.87364      849.71122    
     99600  -169508.11      918.78739     -168589.32      194.01811      191.87201      849.99493    
     99700  -169515.94      909.79548     -168606.14      194.00159      191.87449      850.27864    
     99800  -169521.28      915.9858      -168605.3       193.98211      191.87316      850.56235    
     99900  -169512.19      922.10056     -168590.09      193.96676      191.87564      850.84606    
    100000  -169503.82      927.9344      -168575.89      193.95406      191.87928      851.12977    
Loop time of 4965.78 on 10 procs for 100000 steps with 23712 atoms

Performance: 1.740 ns/day, 13.794 hours/ns, 20.138 timesteps/s, 477.508 katom-step/s
94.0% CPU use with 10 MPI tasks x 1 OpenMP threads

MPI task timing breakdown:
Section |  min time  |  avg time  |  max time  |%varavg| %total
---------------------------------------------------------------
Pair    | 2910.5     | 3699.3     | 4492       | 790.6 | 74.50
Neigh   | 20.806     | 29.507     | 37.03      |  98.2 |  0.59
Comm    | 88.003     | 849.34     | 1633.5     |1738.4 | 17.10
Output  | 1.199      | 1.2689     | 1.3443     |   4.1 |  0.03
Modify  | 79.052     | 382.65     | 742.03     |1467.7 |  7.71
Other   |            | 3.726      |            |       |  0.08

Nlocal:         2371.2 ave        5110 max        1275 min
Histogram: 3 2 2 0 1 1 0 0 0 1
Nghost:         2580.4 ave        4449 max        1559 min
Histogram: 1 4 0 2 0 0 2 0 0 1
Neighs:              0 ave           0 max           0 min
Histogram: 10 0 0 0 0 0 0 0 0 0

Total # of neighbors = 0
Ave neighs/atom = 0
Neighbor list builds = 847
Dangerous builds = 0
Total wall time: 1:22:47
