LAMMPS (2 Aug 2023 - Update 3)
OMP_NUM_THREADS environment is not set. Defaulting to 1 thread. (src/comm.cpp:98)
  using 1 OpenMP thread(s) per MPI task

# 1------general---------------
units                             metal      #单位为lammps 中的metel 类型
dimension                    3          #模拟的维度 三维
boundary                    p p p      #周期边界条件
atom_style                  atomic   #原子类型自动
atom_modify              map array sort 100 2.0
neighbor                    3.0 bin
neigh_modify            every 1 delay 0 check yes
#2 -----global variable-------定义全局变量，方便统一修改；
variable temperature equal 300
variable tstep equal 0.001
variable pressure equal 0
variable thermalstep equal 100
variable dumpstep equal 1000
variable relaxtime equal 0
variable totaltime equal 100000
variable deformrate equal 5e-3
#3 -------model------------
#box tilt large
read_data     1.lmp
Reading data file ...
  orthogonal box = (-100 -100 -2.3312512) to (100 100 41.316429)
  3 by 4 by 1 MPI processor grid
  reading atoms ...
  1824 atoms
  read_data CPU = 0.016 seconds
replicate 1 1 19
Replication is creating a 1x1x19 = 19 times larger system...
  orthogonal box = (-100 -100 -2.3312512) to (100 100 826.97468)
  1 by 2 by 6 MPI processor grid
  34656 atoms
  replicate CPU = 0.002 seconds
write_data h.data
System init for write_data ...
WARNING: Communication cutoff is 0.0. No ghost atoms will be generated. Atoms may get lost. (src/comm_brick.cpp:210)
pair_style hybrid airebo 3.0 airebo 3.0 airebo 3.0 lj/cut 10
pair_coeff * * airebo 1 CH.airebo C NULL NULL
Reading airebo potential file CH.airebo with DATE: 2011-10-25
pair_coeff * * airebo 2 CH.airebo NULL C NULL
Reading airebo potential file CH.airebo with DATE: 2011-10-25
pair_coeff * * airebo 3 CH.airebo NULL NULL C
Reading airebo potential file CH.airebo with DATE: 2011-10-25
pair_coeff 1 2 lj/cut 0.00456 3.431
pair_coeff 1 3 lj/cut 0.00456 3.431
pair_coeff 2 3 lj/cut 0.00456 3.431

# 5------minimize -----------
min_style      sd
minimize       1.0e-4 1.0e-6 100 1000
Neighbor list info ...
  update: every = 1 steps, delay = 0 steps, check = yes
  max neighbors/atom: 2000, page size: 100000
  master list distance cutoff = 13.2
  ghost atom cutoff = 13.2
  binsize = 6.6, bins = 31 31 126
  6 neighbor lists, perpetual/occasional/extra = 6 0 0
  (1) pair airebo, perpetual, skip from (5)
      attributes: full, newton on, ghost
      pair build: skip/ghost
      stencil: none
      bin: none
  (2) pair airebo, perpetual, skip from (5)
      attributes: full, newton on, ghost
      pair build: skip/ghost
      stencil: none
      bin: none
  (3) pair airebo, perpetual, skip from (5)
      attributes: full, newton on, ghost
      pair build: skip/ghost
      stencil: none
      bin: none
  (4) pair lj/cut, perpetual, skip from (6)
      attributes: half, newton on, cut 13
      pair build: skip
      stencil: none
      bin: none
  (5) neighbor class addition, perpetual
      attributes: full, newton on, ghost
      pair build: full/bin/ghost
      stencil: full/ghost/bin/3d
      bin: standard
  (6) neighbor class addition, perpetual
      attributes: half, newton on, cut 13
      pair build: half/bin/atomonly/newton
      stencil: half/bin/3d
      bin: standard
Per MPI rank memory allocation (min/avg/max) = 20.15 | 20.5 | 20.92 Mbytes
   Step          Temp          E_pair         E_mol          TotEng         Press     
         0   0             -249666.93      0             -249666.93      705.43265    
         4   0             -250518.39      0             -250518.39      93.415916    
Loop time of 0.800003 on 12 procs for 4 steps with 34656 atoms

79.4% CPU use with 12 MPI tasks x 1 OpenMP threads

Minimization stats:
  Stopping criterion = energy tolerance
  Energy initial, next-to-last, final = 
     -249666.928079921   -250497.07179327  -250518.389164484
  Force two-norm initial, final = 301.02022 50.185766
  Force max component initial, final = 3.4318528 0.54749295
  Final line search alpha, max atom move = 0.13695896 0.074984064
  Iterations, force evaluations = 4 8

MPI task timing breakdown:
Section |  min time  |  avg time  |  max time  |%varavg| %total
---------------------------------------------------------------
Pair    | 0.32467    | 0.40724    | 0.64393    |  17.6 | 50.91
Neigh   | 0          | 0          | 0          |   0.0 |  0.00
Comm    | 0.026463   | 0.17947    | 0.35189    |  29.3 | 22.43
Output  | 0          | 0          | 0          |   0.0 |  0.00
Modify  | 0          | 0          | 0          |   0.0 |  0.00
Other   |            | 0.2133     |            |       | 26.66

Nlocal:           2888 ave        2966 max        2803 min
Histogram: 2 4 0 0 0 0 0 0 1 5
Nghost:        3966.17 ave        4054 max        3878 min
Histogram: 3 1 2 0 0 0 0 1 2 3
Neighs:              0 ave           0 max           0 min
Histogram: 12 0 0 0 0 0 0 0 0 0

Total # of neighbors = 0
Ave neighs/atom = 0
Neighbor list builds = 0
Dangerous builds = 0
#6----define computes------
variable nums equal count(all) #计算原子数目
variable toval equal 22.7273*22.7165*lz #计算系统总体积，单层石墨烯厚度为0.335nm
variable vol equal ${toval} #体系的初始体积
variable vol equal 428157.970222812 
variable vatom equal v_vol/v_nums #单个原子体积
compute 1 all stress/atom NULL #计算体系中单原子应力
compute xalls all reduce sum c_1[1]
variable xstress equal (c_xalls)/(v_toval*10000)
compute yalls all reduce sum c_1[2]
variable ystress equal (c_yalls)/(v_toval*10000)
compute zalls all reduce sum c_1[3]
variable zstress equal (c_zalls)/(v_toval*10000)
#7---------relaxation-------------------------
timestep ${tstep}
timestep 0.001
velocity all create ${temperature} 231743 units box dist gaussian
velocity all create 300 231743 units box dist gaussian
dump   1 all atom 100 all-cy.lammpstrj
#fix    1 all npt temp 300 300  0.1 aniso 0 0 10 drag 1  #三个方向独立控压
fix  1 all npt temp ${temperature} ${temperature} 0.1 x ${pressure} ${pressure} 10 y ${pressure} ${pressure} 10
fix  1 all npt temp 300 ${temperature} 0.1 x ${pressure} ${pressure} 10 y ${pressure} ${pressure} 10
fix  1 all npt temp 300 300 0.1 x ${pressure} ${pressure} 10 y ${pressure} ${pressure} 10
fix  1 all npt temp 300 300 0.1 x 0 ${pressure} 10 y ${pressure} ${pressure} 10
fix  1 all npt temp 300 300 0.1 x 0 0 10 y ${pressure} ${pressure} 10
fix  1 all npt temp 300 300 0.1 x 0 0 10 y 0 ${pressure} 10
fix  1 all npt temp 300 300 0.1 x 0 0 10 y 0 0 10
compute  2 all pe/atom
compute  pe all reduce sum c_2
variable PE equal "c_pe"
fix    pe all print 100 "${PE} " file PE.txt screen no
thermo  ${thermalstep}
thermo  100
#thermo_style  custom step pe ke etotal lx ly lz
run   ${relaxtime}
run   0
Per MPI rank memory allocation (min/avg/max) = 20.78 | 21.16 | 21.54 Mbytes
   Step          Temp          E_pair         E_mol          TotEng         Press          Volume    
         4   300           -250518.39      0             -249174.54      136.68684      33172237     
Loop time of 0.00404917 on 12 procs for 0 steps with 34656 atoms

76.4% CPU use with 12 MPI tasks x 1 OpenMP threads

MPI task timing breakdown:
Section |  min time  |  avg time  |  max time  |%varavg| %total
---------------------------------------------------------------
Pair    | 0          | 0          | 0          |   0.0 |  0.00
Neigh   | 0          | 0          | 0          |   0.0 |  0.00
Comm    | 0          | 0          | 0          |   0.0 |  0.00
Output  | 0          | 0          | 0          |   0.0 |  0.00
Modify  | 0          | 0          | 0          |   0.0 |  0.00
Other   |            | 0.004049   |            |       |100.00

Nlocal:           2888 ave        2922 max        2845 min
Histogram: 1 1 0 2 2 1 0 1 2 2
Nghost:           3966 ave        4010 max        3923 min
Histogram: 2 1 1 1 1 1 2 0 2 1
Neighs:              0 ave           0 max           0 min
Histogram: 12 0 0 0 0 0 0 0 0 0

Total # of neighbors = 0
Ave neighs/atom = 0
Neighbor list builds = 0
Dangerous builds = 0
#8 -------tension-----------------------------
unfix  1
undump  1
unfix  pe
reset_timestep 0
fix avestress all ave/atom 1 ${dumpstep} ${dumpstep} c_1[1] c_1[2] c_1[3] c_1[4] c_1[5] c_1[6]
fix avestress all ave/atom 1 1000 ${dumpstep} c_1[1] c_1[2] c_1[3] c_1[4] c_1[5] c_1[6]
fix avestress all ave/atom 1 1000 1000 c_1[1] c_1[2] c_1[3] c_1[4] c_1[5] c_1[6]

#-----calculation of strain and Cumulative compression--------
variable                tmp equal "lz"
variable                L0 equal ${tmp}
variable                L0 equal 829.3059266652
variable                strain equal "(lz - v_L0)/v_L0"
variable                Cumulativels equal "(lz - v_L0)/10"
fix Step all print 100 "${strain} ${Cumulativels} ${zstress}" file grapoten.txt screen no

dump 2 all custom ${dumpstep} tension.xyz type x y z f_avestress[1] f_avestress[2] f_avestress[3] f_avestress[4] f_avestress[5] f_avestress[6]
dump 2 all custom 1000 tension.xyz type x y z f_avestress[1] f_avestress[2] f_avestress[3] f_avestress[4] f_avestress[5] f_avestress[6]

fix  1 all npt temp ${temperature} ${temperature} 0.1 y ${pressure} ${pressure} 10 x ${pressure} ${pressure} 10
fix  1 all npt temp 300 ${temperature} 0.1 y ${pressure} ${pressure} 10 x ${pressure} ${pressure} 10
fix  1 all npt temp 300 300 0.1 y ${pressure} ${pressure} 10 x ${pressure} ${pressure} 10
fix  1 all npt temp 300 300 0.1 y 0 ${pressure} 10 x ${pressure} ${pressure} 10
fix  1 all npt temp 300 300 0.1 y 0 0 10 x ${pressure} ${pressure} 10
fix  1 all npt temp 300 300 0.1 y 0 0 10 x 0 ${pressure} 10
fix  1 all npt temp 300 300 0.1 y 0 0 10 x 0 0 10

thermo_style custom step pe ke etotal lx ly lz
fix   2 all deform 1 z erate ${deformrate} remap x units box
fix   2 all deform 1 z erate 0.005 remap x units box
fix   3 all ave/time 2 500 1000 v_xstress v_ystress v_zstress file pressure.out
run   ${totaltime}
run   100000
WARNING: Dump 2 includes no atom IDs and is not sorted by ID. This may complicate post-processing tasks or visualization (src/dump.cpp:221)
Per MPI rank memory allocation (min/avg/max) = 22.28 | 22.66 | 23.04 Mbytes
   Step         PotEng         KinEng         TotEng           Lx             Ly             Lz      
         0  -250518.39      1343.8531     -249174.54      200            200            829.30593    
       100  -249762.06      670.2199      -249091.84      199.99156      199.9915       829.72058    
       200  -249825.41      841.5786      -248983.83      199.98341      199.98602      830.13523    
       300  -249744.21      887.94569     -248856.26      200.0016       200.00832      830.54989    
       400  -249692.83      975.43666     -248717.4       199.99383      200.00702      830.96454    
       500  -249632.14      1060.1997     -248571.94      199.98353      200.00525      831.37919    
       600  -249561.06      1140.2619     -248420.8       199.99625      200.0256       831.79384    
       700  -249476.52      1203.6034     -248272.91      199.98673      200.02071      832.2085     
       800  -249353         1218.3777     -248134.62      199.96919      200.0062       832.62315    
       900  -249299.36      1287.6945     -248011.66      199.9714       200.00831      833.0378     
      1000  -249212.97      1296.271      -247916.7       199.98008      200.01532      833.45246    
      1100  -249251.88      1378.2778     -247873.6       199.97254      200.00514      833.86711    
      1200  -249232.06      1332.5103     -247899.55      199.98249      200.01233      834.28176    
      1300  -249295.24      1349.245      -247946         199.98573      200.01238      834.69642    
      1400  -249297.68      1331.0602     -247966.62      199.97698      200.0022       835.11107    
      1500  -249304.64      1358.2742     -247946.37      199.97911      200.00193      835.52572    
      1600  -249291.13      1388.2007     -247902.93      199.98295      200.00261      835.94037    
      1700  -249235.85      1364.6847     -247871.16      199.97381      199.99143      836.35503    
      1800  -249243.98      1364.8733     -247879.11      199.97156      199.98657      836.76968    
      1900  -249220.07      1310.7553     -247909.31      199.98147      199.99384      837.18433    
      2000  -249252.3       1324.7255     -247927.58      199.97427      199.98608      837.59899    
      2100  -249223.08      1303.198      -247919.89      199.96805      199.97997      838.01364    
      2200  -249228.72      1337.1235     -247891.6       199.96682      199.97954      838.42829    
      2300  -249203.6       1343.6069     -247859.99      199.96595      199.98036      838.84294    
      2400  -249223.64      1373.4644     -247850.18      199.95743      199.97395      839.2576     
      2500  -249217.49      1349.2673     -247868.23      199.95609      199.97705      839.67225    
      2600  -249225.55      1339.1461     -247886.4       199.95317      199.97968      840.0869     
      2700  -249228.88      1345.7551     -247883.12      199.94192      199.9755       840.50156    
      2800  -249192.96      1337.0081     -247855.95      199.93309      199.97483      840.91621    
      2900  -249196.66      1372.5544     -247824.11      199.92842      199.97923      841.33086    
      3000  -249148.32      1338.9731     -247809.35      199.92243      199.98186      841.74552    
      3100  -249168.02      1351.8467     -247816.18      199.91072      199.97743      842.16017    
      3200  -249146.92      1318.5559     -247828.37      199.9074       199.97805      842.57482    
      3300  -249164.37      1335.5444     -247828.82      199.89813      199.97186      842.98947    
      3400  -249133.34      1322.1827     -247811.15      199.89087      199.96762      843.40413    
      3500  -249127.25      1343.9992     -247783.25      199.88722      199.96476      843.81878    
      3600  -249109.97      1349.873      -247760.09      199.88261      199.96155      844.23343    
      3700  -249114.72      1363.858      -247750.86      199.87398      199.95275      844.64809    
      3800  -249115.65      1356.5347     -247759.12      199.87114      199.94805      845.06274    
      3900  -249112.14      1345.3971     -247766.74      199.86719      199.94312      845.47739    
      4000  -249100.61      1345.2339     -247755.38      199.8594       199.93291      845.89205    
      4100  -249058.41      1335.6536     -247722.75      199.8579       199.92987      846.3067     
      4200  -249048.72      1359.6716     -247689.05      199.85464      199.92487      846.72135    
      4300  -249018.7       1343.9469     -247674.76      199.84871      199.91571      847.136      
      4400  -249029.96      1345.9031     -247684.06      199.84327      199.90746      847.55066    
      4500  -249018.84      1323.3893     -247695.45      199.84081      199.90334      847.96531    
      4600  -249025.28      1335.7948     -247689.49      199.83132      199.89263      848.37996    
      4700  -249002.69      1341.2577     -247661.43      199.82567      199.88548      848.79462    
      4800  -248976.87      1353.0001     -247623.87      199.8226       199.88152      849.20927    
      4900  -248965.56      1363.3724     -247602.19      199.81626      199.87432      849.62392    
      5000  -248954.7       1348.5944     -247606.1       199.80808      199.86477      850.03857    
      5100  -248961.27      1344.4941     -247616.77      199.80043      199.85671      850.45323    
      5200  -248947.21      1335.9198     -247611.29      199.79101      199.84837      850.86788    
      5300  -248930.85      1348.3408     -247582.51      199.77821      199.83914      851.28253    
      5400  -248885.31      1342.9138     -247542.4       199.7681       199.83343      851.69719    
      5500  -248873.12      1359.2108     -247513.91      199.75739      199.82708      852.11184    
      5600  -248854.32      1344.017      -247510.3       199.74674      199.82123      852.52649    
      5700  -248865.92      1344.3879     -247521.53      199.73571      199.81444      852.94115    
      5800  -248856.33      1332.98       -247523.35      199.7248       199.80823      853.3558     
      5900  -248830.95      1331.6051     -247499.35      199.71338      199.80166      853.77045    
      6000  -248806.74      1346.7653     -247459.98      199.70424      199.79811      854.1851     
      6100  -248780.57      1355.1999     -247425.37      199.69292      199.79228      854.59976    
      6200  -248776.21      1363.7548     -247412.45      199.68074      199.78541      855.01441    
      6300  -248756.8       1340.9019     -247415.9       199.67119      199.7806       855.42906    
      6400  -248746.69      1330.6241     -247416.07      199.66054      199.77435      855.84372    
      6500  -248734.06      1337.9625     -247396.1       199.64812      199.765        856.25837    
      6600  -248703.05      1345.2286     -247357.82      199.63624      199.755        856.67302    
      6700  -248668.5       1349.4738     -247319.03      199.62691      199.74676      857.08768    
      6800  -248655.04      1356.4353     -247298.61      199.61516      199.73353      857.50233    
      6900  -248643.75      1345.8418     -247297.91      199.60392      199.72073      857.91698    
      7000  -248629.4       1329.871      -247299.53      199.59512      199.7111       858.33163    
      7100  -248619.57      1331.2633     -247288.31      199.58402      199.69996      858.74629    
      7200  -248588.96      1330.3729     -247258.58      199.57049      199.68888      859.16094    
      7300  -248570.76      1350.8486     -247219.92      199.56017      199.68157      859.57559    
      7400  -248542.97      1349.1471     -247193.82      199.54816      199.67386      859.99025    
      7500  -248534.81      1347.5582     -247187.25      199.53142      199.66144      860.4049     
      7600  -248529.18      1342.9172     -247186.26      199.5167       199.65052      860.81955    
      7700  -248510.22      1336.9569     -247173.26      199.5021       199.64018      861.2342     
      7800  -248476.28      1335.3197     -247140.96      199.48588      199.62769      861.64886    
      7900  -248448.34      1349.4472     -247098.89      199.47022      199.6161       862.06351    
      8000  -248416.28      1349.9372     -247066.34      199.45934      199.60766      862.47816    
      8100  -248412.35      1357.619      -247054.73      199.4491       199.59715      862.89282    
      8200  -248397.9       1342.4778     -247055.42      199.43781      199.58518      863.30747    
      8300  -248386.21      1339.1229     -247047.09      199.42718      199.57302      863.72212    
      8400  -248354.96      1336.6128     -247018.35      199.41647      199.56056      864.13678    
      8500  -248328.09      1351.8195     -246976.27      199.40389      199.54657      864.55143    
      8600  -248297.38      1355.905      -246941.47      199.39027      199.53197      864.96608    
      8700  -248269.41      1349.1551     -246920.26      199.37756      199.51683      865.38073    
      8800  -248256.7       1343.1067     -246913.6       199.36396      199.50219      865.79539    
      8900  -248237.6       1329.7166     -246907.89      199.34894      199.48603      866.21004    
      9000  -248218.65      1330.6411     -246888.01      199.33475      199.46977      866.62469    
      9100  -248191.92      1340.5922     -246851.33      199.31981      199.45548      867.03935    
      9200  -248165.34      1355.971      -246809.37      199.30294      199.43739      867.454      
      9300  -248136.78      1353.771      -246783.01      199.2859       199.42034      867.86865    
      9400  -248118.64      1343.4933     -246775.15      199.27214      199.4044       868.28331    
      9500  -248087.96      1323.3211     -246764.64      199.25917      199.38901      868.69796    
      9600  -248067.06      1330.1986     -246736.86      199.24571      199.37349      869.11261    
      9700  -248040.76      1343.1405     -246697.62      199.23372      199.35784      869.52726    
      9800  -248011.4       1351.0448     -246660.35      199.21904      199.34215      869.94192    
      9900  -247988.04      1352.2881     -246635.75      199.20461      199.32597      870.35657    
     10000  -247963.61      1340.2853     -246623.33      199.1912       199.31344      870.77122    
     10100  -247946.23      1337.662      -246608.57      199.17556      199.2983       871.18588    
     10200  -247924.24      1341.202      -246583.04      199.16059      199.28334      871.60053    
     10300  -247890.77      1344.5576     -246546.21      199.14687      199.26955      872.01518    
     10400  -247858.25      1351.9965     -246506.26      199.1317       199.2526       872.42983    
     10500  -247831.18      1355.0661     -246476.11      199.11504      199.23527      872.84449    
     10600  -247799.95      1343.6708     -246456.28      199.09995      199.21897      873.25914    
     10700  -247775.95      1336.9579     -246439         199.08326      199.20075      873.67379    
     10800  -247756.44      1343.5972     -246412.85      199.06707      199.18405      874.08845    
     10900  -247716.65      1339.7999     -246376.85      199.053        199.16912      874.5031     
     11000  -247680.88      1343.4728     -246337.41      199.035        199.15097      874.91775    
     11100  -247658.23      1350.9905     -246307.24      199.01666      199.13304      875.33241    
     11200  -247633.07      1343.5105     -246289.56      199.00271      199.11858      875.74706    
     11300  -247607.8       1336.8045     -246270.99      198.98715      199.10277      876.16171    
     11400  -247583.26      1340.3889     -246242.87      198.96864      199.08532      876.57636    
     11500  -247551.62      1342.0037     -246209.61      198.95095      199.06851      876.99102    
     11600  -247518.22      1345.0619     -246173.16      198.93156      199.04973      877.40567    
     11700  -247484.81      1348.2371     -246136.57      198.91269      199.03195      877.82032    
     11800  -247460.13      1349.6083     -246110.52      198.89955      199.01963      878.23498    
     11900  -247434.27      1342.0052     -246092.26      198.8835       199.00578      878.64963    
     12000  -247401.11      1334.5363     -246066.57      198.86241      198.98877      879.06428    
     12100  -247375.46      1343.6021     -246031.86      198.8432       198.97531      879.47894    
     12200  -247344.43      1349.309      -245995.13      198.82182      198.96113      879.89359    
     12300  -247304.6       1342.0233     -245962.58      198.79979      198.94563      880.30824    
     12400  -247287.41      1354.0572     -245933.36      198.78246      198.93505      880.72289    
     12500  -247248.97      1341.4755     -245907.49      198.76568      198.92403      881.13755    
     12600  -247214.36      1333.0958     -245881.27      198.74707      198.90906      881.5522     
     12700  -247184.56      1337.3311     -245847.22      198.73041      198.89564      881.96685    
     12800  -247147.22      1345.1122     -245802.11      198.71311      198.87982      882.38151    
     12900  -247112.73      1351.4036     -245761.32      198.69181      198.86166      882.79616    
     13000  -247084.72      1350.8272     -245733.89      198.67354      198.84647      883.21081    
     13100  -247058.9       1341.4549     -245717.45      198.65723      198.83394      883.62546    
     13200  -247024.94      1330.4195     -245694.53      198.63767      198.81896      884.04012    
     13300  -246996.28      1339.1268     -245657.16      198.61998      198.80371      884.45477    
     13400  -246949.36      1339.6597     -245609.7       198.60428      198.78868      884.86942    
     13500  -246917.26      1353.806      -245563.45      198.58765      198.76959      885.28408    
     13600  -246882.51      1348.1447     -245534.37      198.57242      198.75081      885.69873    
     13700  -246868.15      1347.445      -245520.71      198.56087      198.73394      886.11338    
     13800  -246829.44      1330.6742     -245498.77      198.55196      198.71842      886.52804    
     13900  -246795.82      1337.1826     -245458.64      198.54268      198.70259      886.94269    
     14000  -246747.93      1343.357      -245404.58      198.53053      198.68461      887.35734    
     14100  -246707.83      1353.8378     -245353.99      198.51682      198.66662      887.77199    
     14200  -246680.42      1358.2122     -245322.21      198.503        198.6488       888.18665    
     14300  -246651.32      1341.3494     -245309.97      198.4895       198.63289      888.6013     
     14400  -246631.81      1338.7404     -245293.07      198.47641      198.61886      889.01595    
     14500  -246587.41      1329.4691     -245257.94      198.46134      198.60448      889.43061    
     14600  -246551.32      1347.9282     -245203.39      198.44408      198.59068      889.84526    
     14700  -246498.11      1352.2965     -245145.81      198.42627      198.57784      890.25991    
     14800  -246463.69      1358.6028     -245105.09      198.40952      198.56644      890.67457    
     14900  -246435.18      1347.1028     -245088.08      198.39467      198.55564      891.08922    
     15000  -246412.03      1340.2272     -245071.8       198.38077      198.54524      891.50387    
     15100  -246369.16      1332.6782     -245036.48      198.36506      198.53498      891.91852    
     15200  -246325.39      1340.1798     -244985.21      198.34831      198.52335      892.33318    
     15300  -246284.69      1348.7745     -244935.92      198.33093      198.51323      892.74783    
     15400  -246244.6       1345.8854     -244898.72      198.31407      198.50409      893.16248    
     15500  -246210.55      1336.9887     -244873.56      198.29666      198.49405      893.57714    
     15600  -246183.74      1335.8406     -244847.9       198.28084      198.48569      893.99179    
     15700  -246149.64      1338.9866     -244810.66      198.26481      198.47774      894.40644    
     15800  -246111.82      1350.6339     -244761.18      198.24575      198.46758      894.82109    
     15900  -246057.91      1347.7227     -244710.19      198.22915      198.45698      895.23575    
     16000  -246026.57      1360.8342     -244665.73      198.21345      198.44556      895.6504     
     16100  -245983.74      1348.1534     -244635.59      198.20053      198.43364      896.06505    
     16200  -245949.55      1338.6266     -244610.92      198.19178      198.42363      896.47971    
     16300  -245909.82      1331.8608     -244577.96      198.18295      198.41429      896.89436    
     16400  -245875.64      1346.5144     -244529.12      198.17319      198.40125      897.30901    
     16500  -245826.22      1348.393      -244477.82      198.16506      198.38998      897.72367    
     16600  -245787.16      1351.2882     -244435.87      198.15809      198.37896      898.13832    
     16700  -245749.67      1345.6415     -244404.03      198.15117      198.36652      898.55297    
     16800  -245710.13      1337.4827     -244372.64      198.14325      198.35395      898.96762    
     16900  -245681.9       1349.2327     -244332.67      198.13336      198.34091      899.38228    
     17000  -245617.48      1334.4321     -244283.05      198.12361      198.32955      899.79693    
     17100  -245584.7       1352.0449     -244232.65      198.11318      198.31797      900.21158    
     17200  -245540.72      1347.4847     -244193.23      198.10282      198.30623      900.62624    
     17300  -245501.64      1338.9357     -244162.7       198.09282      198.29492      901.04089    
     17400  -245468.62      1338.9352     -244129.68      198.0826       198.28363      901.45554    
     17500  -245431.35      1343.2578     -244088.09      198.07125      198.27279      901.8702     
     17600  -245381.49      1342.8557     -244038.63      198.0603       198.26231      902.28485    
     17700  -245334.24      1344.8271     -243989.41      198.04989      198.25275      902.6995     
     17800  -245298.54      1351.2928     -243947.24      198.03795      198.24201      903.11415    
     17900  -245252.6       1340.2608     -243912.34      198.0256       198.23079      903.52881    
     18000  -245215.11      1338.9199     -243876.19      198.01428      198.22214      903.94346    
     18100  -245178.25      1342.0552     -243836.2       198.00212      198.21398      904.35811    
     18200  -245124.34      1335.8559     -243788.49      197.99137      198.20878      904.77277    
     18300  -245080.55      1348.6057     -243731.94      197.98275      198.20662      905.18742    
     18400  -245036.88      1351.6868     -243685.2       197.97312      198.20091      905.60207    
     18500  -244999         1350.3468     -243648.66      197.96445      198.19309      906.01672    
     18600  -244958.47      1344.5353     -243613.93      197.95816      198.18592      906.43138    
     18700  -244917.3       1346.1777     -243571.12      197.94995      198.17536      906.84603    
     18800  -244870.76      1345.0517     -243525.71      197.94048      198.16317      907.26068    
     18900  -244810.61      1336.4135     -243474.19      197.93298      198.15375      907.67534    
     19000  -244770.9       1353.695      -243417.2       197.92462      198.14485      908.08999    
     19100  -244733.35      1357.6129     -243375.74      197.91598      198.13499      908.50464    
     19200  -244686.74      1339.1373     -243347.61      197.91144      198.12693      908.9193     
     19300  -244658.01      1354.4089     -243303.6       197.90561      198.11701      909.33395    
     19400  -244596.67      1341.2968     -243255.37      197.89579      198.10181      909.7486     
     19500  -244553.5       1349.4043     -243204.09      197.88631      198.08723      910.16325    
     19600  -244505.31      1346.5244     -243158.79      197.87711      198.07458      910.57791    
     19700  -244467.26      1340.2569     -243127.01      197.86921      198.06389      910.99256    
     19800  -244427.68      1339.2545     -243088.43      197.86351      198.05554      911.40721    
     19900  -244380.5       1341.7469     -243038.76      197.8567       198.04677      911.82187    
     20000  -244334.36      1349.4762     -242984.88      197.85122      198.0379       912.23652    
     20100  -244280.19      1345.4834     -242934.71      197.84345      198.02891      912.65117    
     20200  -244231.94      1349.5487     -242882.39      197.83344      198.01781      913.06583    
     20300  -244184.28      1351.6243     -242832.65      197.82572      198.01066      913.48048    
     20400  -244142.68      1342.9604     -242799.72      197.8165       198.00392      913.89513    
     20500  -244095.19      1334.2258     -242760.96      197.8066       197.99523      914.30978    
     20600  -244049.91      1337.3557     -242712.55      197.79862      197.99102      914.72444    
     20700  -244004.22      1349.0685     -242655.15      197.7902       197.98593      915.13909    
     20800  -243954.3       1353.8517     -242600.45      197.77849      197.97854      915.55374    
     20900  -243900.83      1341.5095     -242559.32      197.76847      197.9725       915.9684     
     21000  -243863.42      1343.0322     -242520.39      197.75842      197.96481      916.38305    
     21100  -243818.64      1342.8718     -242475.77      197.74644      197.95541      916.7977     
     21200  -243765.1       1336.1167     -242428.99      197.73719      197.94551      917.21235    
     21300  -243722.4       1345.277      -242377.13      197.72865      197.93712      917.62701    
     21400  -243670.08      1346.6598     -242323.42      197.72043      197.92866      918.04166    
     21500  -243619.51      1351.7306     -242267.78      197.71084      197.91802      918.45631    
     21600  -243570.07      1350.0308     -242220.04      197.69915      197.90584      918.87097    
     21700  -243526.27      1337.954      -242188.32      197.69061      197.8946       919.28562    
     21800  -243489.73      1346.8297     -242142.9       197.68231      197.8851       919.70027    
     21900  -243435.69      1346.911      -242088.78      197.67454      197.87348      920.11493    
     22000  -243369.33      1340.3573     -242028.97      197.6684       197.86359      920.52958    
     22100  -243323.4       1347.7085     -241975.69      197.66069      197.85399      920.94423    
     22200  -243279.25      1348.5686     -241930.68      197.65115      197.84263      921.35888    
     22300  -243234.73      1348.8296     -241885.9       197.64027      197.83488      921.77354    
     22400  -243179.06      1339.353      -241839.71      197.62926      197.82747      922.18819    
     22500  -243139.53      1348.3571     -241791.17      197.6193       197.82051      922.60284    
     22600  -243091.52      1343.3504     -241748.17      197.61145      197.81562      923.0175     
     22700  -243041.95      1340.8379     -241701.11      197.60158      197.80644      923.43215    
     22800  -242980.26      1337.6238     -241642.64      197.59158      197.79678      923.8468     
     22900  -242926.45      1344.9423     -241581.51      197.58321      197.78781      924.26146    
     23000  -242874.21      1344.2044     -241530.01      197.57503      197.77824      924.67611    
     23100  -242833.21      1347.3489     -241485.86      197.56724      197.76692      925.09076    
     23200  -242782.52      1333.7247     -241448.79      197.55861      197.75449      925.50541    
     23300  -242727.76      1330.01       -241397.75      197.54982      197.74182      925.92007    
     23400  -242684.21      1342.6603     -241341.55      197.54049      197.72926      926.33472    
     23500  -242631.78      1347.9682     -241283.81      197.52938      197.71619      926.74937    
     23600  -242573.14      1346.8754     -241226.27      197.52033      197.7045       927.16403    
     23700  -242525.53      1358.4862     -241167.04      197.51446      197.6958       927.57868    
     23800  -242457.92      1351.4616     -241106.46      197.50576      197.68514      927.99333    
     23900  -242412.54      1347.1056     -241065.43      197.49161      197.67257      928.40798    
     24000  -242368.88      1341.1628     -241027.71      197.47761      197.66198      928.82264    
     24100  -242318.01      1337.3626     -240980.65      197.46472      197.6527       929.23729    
     24200  -242268.98      1341.2143     -240927.77      197.4498       197.64182      929.65194    
     24300  -242218.83      1348.498      -240870.33      197.43625      197.63298      930.0666     
     24400  -242149.61      1342.6698     -240806.94      197.4236       197.6265       930.48125    
     24500  -242103.81      1349.3634     -240754.45      197.40952      197.61863      930.8959     
     24600  -242058.03      1339.6746     -240718.35      197.39572      197.61179      931.31056    
     24700  -242010.01      1340.161      -240669.85      197.38214      197.60565      931.72521    
     24800  -241949.21      1338.1832     -240611.03      197.36925      197.59803      932.13986    
     24900  -241886.52      1339.3005     -240547.22      197.35659      197.59027      932.55451    
     25000  -241832.15      1341.132      -240491.02      197.34802      197.58456      932.96917    
     25100  -241769.01      1329.3605     -240439.65      197.34109      197.57788      933.38382    
     25200  -241732.58      1341.1571     -240391.43      197.3308       197.56467      933.79847    
     25300  -241694.81      1344.7328     -240350.07      197.32161      197.54996      934.21313    
     25400  -241634.41      1334.6421     -240299.77      197.31369      197.53668      934.62778    
     25500  -241575.86      1344.0501     -240231.81      197.30239      197.51919      935.04243    
     25600  -241509.3       1338.1995     -240171.1       197.29237      197.50389      935.45709    
     25700  -241446.15      1335.7374     -240110.41      197.28567      197.49192      935.87174    
     25800  -241394.67      1343.9531     -240050.72      197.27773      197.47549      936.28639    
     25900  -241342.28      1345.057      -239997.23      197.2676       197.45744      936.70104    
     26000  -241302.17      1343.3651     -239958.81      197.25845      197.44082      937.1157     
     26100  -241248.84      1340.2239     -239908.62      197.24812      197.42459      937.53035    
     26200  -241191.17      1343.6764     -239847.49      197.23734      197.40928      937.945      
     26300  -241131.61      1349.1361     -239782.48      197.22563      197.39563      938.35966    
     26400  -241066.43      1340.0583     -239726.37      197.21443      197.38376      938.77431    
     26500  -241021.94      1348.8783     -239673.06      197.20073      197.37147      939.18896    
     26600  -240960.7       1339.4323     -239621.27      197.1856       197.35919      939.60361    
     26700  -240913.35      1342.6908     -239570.65      197.17169      197.34892      940.01827    
     26800  -240863.63      1337.828      -239525.8       197.15567      197.33922      940.43292    
     26900  -240808.21      1329.9793     -239478.23      197.13937      197.33019      940.84757    
     27000  -240752.24      1342.077      -239410.16      197.12378      197.32529      941.26223    
     27100  -240694.13      1348.5429     -239345.59      197.1083       197.32091      941.67688    
     27200  -240632.53      1345.9054     -239286.62      197.09086      197.3133       942.09153    
     27300  -240578.64      1352.1073     -239226.54      197.07294      197.30357      942.50619    
     27400  -240507.18      1339.9223     -239167.26      197.05714      197.29333      942.92084    
     27500  -240459.25      1347.265      -239111.98      197.04158      197.2818       943.33549    
     27600  -240411.84      1344.4733     -239067.36      197.02643      197.27069      943.75014    
     27700  -240351.91      1334.0289     -239017.88      197.01222      197.26113      944.1648     
     27800  -240295.57      1341.336      -238954.23      196.99533      197.2501       944.57945    
     27900  -240230.15      1343.1707     -238886.98      196.97731      197.23763      944.9941     
     28000  -240179.63      1349.6281     -238830.01      196.96219      197.22658      945.40876    
     28100  -240122.89      1346.2156     -238776.67      196.94729      197.21477      945.82341    
     28200  -240073.53      1346.7353     -238726.79      196.9322       197.19997      946.23806    
     28300  -240012.68      1334.0948     -238678.58      196.91912      197.18859      946.65272    
     28400  -239958.44      1332.6009     -238625.84      196.90625      197.17777      947.06737    
     28500  -239898.41      1342.9086     -238555.5       196.8895       197.16265      947.48202    
     28600  -239835.22      1347.8702     -238487.35      196.87395      197.14889      947.89667    
     28700  -239768.45      1343.3484     -238425.1       196.86309      197.13564      948.31133    
     28800  -239714.15      1346.1279     -238368.03      196.85082      197.11965      948.72598    
     28900  -239658.54      1339.5517     -238318.98      196.84001      197.10396      949.14063    
     29000  -239605.44      1334.2322     -238271.21      196.82844      197.08784      949.55529    
     29100  -239544.74      1333.513      -238211.23      196.81554      197.07206      949.96994    
     29200  -239481.08      1345.0693     -238136.02      196.80493      197.05851      950.38459    
     29300  -239428.7       1354.2711     -238074.43      196.79204      197.04395      950.79924    
     29400  -239370.35      1348.9539     -238021.39      196.77955      197.029        951.2139     
     29500  -239313.38      1341.0471     -237972.34      196.76662      197.01282      951.62855    
     29600  -239249.77      1333.1823     -237916.58      196.75184      196.99519      952.0432     
     29700  -239184.31      1342.4726     -237841.84      196.74122      196.9807       952.45786    
     29800  -239130.75      1354.2245     -237776.53      196.73057      196.96628      952.87251    
     29900  -239066.61      1346.4379     -237720.17      196.71602      196.94699      953.28716    
     30000  -239013.51      1339.764      -237673.74      196.70518      196.93036      953.70182    
     30100  -238957.52      1337.9172     -237619.61      196.69451      196.91568      954.11647    
     30200  -238901.23      1345.1294     -237556.1       196.67935      196.89795      954.53112    
     30300  -238834.14      1340.0027     -237494.14      196.66708      196.88356      954.94577    
     30400  -238775.94      1341.6811     -237434.25      196.65607      196.87143      955.36043    
     30500  -238722.79      1349.8945     -237372.89      196.63948      196.8555       955.77508    
     30600  -238655.1       1344.4567     -237310.64      196.62263      196.8411       956.18973    
     30700  -238592.92      1352.7056     -237240.22      196.6051       196.82778      956.60439    
     30800  -238538.32      1364.1643     -237174.16      196.58432      196.81244      957.01904    
     30900  -238471.03      1345.1847     -237125.85      196.56628      196.80072      957.43369    
     31000  -238413.99      1338.7567     -237075.23      196.54992      196.79112      957.84835    
     31100  -238364.32      1345.8504     -237018.47      196.53192      196.78069      958.263      
     31200  -238308.43      1350.8154     -236957.62      196.51544      196.76964      958.67765    
     31300  -238236.39      1350.3553     -236886.04      196.49784      196.75764      959.0923     
     31400  -238169.18      1354.1576     -236815.03      196.48004      196.745        959.50696    
     31500  -238108.44      1348.3676     -236760.07      196.46667      196.73401      959.92161    
     31600  -238055.1       1347.0156     -236708.09      196.45256      196.72252      960.33626    
     31700  -237994.65      1343.9848     -236650.66      196.43711      196.70867      960.75092    
     31800  -237934.57      1344.8794     -236589.69      196.42455      196.69614      961.16557    
     31900  -237870.58      1345.2102     -236525.37      196.41246      196.68314      961.58022    
     32000  -237806.77      1358.8584     -236447.91      196.40134      196.66686      961.99487    
     32100  -237738.66      1352.0683     -236386.59      196.39117      196.65095      962.40953    
     32200  -237672.38      1334.3629     -236338.02      196.37997      196.63388      962.82418    
     32300  -237627.84      1344.2878     -236283.55      196.36629      196.6148       963.23883    
     32400  -237566.98      1345.5798     -236221.4       196.35138      196.59688      963.65349    
     32500  -237503.48      1348.8219     -236154.66      196.33848      196.5801       964.06814    
     32600  -237427.75      1350.2394     -236077.51      196.32604      196.56481      964.48279    
     32700  -237367.24      1353.2168     -236014.02      196.31453      196.54802      964.89745    
     32800  -237318.51      1355.3235     -235963.19      196.30335      196.53042      965.3121     
     32900  -237254.38      1346.223      -235908.15      196.29009      196.51199      965.72675    
     33000  -237182.58      1334.1285     -235848.45      196.27776      196.4925       966.1414     
     33100  -237126.81      1342.3868     -235784.43      196.266        196.47753      966.55606    
     33200  -237062.11      1354.4916     -235707.62      196.25392      196.46387      966.97071    
     33300  -236991.5       1349.291      -235642.21      196.23998      196.44892      967.38536    
     33400  -236930.63      1342.8468     -235587.78      196.22589      196.4367       967.80002    
     33500  -236868.15      1335.2713     -235532.88      196.21338      196.42435      968.21467    
     33600  -236808.08      1336.6491     -235471.43      196.19797      196.41012      968.62932    
     33700  -236749.65      1342.6607     -235406.99      196.18454      196.39759      969.04398    
     33800  -236681.99      1339.1633     -235342.82      196.17458      196.38597      969.45863    
     33900  -236624.45      1348.2215     -235276.23      196.15993      196.37133      969.87328    
     34000  -236559.12      1352.941      -235206.18      196.14478      196.35662      970.28793    
     34100  -236476.92      1349.4038     -235127.52      196.13081      196.34511      970.70259    
     34200  -236415.75      1344.2992     -235071.45      196.11472      196.33231      971.11724    
     34300  -236366.89      1345.5798     -235021.31      196.09906      196.31853      971.53189    
     34400  -236297.87      1334.8081     -234963.06      196.08625      196.30683      971.94655    
     34500  -236242.17      1343.6832     -234898.49      196.07178      196.29315      972.3612     
     34600  -236172.04      1347.4207     -234824.62      196.05713      196.27961      972.77585    
     34700  -236101.33      1348.7133     -234752.62      196.04253      196.267        973.1905     
     34800  -236048.5       1354.2798     -234694.22      196.02544      196.25368      973.60516    
     34900  -235980.95      1341.7552     -234639.19      196.00942      196.24113      974.01981    
     35000  -235927.83      1349.1833     -234578.64      195.99511      196.23087      974.43446    
     35100  -235861.92      1346.1823     -234515.74      195.97975      196.22005      974.84912    
     35200  -235802.48      1351.4519     -234451.03      195.96363      196.20834      975.26377    
     35300  -235722.69      1338.7618     -234383.93      195.94874      196.19653      975.67842    
     35400  -235663.45      1350.7709     -234312.68      195.93348      196.18269      976.09308    
     35500  -235604.45      1354.731      -234249.72      195.91916      196.16755      976.50773    
     35600  -235546         1345.014      -234200.98      195.90723      196.15456      976.92238    
     35700  -235479.18      1339.2802     -234139.9       195.89607      196.14328      977.33703    
     35800  -235411.95      1342.2481     -234069.7       195.88491      196.12845      977.75169    
     35900  -235345.16      1346.104      -233999.06      195.8748       196.11458      978.16634    
     36000  -235279.41      1346.5498     -233932.86      195.86474      196.0989       978.58099    
     36100  -235212.29      1341.3918     -233870.9       195.85408      196.08097      978.99565    
     36200  -235157.33      1347.3825     -233809.94      195.84529      196.06486      979.4103     
     36300  -235095.86      1346.6605     -233749.2       195.83858      196.04784      979.82495    
     36400  -235024.6       1338.6327     -233685.97      195.82965      196.02945      980.23961    
     36500  -234962.29      1349.8178     -233612.47      195.82145      196.0117       980.65426    
     36600  -234879.98      1340.9627     -233539.02      195.81213      195.99328      981.06891    
     36700  -234811.6       1338.7445     -233472.86      195.80066      195.97486      981.48356    
     36800  -234756.52      1340.6959     -233415.83      195.79079      195.9579       981.89822    
     36900  -234703.75      1337.8108     -233365.94      195.78035      195.94275      982.31287    
     37000  -234640.22      1337.7679     -233302.46      195.7687       195.92838      982.72752    
     37100  -234569.93      1340.0189     -233229.91      195.75639      195.91461      983.14218    
     37200  -234497.47      1338.4712     -233159         195.74123      195.90107      983.55683    
     37300  -234435.38      1344.0145     -233091.37      195.72483      195.88716      983.97148    
     37400  -234371.31      1344.08       -233027.23      195.71115      195.87626      984.38613    
     37500  -234302.51      1341.5975     -232960.91      195.69795      195.86752      984.80079    
     37600  -234228.55      1340.1209     -232888.43      195.68498      195.85898      985.21544    
     37700  -234157.17      1347.8418     -232809.33      195.67098      195.85145      985.63009    
     37800  -234100.13      1351.8296     -232748.3       195.65555      195.84251      986.04475    
     37900  -234045.61      1349.9122     -232695.7       195.63837      195.83066      986.4594     
     38000  -233971.72      1337.5617     -232634.16      195.62302      195.82035      986.87405    
     38100  -233905.43      1339.3313     -232566.1       195.61131      195.81301      987.28871    
     38200  -233838.56      1348.4498     -232490.11      195.59874      195.8043       987.70336    
     38300  -233772.35      1352.8088     -232419.54      195.58462      195.79351      988.11801    
     38400  -233701.34      1342.5226     -232358.82      195.57268      195.78134      988.53266    
     38500  -233648.35      1334.3936     -232313.96      195.56085      195.76753      988.94732    
     38600  -233578.2       1333.2199     -232244.98      195.54917      195.75335      989.36197    
     38700  -233511.25      1345.7638     -232165.49      195.53923      195.7399       989.77662    
     38800  -233438.22      1345.2272     -232092.99      195.52943      195.72734      990.19128    
     38900  -233371.23      1346.3483     -232024.89      195.5205       195.7143       990.60593    
     39000  -233300.76      1348.5629     -231952.2       195.5105       195.70018      991.02058    
     39100  -233233.55      1355.3168     -231878.23      195.49818      195.68359      991.43524    
     39200  -233169.34      1347.8164     -231821.52      195.48679      195.66659      991.84989    
     39300  -233112.39      1344.4911     -231767.89      195.47619      195.65102      992.26454    
     39400  -233047.71      1345.1562     -231702.55      195.46456      195.63559      992.67919    
     39500  -232964.3       1335.8507     -231628.45      195.45388      195.62088      993.09385    
     39600  -232900.42      1349.6978     -231550.72      195.44403      195.60929      993.5085     
     39700  -232839.88      1355.5598     -231484.32      195.43162      195.59479      993.92315    
     39800  -232764.1       1341.1289     -231422.97      195.41932      195.57998      994.33781    
     39900  -232705.9       1345.2345     -231360.67      195.40894      195.56963      994.75246    
     40000  -232637.5       1341.0398     -231296.46      195.39834      195.55841      995.16711    
     40100  -232580.53      1350.6907     -231229.83      195.38706      195.54807      995.58176    
     40200  -232503.53      1353.4256     -231150.1       195.37617      195.54036      995.99642    
     40300  -232432.2       1357.1529     -231075.05      195.36351      195.53175      996.41107    
     40400  -232365.73      1347.5664     -231018.16      195.3493       195.52164      996.82572    
     40500  -232298.4       1337.2973     -230961.1       195.33406      195.51015      997.24038    
     40600  -232236.24      1342.8968     -230893.34      195.31873      195.49659      997.65503    
     40700  -232166.7       1346.2787     -230820.42      195.30699      195.48705      998.06968    
     40800  -232097.73      1355.5612     -230742.16      195.296        195.47697      998.48434    
     40900  -232018.8       1352.1544     -230666.64      195.28191      195.46343      998.89899    
     41000  -231963.32      1349.458      -230613.87      195.26906      195.45176      999.31364    
     41100  -231890.99      1335.9368     -230555.05      195.25777      195.43885      999.72829    
     41200  -231840.85      1350.6923     -230490.15      195.24312      195.42302      1000.1429    
     41300  -231760.42      1337.8039     -230422.62      195.23093      195.40932      1000.5576    
     41400  -231694.7       1348.325      -230346.38      195.22276      195.39813      1000.9723    
     41500  -231614.27      1344.0393     -230270.23      195.21257      195.38541      1001.3869    
     41600  -231550.87      1343.4678     -230207.4       195.20268      195.36903      1001.8016    
     41700  -231497.32      1341.4012     -230155.92      195.19418      195.35468      1002.2162    
     41800  -231431.08      1343.1983     -230087.89      195.1862       195.33984      1002.6309    
     41900  -231354.84      1343.1491     -230011.69      195.17694      195.32254      1003.0455    
     42000  -231285.39      1346.5463     -229938.85      195.16867      195.30855      1003.4602    
     42100  -231214.47      1344.2303     -229870.24      195.16325      195.29811      1003.8748    
     42200  -231143.62      1339.443      -229804.17      195.15536      195.28679      1004.2895    
     42300  -231079.59      1339.8447     -229739.74      195.14362      195.274        1004.7041    
     42400  -231007.53      1337.3091     -229670.23      195.13241      195.26445      1005.1188    
     42500  -230941.86      1347.6938     -229594.17      195.11979      195.2549       1005.5334    
     42600  -230866.38      1345.7609     -229520.62      195.10434      195.24358      1005.9481    
     42700  -230800.3       1343.0713     -229457.23      195.0916       195.23384      1006.3627    
     42800  -230740.23      1337.5934     -229402.64      195.07873      195.22425      1006.7774    
     42900  -230669.88      1337.8017     -229332.08      195.06412      195.21186      1007.192     
     43000  -230596.56      1344.2011     -229252.36      195.05172      195.20028      1007.6067    
     43100  -230517.54      1335.7316     -229181.8       195.03927      195.18899      1008.0214    
     43200  -230460.49      1344.1334     -229116.36      195.02628      195.17625      1008.436     
     43300  -230390.01      1336.7832     -229053.22      195.01443      195.16369      1008.8507    
     43400  -230331.35      1341.2224     -228990.12      195.00133      195.14915      1009.2653    
     43500  -230263.26      1336.4694     -228926.79      194.98964      195.13404      1009.68      
     43600  -230189.36      1336.3543     -228853.01      194.98         195.12184      1010.0946    
     43700  -230117.68      1347.4193     -228770.26      194.96943      195.10898      1010.5093    
     43800  -230046.12      1349.3325     -228696.78      194.95901      195.09543      1010.9239    
     43900  -229983.23      1349.9054     -228633.33      194.94836      195.08371      1011.3386    
     44000  -229919.02      1343.1734     -228575.84      194.93613      195.07082      1011.7532    
     44100  -229848         1339.5342     -228508.47      194.92253      195.05847      1012.1679    
     44200  -229778.7       1342.5315     -228436.17      194.909        195.04784      1012.5825    
     44300  -229703.71      1340.4909     -228363.22      194.89464      195.03603      1012.9972    
     44400  -229634.21      1343.3966     -228290.82      194.88215      195.02591      1013.4118    
     44500  -229573.99      1352.7239     -228221.27      194.87193      195.01602      1013.8265    
     44600  -229507.93      1345.5054     -228162.42      194.8598       195.00457      1014.2411    
     44700  -229438.4       1337.9223     -228100.48      194.84696      194.99336      1014.6558    
     44800  -229361.07      1338.0931     -228022.98      194.83451      194.98187      1015.0705    
     44900  -229290.72      1349.07       -227941.65      194.821        194.97022      1015.4851    
     45000  -229224.43      1351.8082     -227872.62      194.80915      194.95999      1015.8998    
     45100  -229158         1350.73       -227807.27      194.79665      194.94945      1016.3144    
     45200  -229084.29      1340.3718     -227743.92      194.78141      194.9366       1016.7291    
     45300  -229025.65      1343.8839     -227681.76      194.76932      194.92568      1017.1437    
     45400  -228948.29      1333.8113     -227614.48      194.75781      194.9142       1017.5584    
     45500  -228875.07      1345.0138     -227530.05      194.74258      194.89969      1017.973     
     45600  -228805.09      1350.7022     -227454.39      194.73081      194.88919      1018.3877    
     45700  -228736.36      1346.5853     -227389.78      194.71926      194.87933      1018.8023    
     45800  -228669.44      1340.741      -227328.69      194.70252      194.86453      1019.217     
     45900  -228598.87      1334.89       -227263.98      194.68958      194.85281      1019.6316    
     46000  -228531.97      1352.186      -227179.78      194.67849      194.84434      1020.0463    
     46100  -228448.7       1346.7044     -227102         194.66292      194.83216      1020.4609    
     46200  -228386.48      1345.6913     -227040.78      194.64744      194.82098      1020.8756    
     46300  -228327.84      1348.6081     -226979.23      194.63249      194.81037      1021.2902    
     46400  -228250.15      1340.8747     -226909.27      194.61721      194.79802      1021.7049    
     46500  -228179.87      1346.8111     -226833.06      194.60491      194.78754      1022.1196    
     46600  -228104.75      1356.9687     -226747.78      194.59387      194.77576      1022.5342    
     46700  -228025.49      1351.7033     -226673.79      194.5831       194.76317      1022.9489    
     46800  -227975.83      1357.9988     -226617.83      194.5745       194.75191      1023.3635    
     46900  -227896.59      1342.2159     -226554.38      194.5625       194.73804      1023.7782    
     47000  -227834.56      1343.4192     -226491.14      194.54946      194.72377      1024.1928    
     47100  -227766.24      1340.0712     -226426.16      194.54032      194.71266      1024.6075    
     47200  -227693.71      1339.2051     -226354.5       194.52907      194.70016      1025.0221    
     47300  -227620.13      1350.5431     -226269.58      194.51767      194.68631      1025.4368    
     47400  -227548.83      1354.7135     -226194.11      194.50913      194.67473      1025.8514    
     47500  -227478.23      1346.5851     -226131.65      194.49749      194.66183      1026.2661    
     47600  -227416.39      1349.8557     -226066.53      194.48203      194.64749      1026.6807    
     47700  -227340.87      1344.1347     -225996.73      194.46845      194.63753      1027.0954    
     47800  -227268.48      1341.9687     -225926.51      194.45445      194.6274       1027.51      
     47900  -227195.04      1340.3615     -225854.68      194.43937      194.61496      1027.9247    
     48000  -227131.35      1348.3419     -225783.01      194.42728      194.60495      1028.3393    
     48100  -227056.95      1341.2477     -225715.7       194.41505      194.59375      1028.754     
     48200  -226991         1341.6583     -225649.34      194.39894      194.57963      1029.1687    
     48300  -226919.51      1336.0647     -225583.45      194.38505      194.5674       1029.5833    
     48400  -226855.34      1341.2774     -225514.06      194.37199      194.55654      1029.998     
     48500  -226774.92      1342.0055     -225432.92      194.35807      194.54443      1030.4126    
     48600  -226708.09      1355.4892     -225352.6       194.34658      194.53373      1030.8273    
     48700  -226634.99      1348.5081     -225286.48      194.33346      194.52309      1031.2419    
     48800  -226572.94      1345.2073     -225227.73      194.31939      194.51004      1031.6566    
     48900  -226498.6       1341.2124     -225157.39      194.30627      194.49738      1032.0712    
     49000  -226428.94      1346.3585     -225082.58      194.29337      194.48491      1032.4859    
     49100  -226360.06      1351.6845     -225008.37      194.27941      194.47135      1032.9005    
     49200  -226282.77      1341.8566     -224940.92      194.26613      194.46002      1033.3152    
     49300  -226216.81      1337.4368     -224879.37      194.25305      194.44971      1033.7298    
     49400  -226149.55      1341.7236     -224807.83      194.23958      194.43909      1034.1445    
     49500  -226073.28      1350.0147     -224723.27      194.22665      194.42805      1034.5591    
     49600  -225998.99      1352.9296     -224646.06      194.21399      194.41641      1034.9738    
     49700  -225928.9       1346.8678     -224582.03      194.20135      194.40417      1035.3884    
     49800  -225857.25      1338.6285     -224518.62      194.18833      194.39136      1035.8031    
     49900  -225783.45      1336.8331     -224446.61      194.17353      194.37892      1036.2178    
     50000  -225715.97      1341.5984     -224374.37      194.15951      194.36678      1036.6324    
     50100  -225648.16      1344.8127     -224303.35      194.14542      194.35565      1037.0471    
     50200  -225582.23      1345.7029     -224236.53      194.12984      194.34327      1037.4617    
     50300  -225514.34      1344.7684     -224169.57      194.11535      194.33011      1037.8764    
     50400  -225440.83      1342.6713     -224098.16      194.10242      194.31843      1038.291     
     50500  -225369.08      1347.8224     -224021.25      194.09096      194.30588      1038.7057    
     50600  -225290.81      1348.1447     -223942.66      194.07782      194.29038      1039.1203    
     50700  -225220.6       1352.8765     -223867.72      194.06625      194.27479      1039.535     
     50800  -225149.33      1343.4496     -223805.88      194.05887      194.26224      1039.9496    
     50900  -225079.28      1337.6237     -223741.66      194.05043      194.24959      1040.3643    
     51000  -225018.77      1350.9676     -223667.81      194.04105      194.23573      1040.7789    
     51100  -224934.67      1343.5779     -223591.09      194.03153      194.22252      1041.1936    
     51200  -224854.05      1348.075      -223505.97      194.02025      194.20756      1041.6082    
     51300  -224784.49      1357.1486     -223427.34      194.00738      194.19086      1042.0229    
     51400  -224714.01      1344.2711     -223369.74      193.99467      194.1772       1042.4375    
     51500  -224651.09      1347.0177     -223304.08      193.98179      194.16411      1042.8522    
     51600  -224574.35      1336.9336     -223237.42      193.96963      194.15112      1043.2669    
     51700  -224518.95      1348.1128     -223170.84      193.95661      194.13951      1043.6815    
     51800  -224441.17      1337.728      -223103.44      193.94325      194.12663      1044.0962    
     51900  -224371.41      1339.3258     -223032.09      193.92948      194.1135       1044.5108    
     52000  -224295.12      1342.3101     -222952.81      193.91448      194.10159      1044.9255    
     52100  -224216.02      1343.4285     -222872.59      193.90105      194.08936      1045.3401    
     52200  -224153.34      1351.3903     -222801.95      193.88817      194.07933      1045.7548    
     52300  -224077.81      1336.9325     -222740.87      193.87597      194.06957      1046.1694    
     52400  -224012.1       1340.1525     -222671.95      193.86231      194.05851      1046.5841    
     52500  -223942.53      1346.8202     -222595.71      193.84668      194.04792      1046.9987    
     52600  -223867.86      1347.3654     -222520.49      193.83124      194.03638      1047.4134    
     52700  -223788.83      1336.2339     -222452.59      193.81563      194.02364      1047.828     
     52800  -223726.21      1337.7236     -222388.49      193.80243      194.01207      1048.2427    
     52900  -223655.05      1337.8821     -222317.17      193.7927       194.00045      1048.6573    
     53000  -223579.38      1340.5595     -222238.82      193.78055      193.98818      1049.072     
     53100  -223502         1351.0534     -222150.95      193.7664       193.97458      1049.4867    
     53200  -223427.61      1349.5747     -222078.03      193.75275      193.96095      1049.9013    
     53300  -223357.24      1339.9339     -222017.3       193.73795      193.94598      1050.316     
     53400  -223291.5       1344.222      -221947.27      193.72476      193.93066      1050.7306    
     53500  -223225.85      1348.0864     -221877.76      193.71379      193.91754      1051.1453    
     53600  -223150.62      1341.4463     -221809.17      193.70457      193.905        1051.5599    
     53700  -223076.63      1333.783      -221742.85      193.6941       193.89232      1051.9746    
     53800  -223007.99      1336.856      -221671.14      193.68064      193.87818      1052.3892    
     53900  -222930.71      1339.182      -221591.52      193.66714      193.86351      1052.8039    
     54000  -222851.47      1344.9136     -221506.56      193.65404      193.8503       1053.2185    
     54100  -222776.24      1342.4288     -221433.81      193.64126      193.83693      1053.6332    
     54200  -222720.31      1348.1734     -221372.14      193.62878      193.82514      1054.0478    
     54300  -222644.89      1343.0237     -221301.87      193.61571      193.81523      1054.4625    
     54400  -222576.2       1346.1083     -221230.09      193.59923      193.80367      1054.8771    
     54500  -222497.68      1336.0468     -221161.63      193.57958      193.79075      1055.2918    
     54600  -222440.86      1345.0555     -221095.8       193.56379      193.78056      1055.7064    
     54700  -222366.21      1335.1545     -221031.06      193.54924      193.77121      1056.1211    
     54800  -222292.3       1329.0357     -220963.27      193.53344      193.7599       1056.5358    
     54900  -222221.65      1345.0657     -220876.59      193.5204       193.75052      1056.9504    
     55000  -222135.37      1348.435      -220786.94      193.50739      193.74026      1057.3651    
     55100  -222057.4       1346.8238     -220710.58      193.49285      193.72723      1057.7797    
     55200  -221997.88      1351.0769     -220646.8       193.47858      193.71427      1058.1944    
     55300  -221918.18      1341.1043     -220577.07      193.46471      193.70027      1058.609     
     55400  -221849.72      1346.0091     -220503.71      193.45235      193.68636      1059.0237    
     55500  -221774.96      1343.5259     -220431.43      193.44133      193.67355      1059.4383    
     55600  -221710.2       1342.2777     -220367.93      193.42859      193.65935      1059.853     
     55700  -221636.18      1338.7134     -220297.47      193.41541      193.64527      1060.2676    
     55800  -221563.83      1346.842      -220216.99      193.40386      193.63169      1060.6823    
     55900  -221484.66      1347.4816     -220137.17      193.39211      193.61683      1061.0969    
     56000  -221414.37      1348.1046     -220066.26      193.38134      193.60275      1061.5116    
     56100  -221347.24      1343.7958     -220003.44      193.37173      193.58987      1061.9262    
     56200  -221266.68      1340.0103     -219926.67      193.36009      193.5748       1062.3409    
     56300  -221193.86      1347.4123     -219846.45      193.34819      193.56005      1062.7555    
     56400  -221115.74      1347.6041     -219768.14      193.33738      193.54661      1063.1702    
     56500  -221047.1       1343.3457     -219703.75      193.32734      193.53334      1063.5849    
     56600  -220971.81      1337.5751     -219634.23      193.31671      193.51894      1063.9995    
     56700  -220898.99      1342.3438     -219556.64      193.3047       193.50409      1064.4142    
     56800  -220823.24      1345.5556     -219477.69      193.29268      193.48872      1064.8288    
     56900  -220751.49      1345.4275     -219406.06      193.28134      193.47305      1065.2435    
     57000  -220685.51      1345.2309     -219340.28      193.26999      193.45797      1065.6581    
     57100  -220610.92      1346.026      -219264.9       193.25993      193.44231      1066.0728    
     57200  -220536.74      1350.9459     -219185.79      193.24906      193.42836      1066.4874    
     57300  -220458.29      1345.3296     -219112.96      193.23646      193.41461      1066.9021    
     57400  -220397.93      1349.6718     -219048.26      193.22241      193.40037      1067.3167    
     57500  -220310.42      1340.1432     -218970.28      193.20849      193.3877       1067.7314    
     57600  -220236.33      1346.7381     -218889.59      193.19662      193.37488      1068.146     
     57700  -220162.99      1344.0577     -218818.94      193.18319      193.36127      1068.5607    
     57800  -220088.28      1337.4263     -218750.86      193.16991      193.34639      1068.9753    
     57900  -220008.01      1335.8412     -218672.17      193.15699      193.33165      1069.39      
     58000  -219931.09      1339.9068     -218591.18      193.14268      193.31769      1069.8046    
     58100  -219868.64      1352.0875     -218516.55      193.1298       193.30406      1070.2193    
     58200  -219788.63      1338.523      -218450.11      193.11787      193.2939       1070.634     
     58300  -219720.36      1344.7153     -218375.65      193.10561      193.28492      1071.0486    
     58400  -219642.8       1340.7602     -218302.04      193.09266      193.27505      1071.4633    
     58500  -219568.32      1339.7116     -218228.61      193.07944      193.26548      1071.8779    
     58600  -219488.96      1330.3363     -218158.62      193.06587      193.25375      1072.2926    
     58700  -219420.61      1331.86       -218088.75      193.05101      193.24214      1072.7072    
     58800  -219339.94      1329.2131     -218010.73      193.03751      193.23119      1073.1219    
     58900  -219276.05      1348.3628     -217927.68      193.02412      193.22054      1073.5365    
     59000  -219188.32      1347.0508     -217841.27      193.01073      193.20963      1073.9512    
     59100  -219111.46      1349.9926     -217761.47      192.99711      193.19887      1074.3658    
     59200  -219045.14      1352.0928     -217693.05      192.98199      193.18589      1074.7805    
     59300  -218962.87      1342.6842     -217620.19      192.96709      193.17192      1075.1951    
     59400  -218895.34      1349.8849     -217545.46      192.95317      193.1583       1075.6098    
     59500  -218819.91      1348.1997     -217471.71      192.93818      193.1424       1076.0244    
     59600  -218739.26      1344.1738     -217395.09      192.9256       193.12765      1076.4391    
     59700  -218668.69      1351.1881     -217317.51      192.91508      193.11461      1076.8537    
     59800  -218589.15      1346.6441     -217242.5       192.90137      193.09816      1077.2684    
     59900  -218518.15      1352.7972     -217165.35      192.88841      193.08371      1077.6831    
     60000  -218436.4       1348.312      -217088.09      192.87972      193.07295      1078.0977    
     60100  -218357.5       1344.9581     -217012.54      192.86746      193.05833      1078.5124    
     60200  -218280.3       1345.2055     -216935.1       192.85511      193.04317      1078.927     
     60300  -218205.15      1347.6302     -216857.52      192.8463       193.03089      1079.3417    
     60400  -218133.8       1351.3489     -216782.46      192.83558      193.01726      1079.7563    
     60500  -218059.41      1354.2868     -216705.12      192.82521      193.00183      1080.171     
     60600  -217976.84      1349.4552     -216627.38      192.81469      192.98661      1080.5856    
     60700  -217894.63      1343.2233     -216551.41      192.80332      192.97189      1081.0003    
     60800  -217820.83      1347.6635     -216473.16      192.79033      192.95616      1081.4149    
     60900  -217741.68      1346.7051     -216394.98      192.7775       192.9407       1081.8296    
     61000  -217665.42      1346.6367     -216318.78      192.76816      192.92929      1082.2442    
     61100  -217589.24      1347.966      -216241.27      192.75601      192.91649      1082.6589    
     61200  -217506.56      1343.7709     -216162.79      192.74069      192.90197      1083.0735    
     61300  -217429.16      1345.9056     -216083.25      192.72753      192.88929      1083.4882    
     61400  -217356.92      1350.7719     -216006.15      192.71383      192.87548      1083.9028    
     61500  -217276.85      1350.9313     -215925.92      192.69821      192.86026      1084.3175    
     61600  -217188.68      1342.6501     -215846.03      192.68525      192.84772      1084.7322    
     61700  -217121.96      1352.8396     -215769.12      192.67271      192.83571      1085.1468    
     61800  -217037.26      1346.8732     -215690.38      192.65721      192.82163      1085.5615    
     61900  -216961.24      1351.1431     -215610.1       192.64235      192.80952      1085.9761    
     62000  -216890.72      1358.6348     -215532.09      192.62942      192.79991      1086.3908    
     62100  -216804.24      1351.5318     -215452.7       192.61407      192.78788      1086.8054    
     62200  -216716.06      1343.5909     -215372.47      192.59959      192.77707      1087.2201    
     62300  -216645.44      1352.2664     -215293.18      192.58603      192.76756      1087.6347    
     62400  -216559         1347.251      -215211.75      192.57099      192.7559       1088.0494    
     62500  -216479.11      1347.6769     -215131.43      192.55654      192.74388      1088.464     
     62600  -216387.16      1336.8064     -215050.35      192.5429       192.7311       1088.8787    
     62700  -216313.64      1345.8451     -214967.8       192.53097      192.71887      1089.2933    
     62800  -216237.95      1352.6719     -214885.28      192.51925      192.70547      1089.708     
     62900  -216153.2       1350.2252     -214802.98      192.50636      192.69043      1090.1226    
     63000  -216065.25      1343.5673     -214721.68      192.49341      192.6773       1090.5373    
     63100  -215987.56      1346.2493     -214641.31      192.47972      192.66266      1090.9519    
     63200  -215907.46      1348.2901     -214559.17      192.46634      192.64807      1091.3666    
     63300  -215834.81      1357.7547     -214477.06      192.45518      192.63365      1091.7813    
     63400  -215740.02      1345.1246     -214394.9       192.44267      192.61839      1092.1959    
     63500  -215662.13      1348.7697     -214313.36      192.4295       192.60184      1092.6106    
     63600  -215569.37      1340.6008     -214228.77      192.41817      192.58645      1093.0252    
     63700  -215496.93      1351.2121     -214145.72      192.40576      192.57185      1093.4399    
     63800  -215413.41      1350.71       -214062.7       192.3933       192.5568       1093.8545    
     63900  -215322.24      1343.5768     -213978.66      192.38073      192.54287      1094.2692    
     64000  -215238.73      1345.1169     -213893.62      192.36865      192.52968      1094.6838    
     64100  -215158.62      1349.6753     -213808.94      192.35658      192.51632      1095.0985    
     64200  -215069.41      1346.2501     -213723.16      192.34387      192.50141      1095.5131    
     64300  -214988.68      1350.8522     -213637.83      192.33184      192.48746      1095.9278    
     64400  -214909.76      1356.9189     -213552.84      192.31996      192.47386      1096.3424    
     64500  -214813.18      1346.8824     -213466.29      192.30729      192.46043      1096.7571    
     64600  -214723.29      1344.4062     -213378.89      192.29548      192.44816      1097.1717    
     64700  -214645.1       1352.3328     -213292.76      192.28256      192.43561      1097.5864    
     64800  -214549.91      1344.8753     -213205.04      192.26804      192.41976      1098.001     
     64900  -214460         1341.7083     -213118.29      192.25455      192.40672      1098.4157    
     65000  -214387.36      1356.4174     -213030.94      192.24117      192.39399      1098.8304    
     65100  -214293.5       1349.8168     -212943.69      192.22617      192.38069      1099.245     
     65200  -214202.47      1347.2831     -212855.19      192.21248      192.37036      1099.6597    
     65300  -214118.8       1350.5015     -212768.3       192.19806      192.35848      1100.0743    
     65400  -214027.84      1348.5878     -212679.26      192.18147      192.34439      1100.489     
     65500  -213934.76      1346.2766     -212588.48      192.16838      192.33226      1100.9036    
     65600  -213849.5       1349.5253     -212499.98      192.15495      192.31916      1101.3183    
     65700  -213755.14      1347.2892     -212407.85      192.14069      192.3036       1101.7329    
     65800  -213669.88      1354.4083     -212315.47      192.13002      192.29036      1102.1476    
     65900  -213583.87      1358.7838     -212225.09      192.11752      192.27565      1102.5622    
     66000  -213490.15      1356.6559     -212133.49      192.10389      192.25833      1102.9769    
     66100  -213392.17      1349.6924     -212042.48      192.09273      192.24423      1103.3915    
     66200  -213304.98      1353.0811     -211951.9       192.0811       192.22792      1103.8062    
     66300  -213202.65      1343.4633     -211859.19      192.07011      192.21196      1104.2208    
     66400  -213123.18      1354.9282     -211768.25      192.06121      192.19929      1104.6355    
     66500  -213024.62      1348.8021     -211675.82      192.04905      192.18483      1105.0501    
     66600  -212933.71      1350.1407     -211583.57      192.03516      192.16977      1105.4648    
     66700  -212836.31      1346.4432     -211489.87      192.02295      192.1574       1105.8795    
     66800  -212750.54      1357.2819     -211393.26      192.00807      192.14394      1106.2941    
     66900  -212651.43      1353.6788     -211297.75      191.99407      192.13051      1106.7088    
     67000  -212556.47      1354.2125     -211202.26      191.98083      192.1187       1107.1234    
     67100  -212453.39      1347.7393     -211105.65      191.96678      192.10545      1107.5381    
     67200  -212362.54      1352.6621     -211009.88      191.95307      192.0933       1107.9527    
     67300  -212264.89      1353.9086     -210910.98      191.93869      192.08101      1108.3674    
     67400  -212171.88      1357.7569     -210814.12      191.92413      192.06812      1108.782     
     67500  -212074.1       1356.9583     -210717.15      191.90933      192.05621      1109.1967    
     67600  -211968.4       1348.4395     -210619.96      191.89364      192.04123      1109.6113    
     67700  -211884.3       1360.7927     -210523.51      191.87919      192.02821      1110.026     
     67800  -211780.6       1355.2984     -210425.3       191.86529      192.01538      1110.4406    
     67900  -211681.24      1353.6406     -210327.59      191.84953      192.00117      1110.8553    
     68000  -211582.29      1352.693      -210229.6       191.83451      191.98837      1111.2699    
     68100  -211489.6       1360.0578     -210129.54      191.81968      191.97458      1111.6846    
     68200  -211389.2       1358.3382     -210030.86      191.804        191.96038      1112.0992    
     68300  -211290.59      1362.4287     -209928.16      191.79124      191.94731      1112.5139    
     68400  -211185.23      1356.3089     -209828.92      191.77777      191.93382      1112.9286    
     68500  -211084.74      1356.5163     -209728.22      191.76593      191.92         1113.3432    
     68600  -210978.87      1351.9733     -209626.89      191.75374      191.90618      1113.7579    
     68700  -210877.8       1354.6269     -209523.17      191.73957      191.89047      1114.1725    
     68800  -210777.48      1357.0169     -209420.46      191.72855      191.87634      1114.5872    
     68900  -210677.9       1360.7645     -209317.14      191.71777      191.86299      1115.0018    
     69000  -210577.78      1365.8116     -209211.97      191.70492      191.84698      1115.4165    
     69100  -210464.09      1356.6353     -209107.45      191.69379      191.83235      1115.8311    
     69200  -210373.21      1367.8017     -209005.41      191.68177      191.81908      1116.2458    
     69300  -210252.28      1353.1651     -208899.11      191.66722      191.80374      1116.6604    
     69400  -210151.37      1359.0961     -208792.28      191.65504      191.7917       1117.0751    
     69500  -210042.79      1356.285      -208686.51      191.64178      191.77872      1117.4897    
     69600  -209935.16      1353.6393     -208581.52      191.62555      191.76203      1117.9044    
     69700  -209834.03      1360.6321     -208473.4       191.61176      191.74735      1118.319     
     69800  -209727.07      1360.7894     -208366.29      191.59878      191.73284      1118.7337    
     69900  -209612.89      1354.1677     -208258.73      191.58402      191.71879      1119.1483    
     70000  -209510.24      1356.4231     -208153.82      191.56965      191.70726      1119.563     
     70100  -209406.99      1362.1645     -208044.83      191.55306      191.69559      1119.9777    
     70200  -209305.78      1367.94       -207937.84      191.53604      191.6835       1120.3923    
     70300  -209188.69      1364.7113     -207823.98      191.52195      191.67166      1120.807     
     70400  -209076.03      1364.6447     -207711.39      191.50864      191.65981      1121.2216    
     70500  -208955.22      1352.5324     -207602.69      191.49575      191.64739      1121.6363    
     70600  -208859.39      1367.595      -207491.79      191.48146      191.63469      1122.0509    
     70700  -208745.33      1366.7678     -207378.56      191.46651      191.62157      1122.4656    
     70800  -208641.25      1374.7725     -207266.48      191.45308      191.60901      1122.8802    
     70900  -208520.73      1368.7484     -207151.98      191.43981      191.59524      1123.2949    
     71000  -208416.99      1378.4744     -207038.51      191.42659      191.58018      1123.7095    
     71100  -208288.86      1367.5085     -206921.35      191.41415      191.56532      1124.1242    
     71200  -208177.66      1368.8193     -206808.84      191.40213      191.55124      1124.5388    
     71300  -208065.55      1373.7801     -206691.77      191.38852      191.53716      1124.9535    
     71400  -207953.5       1374.1573     -206579.35      191.37475      191.52294      1125.3681    
     71500  -207848.13      1384.2282     -206463.91      191.36218      191.50934      1125.7828    
     71600  -207726.36      1379.8752     -206346.48      191.35012      191.49553      1126.1974    
     71700  -207610.18      1379.7964     -206230.38      191.33581      191.48053      1126.6121    
     71800  -207489.26      1377.0365     -206112.22      191.32227      191.46738      1127.0268    
     71900  -207373.37      1379.6945     -205993.68      191.30911      191.45523      1127.4414    
     72000  -207258.68      1383.9039     -205874.78      191.29303      191.44029      1127.8561    
     72100  -207141.64      1385.6393     -205756         191.27857      191.42699      1128.2707    
     72200  -207024.35      1386.8632     -205637.49      191.26601      191.41468      1128.6854    
     72300  -206903.82      1385.1181     -205518.7       191.24987      191.39842      1129.1       
     72400  -206793.83      1397.2823     -205396.55      191.23541      191.38368      1129.5147    
     72500  -206667.62      1389.1621     -205278.46      191.22238      191.37095      1129.9293    
     72600  -206544.52      1391.1433     -205153.38      191.20717      191.35685      1130.344     
     72700  -206428.95      1395.5063     -205033.44      191.19307      191.34279      1130.7586    
     72800  -206299.79      1391.1479     -204908.64      191.17903      191.32836      1131.1733    
     72900  -206180.46      1391.2476     -204789.21      191.16602      191.31401      1131.5879    
     73000  -206069.32      1410.3967     -204658.92      191.15341      191.30084      1132.0026    
     73100  -205934.45      1403.373      -204531.08      191.14059      191.28742      1132.4172    
     73200  -205811.24      1408.9482     -204402.29      191.12646      191.27463      1132.8319    
     73300  -205691.55      1416.9728     -204274.57      191.11125      191.26055      1133.2465    
     73400  -205561.93      1422.2397     -204139.69      191.0971       191.24809      1133.6612    
     73500  -205436.1       1425.2845     -204010.81      191.08267      191.23558      1134.0759    
     73600  -205309.22      1425.3943     -203883.83      191.06778      191.22172      1134.4905    
     73700  -205186.98      1428.6705     -203758.31      191.05354      191.20941      1134.9052    
     73800  -205056.15      1424.5276     -203631.62      191.03892      191.19539      1135.3198    
     73900  -204926.34      1432.2717     -203494.06      191.0243       191.18101      1135.7345    
     74000  -204804.92      1438.4168     -203366.5       191.0096       191.16673      1136.1491    
     74100  -204674.63      1433.7731     -203240.86      190.99483      191.15253      1136.5638    
     74200  -204549.65      1443.5948     -203106.05      190.97994      191.1377       1136.9784    
     74300  -204419.44      1448.4507     -202970.99      190.9662       191.12324      1137.3931    
     74400  -204285.16      1454.9657     -202830.2       190.95339      191.1095       1137.8077    
     74500  -204145.99      1462.0296     -202683.96      190.93984      191.09525      1138.2224    
     74600  -204004.35      1464.2053     -202540.14      190.92656      191.08201      1138.637     
     74700  -203876.01      1471.0837     -202404.93      190.91317      191.06899      1139.0517    
     74800  -203744.09      1486.2935     -202257.79      190.89827      191.05408      1139.4663    
     74900  -203601.58      1489.3579     -202112.22      190.88417      191.03889      1139.881     
     75000  -203483.75      1511.2208     -201972.53      190.87042      191.02389      1140.2956    
     75100  -203341.87      1506.1375     -201835.73      190.8563       191.00962      1140.7103    
     75200  -203209.48      1508.3863     -201701.09      190.8416       190.9949       1141.125     
     75300  -203060.1       1501.0448     -201559.05      190.82714      190.98021      1141.5396    
     75400  -202931.64      1515.9574     -201415.68      190.81333      190.96605      1141.9543    
     75500  -202786.47      1523.8433     -201262.63      190.79846      190.95077      1142.3689    
     75600  -202642.95      1517.5365     -201125.41      190.78382      190.93569      1142.7836    
     75700  -202503.44      1528.711      -200974.73      190.77083      190.9224       1143.1982    
     75800  -202374.86      1542.1493     -200832.71      190.75633      190.90844      1143.6129    
     75900  -202309.36      1625.5929     -200683.77      190.74086      190.89374      1144.0275    
     76000  -202635.59      2020.7518     -200614.84      190.72619      190.88063      1144.4422    
     76100  -203696.77      2932.2239     -200764.54      190.71439      190.87078      1144.8568    
     76200  -205577.82      4066.9288     -201510.9       190.70617      190.86483      1145.2715    
     76300  -208261.51      5273.5656     -202987.94      190.70429      190.86082      1145.6861    
     76400  -211949.65      6248.7673     -205700.88      190.71716      190.869        1146.1008    
     76500  -215977.55      6598.0301     -209379.52      190.7488       190.8927       1146.5154    
     76600  -219784.22      6308.7648     -213475.45      190.78399      190.9205       1146.9301    
     76700  -223586.56      6011.8679     -217574.69      190.82028      190.94955      1147.3447    
     76800  -227064.86      5520.8974     -221543.96      190.86697      190.98884      1147.7594    
     76900  -229962.95      4866.2679     -225096.68      190.91373      191.03126      1148.1741    
     77000  -232461.65      4324.4865     -228137.16      190.96077      191.07456      1148.5887    
     77100  -234612.26      3860.4774     -230751.79      191.00588      191.12099      1149.0034    
     77200  -236533.6       3515.7822     -233017.82      191.04683      191.16532      1149.418     
     77300  -238272.59      3246.1847     -235026.4       191.08515      191.20913      1149.8327    
     77400  -239867.45      3031.7805     -236835.67      191.12274      191.25303      1150.2473    
     77500  -241267.32      2807.8835     -238459.43      191.15985      191.29681      1150.662     
     77600  -242522.17      2616.7238     -239905.45      191.19696      191.34093      1151.0766    
     77700  -243654.74      2451.8392     -241202.9       191.23367      191.38358      1151.4913    
     77800  -244694.07      2317.7748     -242376.29      191.2702       191.42633      1151.9059    
     77900  -245607.35      2169.6417     -243437.71      191.30854      191.47069      1152.3206    
     78000  -246383.23      2013.3759     -244369.86      191.34637      191.51567      1152.7352    
     78100  -247047.62      1868.9149     -245178.71      191.38287      191.5601       1153.1499    
     78200  -247570.25      1710.6067     -245859.64      191.41749      191.60357      1153.5645    
     78300  -247986.37      1572.4561     -246413.91      191.45223      191.6486       1153.9792    
     78400  -248299.22      1450.5777     -246848.64      191.48684      191.69411      1154.3938    
     78500  -248516.33      1349.4663     -247166.86      191.51983      191.73889      1154.8085    
     78600  -248643.49      1281.4505     -247362.04      191.55192      191.78264      1155.2232    
     78700  -248695.24      1273.0776     -247422.16      191.58296      191.82457      1155.6378    
     78800  -248663.7       1307.2782     -247356.43      191.61236      191.86386      1156.0525    
     78900  -248524.42      1300.8155     -247223.61      191.63852      191.89894      1156.4671    
     79000  -248281.33      1241.2113     -247040.12      191.65977      191.92862      1156.8818    
     79100  -248007.26      1222.1719     -246785.09      191.67556      191.95222      1157.2964    
     79200  -247802.29      1303.0071     -246499.28      191.68174      191.96459      1157.7111    
     79300  -247694.68      1431.3934     -246263.28      191.67797      191.96379      1158.1257    
     79400  -247584.12      1390.5329     -246193.58      191.67295      191.95714      1158.5404    
     79500  -247507.56      1294.7305     -246212.83      191.6842       191.96531      1158.955     
     79600  -247412.19      1265.5597     -246146.63      191.71456      191.98784      1159.3697    
     79700  -247326.43      1350.1554     -245976.27      191.74688      192.00658      1159.7843    
     79800  -247282.06      1432.4869     -245849.58      191.77528      192.01425      1160.199     
     79900  -247278.14      1390.5068     -245887.63      191.80381      192.02456      1160.6136    
     80000  -247325.15      1319.5735     -246005.58      191.83416      192.03916      1161.0283    
     80100  -247363.41      1293.212      -246070.2       191.86591      192.06019      1161.443     
     80200  -247366.65      1318.9806     -246047.67      191.89921      192.0845       1161.8576    
     80300  -247394.45      1399.17       -245995.28      191.92449      192.10909      1162.2723    
     80400  -247446.52      1405.9449     -246040.58      191.94527      192.12931      1162.6869    
     80500  -247499.78      1322.2066     -246177.57      191.96404      192.14874      1163.1016    
     80600  -247531.78      1278.6853     -246253.09      191.97615      192.16443      1163.5162    
     80700  -247518.3       1301.7908     -246216.5       191.99164      192.17824      1163.9309    
     80800  -247508.93      1389.7178     -246119.21      192.01209      192.19418      1164.3455    
     80900  -247464.51      1390.7791     -246073.73      192.03259      192.20941      1164.7602    
     81000  -247461.06      1347.2103     -246113.85      192.05199      192.22229      1165.1748    
     81100  -247495.79      1322.0404     -246173.75      192.06992      192.2369       1165.5895    
     81200  -247507.77      1318.9224     -246188.85      192.0899       192.25438      1166.0041    
     81300  -247511         1361.2305     -246149.77      192.11443      192.27374      1166.4188    
     81400  -247479.4       1348.6567     -246130.75      192.14217      192.29288      1166.8334    
     81500  -247503.63      1355.1091     -246148.52      192.16963      192.31309      1167.2481    
     81600  -247530.11      1334.9503     -246195.16      192.19637      192.33971      1167.6627    
     81700  -247553.18      1327.3013     -246225.88      192.22071      192.36094      1168.0774    
     81800  -247534.75      1325.2774     -246209.47      192.24346      192.38214      1168.4921    
     81900  -247493.73      1340.6611     -246153.07      192.2678       192.40503      1168.9067    
     82000  -247474.94      1371.8972     -246103.04      192.29449      192.42846      1169.3214    
     82100  -247491.63      1377.276      -246114.36      192.31665      192.4521       1169.736     
     82200  -247486.67      1317.0619     -246169.61      192.33664      192.47535      1170.1507    
     82300  -247516.29      1322.4945     -246193.8       192.36026      192.50256      1170.5653    
     82400  -247506.82      1326.4959     -246180.32      192.38427      192.52857      1170.98      
     82500  -247468.06      1339.2877     -246128.77      192.40483      192.55469      1171.3946    
     82600  -247463.98      1388.7211     -246075.26      192.42354      192.58131      1171.8093    
     82700  -247440.43      1354.1764     -246086.26      192.44473      192.61095      1172.2239    
     82800  -247460.9       1333.2179     -246127.69      192.46393      192.64078      1172.6386    
     82900  -247472.28      1321.0976     -246151.18      192.48494      192.66705      1173.0532    
     83000  -247472.45      1338.1334     -246134.32      192.50764      192.69589      1173.4679    
     83100  -247451.16      1351.6224     -246099.54      192.52381      192.71991      1173.8825    
     83200  -247448.42      1368.2235     -246080.19      192.5376       192.74243      1174.2972    
     83300  -247432.57      1343.6753     -246088.9       192.55708      192.77076      1174.7118    
     83400  -247442.78      1333.5606     -246109.22      192.58264      192.79835      1175.1265    
     83500  -247452.5       1331.1236     -246121.38      192.6013       192.81855      1175.5412    
     83600  -247450.63      1343.0282     -246107.6       192.61747      192.84126      1175.9558    
     83700  -247421.38      1343.673      -246077.71      192.63297      192.86229      1176.3705    
     83800  -247437.09      1378.4146     -246058.68      192.64811      192.88046      1176.7851    
     83900  -247432.36      1350.7953     -246081.56      192.6706       192.90379      1177.1998    
     84000  -247456.13      1337.7539     -246118.37      192.69216      192.92358      1177.6144    
     84100  -247443.2       1333.3114     -246109.89      192.71124      192.94137      1178.0291    
     84200  -247430.12      1338.8828     -246091.24      192.72937      192.95603      1178.4437    
     84300  -247422.44      1357.4805     -246064.96      192.74818      192.97498      1178.8584    
     84400  -247412.35      1362.6616     -246049.69      192.76276      192.99517      1179.273     
     84500  -247390.82      1340.5731     -246050.24      192.77539      193.01959      1179.6877    
     84600  -247411.17      1346.3365     -246064.83      192.78503      193.04305      1180.1023    
     84700  -247397.45      1341.465      -246055.99      192.79016      193.05937      1180.517     
     84800  -247370.26      1337.2673     -246032.99      192.79598      193.07508      1180.9316    
     84900  -247360.32      1357.6128     -246002.71      192.80189      193.08678      1181.3463    
     85000  -247350.58      1363.2517     -245987.33      192.80676      193.09454      1181.7609    
     85100  -247373.43      1349.7905     -246023.64      192.81553      193.10677      1182.1756    
     85200  -247392.32      1327.8669     -246064.45      192.82428      193.12057      1182.5903    
     85300  -247394         1327.1782     -246066.82      192.82639      193.13301      1183.0049    
     85400  -247394.25      1352.2713     -246041.98      192.82297      193.14679      1183.4196    
     85500  -247371.2       1363.4577     -246007.74      192.81973      193.16179      1183.8342    
     85600  -247368.65      1351.8807     -246016.76      192.81561      193.1789       1184.2489    
     85700  -247382.47      1328.2982     -246054.17      192.80929      193.19623      1184.6635    
     85800  -247382.58      1308.53       -246074.05      192.7998       193.20782      1185.0782    
     85900  -247374.02      1328.6166     -246045.4       192.79277      193.21925      1185.4928    
     86000  -247357.14      1364.0924     -245993.04      192.78216      193.23007      1185.9075    
     86100  -247344.72      1376.9953     -245967.72      192.77231      193.24385      1186.3221    
     86200  -247350.75      1355.287      -245995.46      192.76353      193.25556      1186.7368    
     86300  -247387.57      1339.7369     -246047.83      192.7524       193.26692      1187.1514    
     86400  -247407.14      1328.6538     -246078.49      192.74055      193.28224      1187.5661    
     86500  -247391.33      1326.13       -246065.2       192.73263      193.30278      1187.9807    
     86600  -247393.38      1362.9003     -246030.48      192.72176      193.32212      1188.3954    
     86700  -247389         1374.2974     -246014.7       192.70617      193.33898      1188.81      
     86800  -247392.95      1351.6972     -246041.25      192.69365      193.35536      1189.2247    
     86900  -247415.06      1334.6234     -246080.43      192.68463      193.36378      1189.6394    
     87000  -247415.52      1318.9232     -246096.6       192.67931      193.37348      1190.054     
     87100  -247402.49      1330.9762     -246071.51      192.67223      193.38573      1190.4687    
     87200  -247383.09      1353.8575     -246029.23      192.66444      193.39622      1190.8833    
     87300  -247383.4       1370.9155     -246012.48      192.66126      193.41037      1191.298     
     87400  -247397.28      1354.684      -246042.6       192.66032      193.42438      1191.7126    
     87500  -247422.15      1327.903      -246094.25      192.65255      193.43602      1192.1273    
     87600  -247435.54      1314.2297     -246121.31      192.64761      193.44878      1192.5419    
     87700  -247436.26      1330.9087     -246105.35      192.64614      193.45725      1192.9566    
     87800  -247420.27      1355.0054     -246065.26      192.64663      193.46101      1193.3712    
     87900  -247405.8       1361.3583     -246044.44      192.64785      193.46592      1193.7859    
     88000  -247407.11      1349.8889     -246057.22      192.64858      193.47582      1194.2005    
     88100  -247416.13      1338.6289     -246077.5       192.65305      193.4875       1194.6152    
     88200  -247422.51      1322.1464     -246100.36      192.65764      193.50045      1195.0298    
     88300  -247422.68      1326.9637     -246095.71      192.66292      193.51437      1195.4445    
     88400  -247412         1353.517      -246058.48      192.6698       193.52512      1195.8591    
     88500  -247382.72      1358.2788     -246024.44      192.67499      193.53719      1196.2738    
     88600  -247395.99      1361.3573     -246034.63      192.67803      193.5538       1196.6885    
     88700  -247412.22      1332.7016     -246079.52      192.67958      193.5694       1197.1031    
     88800  -247431.46      1324.3156     -246107.15      192.68258      193.58788      1197.5178    
     88900  -247432.55      1338.7296     -246093.82      192.68505      193.60933      1197.9324    
     89000  -247418.97      1359.6764     -246059.29      192.683        193.6265       1198.3471    
     89100  -247414.27      1367.2622     -246047.01      192.68673      193.64423      1198.7617    
     89200  -247437.93      1352.6918     -246085.24      192.69405      193.66329      1199.1764    
     89300  -247462.33      1320.8325     -246141.49      192.69707      193.68425      1199.591     
     89400  -247478.85      1313.7881     -246165.06      192.70279      193.71426      1200.0057    
     89500  -247471.49      1331.7089     -246139.79      192.71239      193.74884      1200.4203    
     89600  -247465.02      1365.1131     -246099.9       192.72214      193.78214      1200.835     
     89700  -247470.2       1369.4246     -246100.77      192.73193      193.81274      1201.2496    
     89800  -247490.75      1344.8347     -246145.91      192.74581      193.84018      1201.6643    
     89900  -247494.74      1307.4534     -246187.29      192.76059      193.86321      1202.0789    
     90000  -247501.54      1314.9995     -246186.54      192.77374      193.88646      1202.4936    
     90100  -247486.69      1349.7883     -246136.9       192.79269      193.91115      1202.9082    
     90200  -247465.99      1373.0032     -246092.99      192.81337      193.93552      1203.3229    
     90300  -247467.93      1359.5879     -246108.35      192.83321      193.95881      1203.7376    
     90400  -247508.02      1343.6946     -246164.33      192.85336      193.98188      1204.1522    
     90500  -247519.68      1311.4233     -246208.26      192.88062      194.00359      1204.5669    
     90600  -247509.03      1316.144      -246192.89      192.90833      194.02113      1204.9815    
     90700  -247478.93      1352.3957     -246126.53      192.93502      194.03698      1205.3962    
     90800  -247456.68      1378.9017     -246077.78      192.96561      194.057        1205.8108    
     90900  -247449.98      1358.591      -246091.39      192.99462      194.07496      1206.2255    
     91000  -247486.26      1338.7823     -246147.48      193.0205       194.08956      1206.6401    
     91100  -247495.44      1305.4528     -246189.99      193.04746      194.10353      1207.0548    
     91200  -247490.13      1319.2864     -246170.84      193.07807      194.12023      1207.4694    
     91300  -247472.18      1361.8569     -246110.33      193.11112      194.13384      1207.8841    
     91400  -247450.41      1379.7352     -246070.67      193.14211      194.14103      1208.2987    
     91500  -247469.22      1371.7125     -246097.51      193.17449      194.15015      1208.7134    
     91600  -247492.43      1328.5441     -246163.89      193.20353      194.15867      1209.128     
     91700  -247512.69      1311.5007     -246201.19      193.22995      194.16739      1209.5427    
     91800  -247509.24      1331.6563     -246177.59      193.26049      194.18042      1209.9573    
     91900  -247482.26      1361.2738     -246120.99      193.28871      194.19189      1210.372     
     92000  -247469.93      1377.3863     -246092.54      193.31278      194.20205      1210.7867    
     92100  -247477.52      1357.6397     -246119.88      193.33314      194.21002      1211.2013    
     92200  -247507.87      1335.392      -246172.48      193.34924      194.21268      1211.616     
     92300  -247501.41      1306.6224     -246194.79      193.35963      194.2127       1212.0306    
     92400  -247508.17      1339.4641     -246168.71      193.36757      194.21489      1212.4453    
     92500  -247494.85      1359.2041     -246135.65      193.37578      194.21797      1212.8599    
     92600  -247498.27      1367.7014     -246130.56      193.37834      194.2194       1213.2746    
     92700  -247508.08      1348.4936     -246159.59      193.38155      194.22154      1213.6892    
     92800  -247529.53      1331.0748     -246198.45      193.38616      194.2222       1214.1039    
     92900  -247533.02      1318.8979     -246214.13      193.3899       194.22404      1214.5185    
     93000  -247532.1       1336.5943     -246195.5       193.39201      194.2248       1214.9332    
     93100  -247521.09      1357.3635     -246163.73      193.39745      194.22634      1215.3478    
     93200  -247511.04      1357.5874     -246153.45      193.40369      194.22899      1215.7625    
     93300  -247511.7       1336.2375     -246175.46      193.41026      194.22771      1216.1771    
     93400  -247535.23      1327.0582     -246208.18      193.42023      194.22926      1216.5918    
     93500  -247540.5       1320.038      -246220.46      193.43451      194.23505      1217.0064    
     93600  -247532.54      1334.7595     -246197.78      193.44552      194.23989      1217.4211    
     93700  -247531.28      1364.2304     -246167.05      193.45433      194.24492      1217.8358    
     93800  -247515.71      1358.6487     -246157.06      193.46353      194.25039      1218.2504    
     93900  -247519.75      1345.8426     -246173.9       193.47086      194.25459      1218.6651    
     94000  -247538.84      1337.9602     -246200.88      193.47875      194.25764      1219.0797    
     94100  -247545.75      1331.0174     -246214.73      193.48954      194.26208      1219.4944    
     94200  -247542.17      1337.9762     -246204.2       193.49882      194.26346      1219.909     
     94300  -247533.57      1352.7821     -246180.79      193.50519      194.26313      1220.3237    
     94400  -247519.76      1348.9244     -246170.84      193.51237      194.26436      1220.7383    
     94500  -247532.11      1350.558      -246181.55      193.52229      194.27073      1221.153     
     94600  -247547.54      1341.6973     -246205.84      193.53537      194.28062      1221.5676    
     94700  -247563.29      1337.9009     -246225.39      193.5498       194.29103      1221.9823    
     94800  -247570.36      1344.0605     -246226.3       193.56247      194.29929      1222.3969    
     94900  -247550.4       1342.0574     -246208.34      193.57636      194.30567      1222.8116    
     95000  -247545.9       1357.2768     -246188.63      193.59243      194.3145       1223.2262    
     95100  -247556.12      1367.0363     -246189.08      193.60767      194.32401      1223.6409    
     95200  -247558.01      1343.4922     -246214.52      193.62122      194.33471      1224.0555    
     95300  -247571.18      1329.9828     -246241.2       193.63529      194.34666      1224.4702    
     95400  -247566.67      1323.0968     -246243.57      193.65058      194.35942      1224.8849    
     95500  -247567.53      1344.5373     -246222.99      193.6697       194.36734      1225.2995    
     95600  -247565.91      1363.3065     -246202.6       193.68936      194.37301      1225.7142    
     95700  -247567.58      1360.3274     -246207.25      193.70608      194.37874      1226.1288    
     95800  -247584.63      1344.5464     -246240.08      193.72112      194.38135      1226.5435    
     95900  -247596.01      1326.1463     -246269.87      193.73916      194.3818       1226.9581    
     96000  -247595.21      1326.3175     -246268.89      193.7601       194.38543      1227.3728    
     96100  -247577.73      1336.4899     -246241.24      193.77955      194.39036      1227.7874    
     96200  -247580.08      1365.3166     -246214.77      193.79896      194.39637      1228.2021    
     96300  -247579.6       1363.888      -246215.71      193.819        194.40534      1228.6167    
     96400  -247583.54      1342.3222     -246241.22      193.84039      194.41698      1229.0314    
     96500  -247590.24      1327.5515     -246262.69      193.86233      194.43298      1229.446     
     96600  -247585.92      1326.5067     -246259.41      193.88337      194.45202      1229.8607    
     96700  -247592.48      1357.3783     -246235.11      193.90431      194.46985      1230.2753    
     96800  -247577.7       1364.2145     -246213.48      193.92645      194.48581      1230.69      
     96900  -247575.83      1360.1691     -246215.66      193.94992      194.5013       1231.1046    
     97000  -247576.39      1337.9617     -246238.43      193.97279      194.51474      1231.5193    
     97100  -247590.09      1333.1132     -246256.98      193.99174      194.52374      1231.934     
     97200  -247585.9       1333.3923     -246252.51      194.01052      194.53645      1232.3486    
     97300  -247578.79      1348.1931     -246230.6       194.02866      194.54834      1232.7633    
     97400  -247569.81      1360.2193     -246209.59      194.04736      194.55737      1233.1779    
     97500  -247569.09      1360.317      -246208.78      194.06746      194.56239      1233.5926    
     97600  -247580.77      1344.6912     -246236.08      194.08966      194.56392      1234.0072    
     97700  -247587.51      1322.1034     -246265.41      194.1131       194.56843      1234.4219    
     97800  -247595.49      1326.5666     -246268.92      194.13879      194.57616      1234.8365    
     97900  -247595.21      1350.7084     -246244.51      194.1623       194.5786       1235.2512    
     98000  -247579.89      1360.2064     -246219.68      194.18375      194.57914      1235.6658    
     98100  -247572.32      1353.3363     -246218.98      194.20587      194.58348      1236.0805    
     98200  -247596.63      1350.9456     -246245.68      194.2292       194.58671      1236.4951    
     98300  -247609.41      1334.7973     -246274.62      194.25151      194.59272      1236.9098    
     98400  -247594.85      1320.7636     -246274.08      194.27654      194.60907      1237.3244    
     98500  -247595.13      1350.108      -246245.02      194.29907      194.62529      1237.7391    
     98600  -247587.89      1362.3194     -246225.57      194.31842      194.6399       1238.1537    
     98700  -247582.3       1342.9794     -246239.32      194.34036      194.66184      1238.5684    
     98800  -247613.11      1345.075      -246268.03      194.35578      194.68222      1238.9831    
     98900  -247610.42      1326.0889     -246284.33      194.36633      194.70286      1239.3977    
     99000  -247609.4       1331.5197     -246277.88      194.38112      194.72812      1239.8124    
     99100  -247590.74      1341.9086     -246248.83      194.39366      194.75006      1240.227     
     99200  -247594.87      1369.8083     -246225.06      194.40179      194.77082      1240.6417    
     99300  -247595.05      1360.7374     -246234.31      194.40882      194.79515      1241.0563    
     99400  -247620.98      1344.9757     -246276         194.40804      194.8184       1241.471     
     99500  -247624.37      1316.6011     -246307.77      194.40668      194.83902      1241.8856    
     99600  -247617.9       1322.813      -246295.08      194.40734      194.86003      1242.3003    
     99700  -247601.72      1347.321      -246254.4       194.40473      194.88068      1242.7149    
     99800  -247598.63      1370.3835     -246228.25      194.3989       194.90195      1243.1296    
     99900  -247603         1357.2241     -246245.78      194.39209      194.92567      1243.5442    
    100000  -247628.23      1337.8159     -246290.42      194.38348      194.94912      1243.9589    
Loop time of 5701.6 on 12 procs for 100000 steps with 34656 atoms

Performance: 1.515 ns/day, 15.838 hours/ns, 17.539 timesteps/s, 607.830 katom-step/s
90.7% CPU use with 12 MPI tasks x 1 OpenMP threads

MPI task timing breakdown:
Section |  min time  |  avg time  |  max time  |%varavg| %total
---------------------------------------------------------------
Pair    | 2926.2     | 3895.5     | 5134.2     |1258.9 | 68.32
Neigh   | 29.529     | 39.64      | 53.653     | 118.2 |  0.70
Comm    | 54.96      | 1397.9     | 2439.7     |2168.7 | 24.52
Output  | 1.4447     | 1.5426     | 1.6437     |   4.9 |  0.03
Modify  | 194.22     | 362.11     | 670.05     | 840.1 |  6.35
Other   |            | 4.919      |            |       |  0.09

Nlocal:           2888 ave        4472 max         854 min
Histogram: 1 1 1 1 1 0 2 2 1 2
Nghost:        3079.83 ave        4671 max        1607 min
Histogram: 1 1 2 2 2 0 0 1 1 2
Neighs:              0 ave           0 max           0 min
Histogram: 12 0 0 0 0 0 0 0 0 0

Total # of neighbors = 0
Ave neighs/atom = 0
Neighbor list builds = 1007
Dangerous builds = 0
Total wall time: 1:35:03
