LAMMPS (2 Aug 2023 - Update 3)
OMP_NUM_THREADS environment is not set. Defaulting to 1 thread. (src/comm.cpp:98)
  using 1 OpenMP thread(s) per MPI task

# 1------general---------------
units                             metal      #单位为lammps 中的metel 类型
dimension                    3          #模拟的维度 三维
boundary                    p p p      #周期边界条件
atom_style                  atomic   #原子类型自动
atom_modify              map array sort 100 2.0
neighbor                    3.0 bin
neigh_modify            every 1 delay 0 check yes
#2 -----global variable-------定义全局变量，方便统一修改；
variable temperature equal 300
variable tstep equal 0.001
variable pressure equal 0
variable thermalstep equal 100
variable dumpstep equal 1000
variable relaxtime equal 0
variable totaltime equal 100000
variable deformrate equal 5e-3
#3 -------model------------
#box tilt large
read_data     1.lmp
Reading data file ...
  orthogonal box = (-100 -100 -2.1416495) to (100 100 39.081159)
  4 by 3 by 1 MPI processor grid
  reading atoms ...
  1620 atoms
  read_data CPU = 0.005 seconds
replicate 1 1 5
Replication is creating a 1x1x5 = 5 times larger system...
  orthogonal box = (-100 -100 -2.1416495) to (100 100 203.9724)
  2 by 2 by 3 MPI processor grid
  8100 atoms
  replicate CPU = 0.002 seconds
write_data h.data
System init for write_data ...
WARNING: Communication cutoff is 0.0. No ghost atoms will be generated. Atoms may get lost. (src/comm_brick.cpp:210)
pair_style hybrid airebo 3.0 airebo 3.0 airebo 3.0 lj/cut 10
pair_coeff * * airebo 1 CH.airebo C NULL NULL
Reading airebo potential file CH.airebo with DATE: 2011-10-25
pair_coeff * * airebo 2 CH.airebo NULL C NULL
Reading airebo potential file CH.airebo with DATE: 2011-10-25
pair_coeff * * airebo 3 CH.airebo NULL NULL C
Reading airebo potential file CH.airebo with DATE: 2011-10-25
pair_coeff 1 2 lj/cut 0.00456 3.431
pair_coeff 1 3 lj/cut 0.00456 3.431
pair_coeff 2 3 lj/cut 0.00456 3.431

# 5------minimize -----------
min_style      sd
minimize       1.0e-4 1.0e-6 100 1000
Neighbor list info ...
  update: every = 1 steps, delay = 0 steps, check = yes
  max neighbors/atom: 2000, page size: 100000
  master list distance cutoff = 13.2
  ghost atom cutoff = 13.2
  binsize = 6.6, bins = 31 31 32
  6 neighbor lists, perpetual/occasional/extra = 6 0 0
  (1) pair airebo, perpetual, skip from (5)
      attributes: full, newton on, ghost
      pair build: skip/ghost
      stencil: none
      bin: none
  (2) pair airebo, perpetual, skip from (5)
      attributes: full, newton on, ghost
      pair build: skip/ghost
      stencil: none
      bin: none
  (3) pair airebo, perpetual, skip from (5)
      attributes: full, newton on, ghost
      pair build: skip/ghost
      stencil: none
      bin: none
  (4) pair lj/cut, perpetual, skip from (6)
      attributes: half, newton on, cut 13
      pair build: skip
      stencil: none
      bin: none
  (5) neighbor class addition, perpetual
      attributes: full, newton on, ghost
      pair build: full/bin/ghost
      stencil: full/ghost/bin/3d
      bin: standard
  (6) neighbor class addition, perpetual
      attributes: half, newton on, cut 13
      pair build: half/bin/atomonly/newton
      stencil: half/bin/3d
      bin: standard
Per MPI rank memory allocation (min/avg/max) = 12.04 | 12.45 | 12.8 Mbytes
   Step          Temp          E_pair         E_mol          TotEng         Press     
         0   0             -54248.727      0             -54248.727      3997.0868    
        24   0             -58187.369      0             -58187.369      81.021641    
Loop time of 0.82462 on 12 procs for 24 steps with 8100 atoms

85.4% CPU use with 12 MPI tasks x 1 OpenMP threads

Minimization stats:
  Stopping criterion = energy tolerance
  Energy initial, next-to-last, final = 
     -54248.7271488635  -58182.7734888446  -58187.3688186801
  Force two-norm initial, final = 1867.7276 25.212847
  Force max component initial, final = 177.24911 2.7877205
  Final line search alpha, max atom move = 0.017949923 0.050039368
  Iterations, force evaluations = 24 43

MPI task timing breakdown:
Section |  min time  |  avg time  |  max time  |%varavg| %total
---------------------------------------------------------------
Pair    | 0.44734    | 0.50817    | 0.64457    |   7.0 | 61.63
Neigh   | 0          | 0          | 0          |   0.0 |  0.00
Comm    | 0.13411    | 0.258      | 0.31957    |   9.3 | 31.29
Output  | 0          | 0          | 0          |   0.0 |  0.00
Modify  | 0          | 0          | 0          |   0.0 |  0.00
Other   |            | 0.05845    |            |       |  7.09

Nlocal:            675 ave         708 max         620 min
Histogram: 1 1 0 1 0 1 2 3 1 2
Nghost:        3056.33 ave        3132 max        3023 min
Histogram: 3 3 2 0 2 0 1 0 0 1
Neighs:              0 ave           0 max           0 min
Histogram: 12 0 0 0 0 0 0 0 0 0

Total # of neighbors = 0
Ave neighs/atom = 0
Neighbor list builds = 0
Dangerous builds = 0
#6----define computes------
variable nums equal count(all) #计算原子数目
variable toval equal 20.535*20.0413*lz #计算系统总体积，单层石墨烯厚度为0.335nm
variable vol equal ${toval} #体系的初始体积
variable vol equal 84825.8426755513 
variable vatom equal v_vol/v_nums #单个原子体积
compute 1 all stress/atom NULL #计算体系中单原子应力
compute xalls all reduce sum c_1[1]
variable xstress equal (c_xalls)/(v_toval*10000)
compute yalls all reduce sum c_1[2]
variable ystress equal (c_yalls)/(v_toval*10000)
compute zalls all reduce sum c_1[3]
variable zstress equal (c_zalls)/(v_toval*10000)
#7---------relaxation-------------------------
timestep ${tstep}
timestep 0.001
velocity all create ${temperature} 231743 units box dist gaussian
velocity all create 300 231743 units box dist gaussian
dump   1 all atom 100 all-cy.lammpstrj
#fix    1 all npt temp 300 300  0.1 aniso 0 0 10 drag 1  #三个方向独立控压
fix  1 all npt temp ${temperature} ${temperature} 0.1 x ${pressure} ${pressure} 10 y ${pressure} ${pressure} 10
fix  1 all npt temp 300 ${temperature} 0.1 x ${pressure} ${pressure} 10 y ${pressure} ${pressure} 10
fix  1 all npt temp 300 300 0.1 x ${pressure} ${pressure} 10 y ${pressure} ${pressure} 10
fix  1 all npt temp 300 300 0.1 x 0 ${pressure} 10 y ${pressure} ${pressure} 10
fix  1 all npt temp 300 300 0.1 x 0 0 10 y ${pressure} ${pressure} 10
fix  1 all npt temp 300 300 0.1 x 0 0 10 y 0 ${pressure} 10
fix  1 all npt temp 300 300 0.1 x 0 0 10 y 0 0 10
compute  2 all pe/atom
compute  pe all reduce sum c_2
variable PE equal "c_pe"
fix    pe all print 100 "${PE} " file PE.txt screen no
thermo  ${thermalstep}
thermo  100
#thermo_style  custom step pe ke etotal lx ly lz
run   ${relaxtime}
run   0
Per MPI rank memory allocation (min/avg/max) = 12.66 | 13.08 | 13.43 Mbytes
   Step          Temp          E_pair         E_mol          TotEng         Press          Volume    
        24   300           -58187.369      0             -57873.305      121.70987      8244561.8    
Loop time of 3.84631e-05 on 12 procs for 0 steps with 8100 atoms

88.8% CPU use with 12 MPI tasks x 1 OpenMP threads

MPI task timing breakdown:
Section |  min time  |  avg time  |  max time  |%varavg| %total
---------------------------------------------------------------
Pair    | 0          | 0          | 0          |   0.0 |  0.00
Neigh   | 0          | 0          | 0          |   0.0 |  0.00
Comm    | 0          | 0          | 0          |   0.0 |  0.00
Output  | 0          | 0          | 0          |   0.0 |  0.00
Modify  | 0          | 0          | 0          |   0.0 |  0.00
Other   |            | 3.846e-05  |            |       |100.00

Nlocal:            675 ave         716 max         630 min
Histogram: 1 1 0 1 1 3 3 1 0 1
Nghost:           3058 ave        3123 max        3024 min
Histogram: 1 4 2 0 2 2 0 0 0 1
Neighs:              0 ave           0 max           0 min
Histogram: 12 0 0 0 0 0 0 0 0 0

Total # of neighbors = 0
Ave neighs/atom = 0
Neighbor list builds = 0
Dangerous builds = 0
#8 -------tension-----------------------------
unfix  1
undump  1
unfix  pe
reset_timestep 0
fix avestress all ave/atom 1 ${dumpstep} ${dumpstep} c_1[1] c_1[2] c_1[3] c_1[4] c_1[5] c_1[6]
fix avestress all ave/atom 1 1000 ${dumpstep} c_1[1] c_1[2] c_1[3] c_1[4] c_1[5] c_1[6]
fix avestress all ave/atom 1 1000 1000 c_1[1] c_1[2] c_1[3] c_1[4] c_1[5] c_1[6]

#-----calculation of strain and Cumulative compression--------
variable                tmp equal "lz"
variable                L0 equal ${tmp}
variable                L0 equal 206.114045
variable                strain equal "(lz - v_L0)/v_L0"
variable                Cumulativels equal "(lz - v_L0)/10"
fix Step all print 100 "${strain} ${Cumulativels} ${zstress}" file grapoten.txt screen no

dump 2 all custom ${dumpstep} tension.xyz type x y z f_avestress[1] f_avestress[2] f_avestress[3] f_avestress[4] f_avestress[5] f_avestress[6]
dump 2 all custom 1000 tension.xyz type x y z f_avestress[1] f_avestress[2] f_avestress[3] f_avestress[4] f_avestress[5] f_avestress[6]

fix  1 all npt temp ${temperature} ${temperature} 0.1 y ${pressure} ${pressure} 10 x ${pressure} ${pressure} 10
fix  1 all npt temp 300 ${temperature} 0.1 y ${pressure} ${pressure} 10 x ${pressure} ${pressure} 10
fix  1 all npt temp 300 300 0.1 y ${pressure} ${pressure} 10 x ${pressure} ${pressure} 10
fix  1 all npt temp 300 300 0.1 y 0 ${pressure} 10 x ${pressure} ${pressure} 10
fix  1 all npt temp 300 300 0.1 y 0 0 10 x ${pressure} ${pressure} 10
fix  1 all npt temp 300 300 0.1 y 0 0 10 x 0 ${pressure} 10
fix  1 all npt temp 300 300 0.1 y 0 0 10 x 0 0 10

thermo_style custom step pe ke etotal lx ly lz
fix   2 all deform 1 z erate ${deformrate} remap x units box
fix   2 all deform 1 z erate 0.005 remap x units box
fix   3 all ave/time 2 500 1000 v_xstress v_ystress v_zstress file pressure.out
run   ${totaltime}
run   100000
WARNING: Dump 2 includes no atom IDs and is not sorted by ID. This may complicate post-processing tasks or visualization (src/dump.cpp:221)
Per MPI rank memory allocation (min/avg/max) = 14.16 | 14.58 | 14.93 Mbytes
   Step         PotEng         KinEng         TotEng           Lx             Ly             Lz      
         0  -58187.369      314.06337     -57873.305      200            200            206.11404    
       100  -58058.962      209.62842     -57849.334      199.98442      199.98943      206.2171     
       200  -58056.342      237.86006     -57818.482      199.91759      199.92995      206.32016    
       300  -58054.434      270.54174     -57783.892      200.00488      200.0278       206.42322    
       400  -58035.316      285.93845     -57749.378      200.00148      200.04322      206.52627    
       500  -58006.867      282.48193     -57724.385      199.90926      199.97275      206.62933    
       600  -58021.641      323.0313      -57698.61       199.95816      200.04179      206.73239    
       700  -58018.719      337.40224     -57681.316      199.98429      200.08173      206.83544    
       800  -58010.945      327.89411     -57683.051      199.92698      200.02787      206.9385     
       900  -58001.672      311.19248     -57690.48       199.94446      200.05523      207.04156    
      1000  -58005.959      313.32531     -57692.634      199.95494      200.0661       207.14462    
      1100  -58012.204      314.25041     -57697.954      199.95385      200.07097      207.24767    
      1200  -58009.227      310.12171     -57699.105      199.91999      200.05696      207.35073    
      1300  -58001.353      312.41954     -57688.933      199.93309      200.08958      207.45379    
      1400  -57991.892      316.28836     -57675.603      199.95212      200.11784      207.55684    
      1500  -57989.356      312.52561     -57676.831      199.90938      200.08136      207.6599     
      1600  -57997.641      311.61684     -57686.025      199.92943      200.10943      207.76296    
      1700  -58006.697      315.62035     -57691.077      199.92485      200.10697      207.86601    
      1800  -58004.297      311.8599      -57692.437      199.91679      200.10491      207.96907    
      1900  -58002.765      315.3166      -57687.449      199.91758      200.12419      208.07213    
      2000  -57999.495      319.81807     -57679.677      199.89762      200.11389      208.17519    
      2100  -57991.43       311.69011     -57679.74       199.90367      200.12347      208.27824    
      2200  -57999.628      316.96467     -57682.663      199.89546      200.12711      208.3813     
      2300  -58002.016      311.77624     -57690.24       199.89927      200.13389      208.48436    
      2400  -58002.823      308.46334     -57694.359      199.89797      200.13517      208.58741    
      2500  -57999.442      309.3834      -57690.058      199.89596      200.13044      208.69047    
      2600  -57995.651      314.70877     -57680.942      199.90049      200.13372      208.79353    
      2700  -57992.245      317.4264      -57674.819      199.89747      200.13164      208.89658    
      2800  -57997.673      320.15025     -57677.522      199.8935       200.12827      208.99964    
      2900  -58000.167      313.69436     -57686.473      199.89755      200.1259       209.1027     
      3000  -58002.809      311.99811     -57690.811      199.90391      200.11878      209.20576    
      3100  -58002.373      314.26735     -57688.106      199.90998      200.11049      209.30881    
      3200  -57993.663      311.16221     -57682.5        199.90852      200.10936      209.41187    
      3300  -57999.769      322.89048     -57676.879      199.90156      200.1195       209.51493    
      3400  -57996.224      318.71753     -57677.507      199.88826      200.13505      209.61798    
      3500  -57994.82       313.81015     -57681.01       199.87152      200.14568      209.72104    
      3600  -57991.54       309.5131      -57682.027      199.85913      200.1554       209.8241     
      3700  -57989.941      313.37419     -57676.567      199.84855      200.16037      209.92715    
      3800  -57983.681      316.70835     -57666.972      199.84832      200.16049      210.03021    
      3900  -57974.655      314.74323     -57659.912      199.85033      200.15883      210.13327    
      4000  -57982.485      322.75314     -57659.732      199.85301      200.15088      210.23633    
      4100  -57982.966      315.63435     -57667.332      199.85016      200.13983      210.33938    
      4200  -57984.029      311.37444     -57672.654      199.84962      200.1442       210.44244    
      4300  -57984.819      312.67632     -57672.143      199.84465      200.1482       210.5455     
      4400  -57974.655      310.08179     -57664.573      199.8348       200.15202      210.64855    
      4500  -57974.138      318.8788      -57655.26       199.82128      200.15677      210.75161    
      4600  -57968.92       314.52277     -57654.397      199.80884      200.16392      210.85467    
      4700  -57972.472      315.50752     -57656.964      199.79472      200.17987      210.95773    
      4800  -57973.986      313.61403     -57660.372      199.76927      200.18946      211.06078    
      4900  -57970.474      309.89866     -57660.575      199.74349      200.19397      211.16384    
      5000  -57969.072      313.63488     -57655.437      199.72935      200.20854      211.2669     
      5100  -57965.53       314.84368     -57650.686      199.72109      200.22753      211.36995    
      5200  -57972.989      320.2376      -57652.752      199.70918      200.23407      211.47301    
      5300  -57969.89       314.52942     -57655.36       199.6961       200.22887      211.57607    
      5400  -57965.13       311.17526     -57653.955      199.68834      200.21934      211.67912    
      5500  -57958.452      310.56018     -57647.892      199.68099      200.22146      211.78218    
      5600  -57954.03       315.59853     -57638.431      199.67377      200.23208      211.88524    
      5700  -57948.489      315.18653     -57633.303      199.65678      200.24106      211.9883     
      5800  -57946.32       314.36568     -57631.954      199.63707      200.24849      212.09135    
      5900  -57946.91       314.60246     -57632.308      199.61657      200.24922      212.19441    
      6000  -57941.961      311.85482     -57630.106      199.60331      200.25008      212.29747    
      6100  -57935.05       311.14352     -57623.907      199.59823      200.25949      212.40052    
      6200  -57930.074      314.33313     -57615.74       199.58568      200.26358      212.50358    
      6300  -57931.187      320.48962     -57610.698      199.573        200.26932      212.60664    
      6400  -57928.652      312.29707     -57616.355      199.56184      200.27311      212.70969    
      6500  -57921.48       308.07341     -57613.406      199.55026      200.26743      212.81275    
      6600  -57918.738      313.27449     -57605.463      199.54796      200.26656      212.91581    
      6700  -57915.001      319.04174     -57595.959      199.54499      200.26612      213.01887    
      6800  -57910.219      316.67345     -57593.545      199.53459      200.25535      213.12192    
      6900  -57906.416      311.0699      -57595.346      199.52122      200.2413       213.22498    
      7000  -57904.885      312.15858     -57592.727      199.51872      200.24074      213.32804    
      7100  -57899.653      313.03761     -57586.616      199.51544      200.23862      213.43109    
      7200  -57894.69       315.9946      -57578.695      199.50665      200.23453      213.53415    
      7300  -57892.118      319.48022     -57572.638      199.49894      200.23351      213.63721    
      7400  -57886.299      310.29292     -57576.006      199.48537      200.22486      213.74026    
      7500  -57890.658      314.81617     -57575.842      199.47471      200.21813      213.84332    
      7600  -57886.817      313.55633     -57573.261      199.47135      200.21557      213.94638    
      7700  -57875.711      311.75076     -57563.96       199.4657       200.20771      214.04944    
      7800  -57868.55       314.36496     -57554.185      199.46042      200.20173      214.15249    
      7900  -57863.484      314.70164     -57548.782      199.45199      200.19622      214.25555    
      8000  -57859.279      310.65174     -57548.627      199.44879      200.19452      214.35861    
      8100  -57856.091      308.85523     -57547.236      199.44094      200.18696      214.46166    
      8200  -57856.634      316.02834     -57540.606      199.42952      200.17238      214.56472    
      8300  -57845.637      311.49286     -57534.144      199.42026      200.16861      214.66778    
      8400  -57840.737      312.55099     -57528.186      199.40914      200.1615       214.77083    
      8500  -57837.469      315.08177     -57522.387      199.40197      200.15444      214.87389    
      8600  -57834.996      317.47563     -57517.52       199.39732      200.14475      214.97695    
      8700  -57826.226      313.23796     -57512.988      199.39109      200.13302      215.08001    
      8800  -57821.795      314.9996      -57506.795      199.38166      200.12703      215.18306    
      8900  -57814.364      313.55716     -57500.807      199.37484      200.12267      215.28612    
      9000  -57809.371      316.97879     -57492.392      199.36827      200.11632      215.38918    
      9100  -57803.077      317.27947     -57485.797      199.35802      200.10375      215.49223    
      9200  -57801.357      313.03016     -57488.327      199.34281      200.09465      215.59529    
      9300  -57797.119      312.28253     -57484.836      199.3312       200.0979       215.69835    
      9400  -57784.344      306.06464     -57478.28       199.31646      200.09821      215.80141    
      9500  -57783.606      317.07374     -57466.532      199.30115      200.09723      215.90446    
      9600  -57780.659      319.68718     -57460.971      199.28844      200.0949       216.00752    
      9700  -57768.067      308.96768     -57459.099      199.27521      200.08375      216.11058    
      9800  -57766.344      311.67706     -57454.667      199.26961      200.06205      216.21363    
      9900  -57763.025      312.39321     -57450.632      199.26918      200.03678      216.31669    
     10000  -57757.139      313.67428     -57443.464      199.27234      200.02349      216.41975    
     10100  -57746.033      316.29813     -57429.735      199.2672       200.01186      216.5228     
     10200  -57746.084      321.11513     -57424.969      199.2565       200.00239      216.62586    
     10300  -57736.895      312.7021      -57424.193      199.25173      200.00002      216.72892    
     10400  -57733.066      313.488       -57419.578      199.23463      199.98545      216.83198    
     10500  -57729.523      315.61134     -57413.912      199.21455      199.978        216.93503    
     10600  -57725.183      313.26635     -57411.917      199.19794      199.97344      217.03809    
     10700  -57720.405      308.41335     -57411.991      199.18405      199.9603       217.14115    
     10800  -57717.773      314.99928     -57402.774      199.17678      199.95646      217.2442     
     10900  -57703.724      311.76535     -57391.958      199.16739      199.95068      217.34726    
     11000  -57694.712      311.91822     -57382.793      199.15187      199.93714      217.45032    
     11100  -57691.797      318.86487     -57372.932      199.1396       199.92309      217.55337    
     11200  -57680.641      315.82859     -57364.813      199.12455      199.91085      217.65643    
     11300  -57670.399      312.53574     -57357.863      199.10803      199.90259      217.75949    
     11400  -57667.304      312.1577      -57355.146      199.09597      199.90183      217.86255    
     11500  -57666.512      313.06933     -57353.443      199.08255      199.89572      217.9656     
     11600  -57661.509      314.1768      -57347.332      199.0675       199.88591      218.06866    
     11700  -57650.732      315.34358     -57335.388      199.0536       199.8815       218.17172    
     11800  -57644.338      320.37035     -57323.967      199.03199      199.86503      218.27477    
     11900  -57636.293      316.28984     -57320.003      199.01454      199.85698      218.37783    
     12000  -57633.503      317.32255     -57316.18       198.99709      199.85107      218.48089    
     12100  -57627.459      315.12792     -57312.331      198.97572      199.84263      218.58394    
     12200  -57623.525      315.92076     -57307.604      198.95822      199.83682      218.687      
     12300  -57613.282      310.80705     -57302.474      198.93671      199.82348      218.79006    
     12400  -57613.085      312.83442     -57300.251      198.92139      199.81338      218.89312    
     12500  -57601.407      309.94259     -57291.464      198.9056       199.80509      218.99617    
     12600  -57592.601      314.14278     -57278.458      198.88445      199.79873      219.09923    
     12700  -57590.193      319.78207     -57270.411      198.85562      199.79522      219.20229    
     12800  -57576.54       309.60673     -57266.933      198.82656      199.79785      219.30534    
     12900  -57572.64       308.8646      -57263.775      198.79814      199.79814      219.4084     
     13000  -57569.195      309.43294     -57259.762      198.77397      199.79162      219.51146    
     13100  -57560.329      310.5504      -57249.778      198.75869      199.78633      219.61451    
     13200  -57552.505      316.10045     -57236.405      198.74338      199.77448      219.71757    
     13300  -57541.458      316.16776     -57225.29       198.72545      199.75729      219.82063    
     13400  -57536.136      317.84366     -57218.292      198.70243      199.73488      219.92369    
     13500  -57532.835      314.5027      -57218.333      198.68288      199.72593      220.02674    
     13600  -57526.07       313.33148     -57212.738      198.66353      199.72249      220.1298     
     13700  -57514.538      312.14428     -57202.394      198.64111      199.7168       220.23286    
     13800  -57508.121      316.48571     -57191.635      198.61948      199.70302      220.33591    
     13900  -57499.141      315.54241     -57183.599      198.59572      199.68177      220.43897    
     14000  -57493.577      313.51197     -57180.065      198.57682      199.66992      220.54203    
     14100  -57490.64       313.31709     -57177.323      198.55693      199.66343      220.64509    
     14200  -57483.797      314.23931     -57169.558      198.53274      199.65253      220.74814    
     14300  -57471.858      315.21724     -57156.641      198.50891      199.64483      220.8512     
     14400  -57467.755      322.80165     -57144.953      198.48235      199.6308       220.95426    
     14500  -57458.289      317.30039     -57140.989      198.45701      199.61556      221.05731    
     14600  -57449.75       313.92028     -57135.83       198.43388      199.60778      221.16037    
     14700  -57449.573      318.39654     -57131.177      198.40597      199.59029      221.26343    
     14800  -57441.007      314.47433     -57126.532      198.38046      199.57938      221.36648    
     14900  -57435.639      314.94438     -57120.694      198.35602      199.56595      221.46954    
     15000  -57424.601      310.44339     -57114.157      198.33346      199.54399      221.5726     
     15100  -57415.234      312.89744     -57102.337      198.31858      199.52745      221.67566    
     15200  -57406.217      316.24059     -57089.977      198.29858      199.50554      221.77871    
     15300  -57404.528      319.41341     -57085.115      198.27767      199.48828      221.88177    
     15400  -57394.556      313.47434     -57081.082      198.25622      199.47786      221.98483    
     15500  -57387.597      314.59752     -57073          198.22894      199.46027      222.08788    
     15600  -57376.614      318.82422     -57057.79       198.20344      199.44357      222.19094    
     15700  -57365.899      319.33054     -57046.568      198.18028      199.43414      222.294      
     15800  -57361.376      316.69354     -57044.683      198.15149      199.42163      222.39705    
     15900  -57356.008      315.47177     -57040.536      198.1191       199.41096      222.50011    
     16000  -57348.957      315.06848     -57033.888      198.08141      199.39708      222.60317    
     16100  -57339.354      313.04944     -57026.304      198.04361      199.38326      222.70623    
     16200  -57331.441      313.4142      -57018.027      198.0072       199.37751      222.80928    
     16300  -57320.702      312.96019     -57007.742      197.96657      199.36663      222.91234    
     16400  -57312.938      315.67354     -56997.265      197.92936      199.35897      223.0154     
     16500  -57301.159      314.91181     -56986.248      197.8925       199.35306      223.11845    
     16600  -57296.564      317.05223     -56979.512      197.8536       199.34419      223.22151    
     16700  -57291.299      313.40269     -56977.896      197.81822      199.33066      223.32457    
     16800  -57281.867      311.82669     -56970.041      197.79032      199.30705      223.42762    
     16900  -57272.669      315.23539     -56957.433      197.76857      199.27505      223.53068    
     17000  -57263.031      315.75166     -56947.279      197.75245      199.24605      223.63374    
     17100  -57251.315      312.27838     -56939.037      197.73492      199.21915      223.7368     
     17200  -57243.039      312.71016     -56930.329      197.71497      199.19501      223.83985    
     17300  -57237.91       316.37605     -56921.534      197.69125      199.17487      223.94291    
     17400  -57230.381      316.52012     -56913.861      197.66576      199.15823      224.04597    
     17500  -57218.677      310.75411     -56907.923      197.63775      199.13702      224.14902    
     17600  -57213.436      314.35477     -56899.081      197.60729      199.11324      224.25208    
     17700  -57200.895      317.32142     -56883.574      197.57828      199.09523      224.35514    
     17800  -57185.416      313.97572     -56871.44       197.54769      199.07536      224.4582     
     17900  -57180.097      316.73263     -56863.364      197.50942      199.04491      224.56125    
     18000  -57174.665      312.31332     -56862.351      197.47455      199.01731      224.66431    
     18100  -57168.834      313.31383     -56855.52       197.44132      198.9914       224.76737    
     18200  -57156.607      312.84478     -56843.762      197.40773      198.96985      224.87042    
     18300  -57146.207      315.45446     -56830.753      197.37532      198.95072      224.97348    
     18400  -57139.421      317.12205     -56822.299      197.34103      198.92241      225.07654    
     18500  -57130.724      309.28115     -56821.442      197.30984      198.89846      225.17959    
     18600  -57122.01       310.07587     -56811.934      197.28298      198.87822      225.28265    
     18700  -57109.893      311.35418     -56798.538      197.2523       198.84871      225.38571    
     18800  -57097.173      312.37053     -56784.803      197.22278      198.81848      225.48877    
     18900  -57085.86       313.659       -56772.201      197.19579      198.79134      225.59182    
     19000  -57078.041      316.76039     -56761.281      197.16618      198.75769      225.69488    
     19100  -57073.053      318.9884      -56754.065      197.1414       198.72776      225.79794    
     19200  -57058.818      311.77993     -56747.039      197.1178       198.69517      225.90099    
     19300  -57052.399      315.75502     -56736.644      197.09247      198.66096      226.00405    
     19400  -57035.246      309.41441     -56725.831      197.06791      198.63199      226.10711    
     19500  -57025.888      312.71716     -56713.171      197.03415      198.59937      226.21016    
     19600  -57015.613      315.26898     -56700.344      196.99977      198.57407      226.31322    
     19700  -57002.839      317.85581     -56684.983      196.96623      198.54695      226.41628    
     19800  -56993.493      315.59694     -56677.896      196.93131      198.5075       226.51934    
     19900  -56991.503      316.01269     -56675.49       196.9009       198.48135      226.62239    
     20000  -56983.815      314.61791     -56669.197      196.86644      198.44872      226.72545    
     20100  -56977.28       314.17644     -56663.103      196.83067      198.41298      226.82851    
     20200  -56964.95       309.43855     -56655.512      196.79793      198.39013      226.93156    
     20300  -56958.916      318.57035     -56640.346      196.75893      198.35928      227.03462    
     20400  -56941.826      315.63722     -56626.189      196.72074      198.33321      227.13768    
     20500  -56934.033      316.87444     -56617.159      196.68662      198.31396      227.24073    
     20600  -56925.394      315.29868     -56610.095      196.64797      198.27953      227.34379    
     20700  -56915.458      311.54166     -56603.916      196.61059      198.24912      227.44685    
     20800  -56904.805      311.35052     -56593.454      196.57664      198.2228       227.54991    
     20900  -56894.925      313.36997     -56581.555      196.54103      198.18765      227.65296    
     21000  -56882.573      314.21829     -56568.355      196.50539      198.15299      227.75602    
     21100  -56869.125      313.65824     -56555.466      196.46854      198.11912      227.85908    
     21200  -56861.939      319.29703     -56542.642      196.43083      198.08611      227.96213    
     21300  -56847.308      315.56914     -56531.739      196.39777      198.06089      228.06519    
     21400  -56842.35       315.32591     -56527.024      196.36221      198.03423      228.16825    
     21500  -56833.558      312.67687     -56520.881      196.32678      198.00194      228.2713     
     21600  -56823.292      312.67778     -56510.614      196.29262      197.97188      228.37436    
     21700  -56809.335      314.59731     -56494.738      196.2551       197.94116      228.47742    
     21800  -56796.459      317.17311     -56479.286      196.21653      197.90806      228.58048    
     21900  -56783.685      313.69621     -56469.989      196.18132      197.87699      228.68353    
     22000  -56773.831      311.01804     -56462.813      196.14815      197.84466      228.78659    
     22100  -56768.238      314.31803     -56453.92       196.11324      197.80955      228.88965    
     22200  -56757.528      317.15955     -56440.369      196.07834      197.77601      228.9927     
     22300  -56737.797      315.6115      -56422.185      196.04333      197.74096      229.09576    
     22400  -56730.549      319.74083     -56410.808      196.00703      197.71185      229.19882    
     22500  -56723.954      317.98252     -56405.972      195.97393      197.6885       229.30188    
     22600  -56715.253      316.36994     -56398.883      195.93479      197.65232      229.40493    
     22700  -56705.699      314.10459     -56391.594      195.89616      197.61408      229.50799    
     22800  -56695.12       311.81213     -56383.308      195.86161      197.58417      229.61105    
     22900  -56686.153      312.81634     -56373.337      195.82363      197.55184      229.7141     
     23000  -56673.582      313.04291     -56360.539      195.78671      197.52502      229.81716    
     23100  -56659.871      316.61462     -56343.256      195.74966      197.49944      229.92022    
     23200  -56646.2        315.32559     -56330.874      195.71205      197.46765      230.02327    
     23300  -56639.159      315.24934     -56323.909      195.6772       197.43652      230.12633    
     23400  -56634.922      316.79409     -56318.128      195.64512      197.40408      230.22939    
     23500  -56623.527      315.06127     -56308.465      195.61312      197.36636      230.33245    
     23600  -56606.052      309.94017     -56296.112      195.58264      197.33467      230.4355     
     23700  -56592.906      311.68422     -56281.221      195.5495       197.3041       230.53856    
     23800  -56580.981      314.35297     -56266.628      195.51298      197.27321      230.64162    
     23900  -56569.066      314.03394     -56255.032      195.47879      197.2499       230.74467    
     24000  -56558.854      313.81887     -56245.035      195.44477      197.22526      230.84773    
     24100  -56546.227      312.02614     -56234.2        195.40768      197.19673      230.95079    
     24200  -56536.434      310.68081     -56225.753      195.37517      197.17603      231.05384    
     24300  -56534.266      313.00758     -56221.259      195.33999      197.15036      231.1569     
     24400  -56521.653      313.64423     -56208.009      195.30388      197.12082      231.25996    
     24500  -56506.168      314.51668     -56191.652      195.27282      197.09811      231.36302    
     24600  -56496.892      317.62705     -56179.265      195.2388       197.06787      231.46607    
     24700  -56483.648      314.26355     -56169.385      195.20404      197.04087      231.56913    
     24800  -56473.341      313.39264     -56159.948      195.17104      197.02581      231.67219    
     24900  -56464.979      315.80266     -56149.176      195.13142      197.00341      231.77524    
     25000  -56454.458      313.2544      -56141.203      195.0968       196.98094      231.8783     
     25100  -56446.398      308.666       -56137.732      195.06969      196.95535      231.98136    
     25200  -56433.328      310.4072      -56122.92       195.04331      196.91816      232.08441    
     25300  -56415.663      309.48095     -56106.182      195.02374      196.88865      232.18747    
     25400  -56408.472      316.91476     -56091.558      195.00504      196.86277      232.29053    
     25500  -56398.435      318.97171     -56079.463      194.9813       196.83307      232.39359    
     25600  -56385.249      312.09325     -56073.156      194.95972      196.81512      232.49664    
     25700  -56377.45       310.30016     -56067.149      194.93637      196.79913      232.5997     
     25800  -56367.371      312.3995      -56054.972      194.90788      196.77619      232.70276    
     25900  -56360.089      317.07355     -56043.015      194.87972      196.75977      232.80581    
     26000  -56346.689      315.90784     -56030.781      194.84616      196.73968      232.90887    
     26100  -56335.392      315.17169     -56020.22       194.80984      196.71934      233.01193    
     26200  -56326.718      315.28099     -56011.437      194.77329      196.70405      233.11498    
     26300  -56319.205      314.1605      -56005.044      194.7357       196.69132      233.21804    
     26400  -56308.284      311.38415     -55996.9        194.70168      196.6778       233.3211     
     26500  -56295.843      311.66022     -55984.183      194.67313      196.6552       233.42416    
     26600  -56291.493      319.74391     -55971.749      194.65109      196.63048      233.52721    
     26700  -56275.608      310.5286      -55965.08       194.63562      196.60764      233.63027    
     26800  -56259.304      305.0348      -55954.27       194.62206      196.58095      233.73333    
     26900  -56252.234      317.15481     -55935.079      194.61075      196.55632      233.83638    
     27000  -56236.565      315.27914     -55921.286      194.59826      196.53356      233.93944    
     27100  -56222.243      312.30738     -55909.936      194.58435      196.51002      234.0425     
     27200  -56207.608      309.18382     -55898.424      194.57255      196.4901       234.14556    
     27300  -56197.2        314.99043     -55882.21       194.55915      196.46697      234.24861    
     27400  -56178.773      312.86873     -55865.904      194.54244      196.44291      234.35167    
     27500  -56171.566      317.71729     -55853.849      194.52453      196.4224       234.45473    
     27600  -56166.282      316.8847      -55849.397      194.49986      196.39872      234.55778    
     27700  -56153.821      312.74244     -55841.078      194.47268      196.38422      234.66084    
     27800  -56139.655      313.31213     -55826.343      194.4471       196.378        234.7639     
     27900  -56124.516      315.11481     -55809.401      194.42362      196.36652      234.86695    
     28000  -56109.752      314.99406     -55794.758      194.40722      196.35712      234.97001    
     28100  -56098.469      315.88355     -55782.585      194.39362      196.34228      235.07307    
     28200  -56080.464      310.56611     -55769.898      194.38214      196.32243      235.17613    
     28300  -56071.528      314.3554      -55757.173      194.37571      196.30643      235.27918    
     28400  -56056.744      311.96461     -55744.779      194.369        196.28619      235.38224    
     28500  -56048.268      316.7521      -55731.516      194.36207      196.26577      235.4853     
     28600  -56033.692      312.99094     -55720.701      194.35499      196.24776      235.58835    
     28700  -56024.414      311.37267     -55713.041      194.34303      196.22557      235.69141    
     28800  -56008.601      306.74528     -55701.856      194.33085      196.21028      235.79447    
     28900  -55996.307      313.82166     -55682.485      194.3161       196.1949       235.89752    
     29000  -55985.33       317.95529     -55667.374      194.29905      196.17436      236.00058    
     29100  -55971.242      314.64296     -55656.599      194.28395      196.16035      236.10364    
     29200  -55960.892      315.66637     -55645.225      194.26639      196.14511      236.2067     
     29300  -55949.399      311.56544     -55637.833      194.25107      196.13382      236.30975    
     29400  -55937.491      308.87871     -55628.612      194.23723      196.12447      236.41281    
     29500  -55926.984      315.1568      -55611.827      194.22187      196.11314      236.51587    
     29600  -55909.36       315.94369     -55593.416      194.20962      196.10688      236.61892    
     29700  -55901.768      318.03059     -55583.737      194.19763      196.09625      236.72198    
     29800  -55889.001      315.07902     -55573.922      194.18641      196.08207      236.82504    
     29900  -55876.536      315.8172      -55560.719      194.17924      196.06862      236.92809    
     30000  -55850.351      311.04487     -55539.307      194.17185      196.05114      237.03115    
     30100  -55838.474      314.09191     -55524.383      194.16716      196.0382       237.13421    
     30200  -55825.825      311.83283     -55513.992      194.1609       196.02868      237.23727    
     30300  -55814.664      310.17083     -55504.493      194.14995      196.02061      237.34032    
     30400  -55804.027      314.17312     -55489.854      194.13691      196.01066      237.44338    
     30500  -55782.458      313.40686     -55469.051      194.12414      195.99632      237.54644    
     30600  -55776.602      319.66983     -55456.933      194.11246      195.97914      237.64949    
     30700  -55761.183      313.71388     -55447.469      194.10041      195.95784      237.75255    
     30800  -55753.209      314.52403     -55438.685      194.09027      195.94248      237.85561    
     30900  -55743.764      312.87023     -55430.893      194.07846      195.93042      237.95866    
     31000  -55731.797      307.54804     -55424.249      194.06617      195.91923      238.06172    
     31100  -55715.577      310.27632     -55405.301      194.05773      195.91224      238.16478    
     31200  -55698.054      312.31242     -55385.741      194.04735      195.8998       238.26784    
     31300  -55684.128      313.5263      -55370.602      194.03846      195.88705      238.37089    
     31400  -55673.222      317.90314     -55355.319      194.0316       195.87342      238.47395    
     31500  -55657.958      314.35212     -55343.606      194.02514      195.85511      238.57701    
     31600  -55646.203      311.4189      -55334.784      194.01928      195.83681      238.68006    
     31700  -55633.189      310.45984     -55322.73       194.01398      195.82291      238.78312    
     31800  -55620.254      315.89185     -55304.363      194.00596      195.81179      238.88618    
     31900  -55599.328      312.69497     -55286.633      193.99647      195.8087       238.98924    
     32000  -55591.564      317.16897     -55274.395      193.98198      195.8032       239.09229    
     32100  -55578.158      312.9819      -55265.176      193.96458      195.79269      239.19535    
     32200  -55567.089      309.51212     -55257.577      193.9501       195.78338      239.29841    
     32300  -55559.902      306.81189     -55253.09       193.93645      195.76658      239.40146    
     32400  -55545.526      305.7647      -55239.762      193.92714      195.74651      239.50452    
     32500  -55527.127      307.41521     -55219.712      193.92391      195.73124      239.60758    
     32600  -55507.288      308.78323     -55198.504      193.91804      195.71498      239.71063    
     32700  -55495.873      316.70459     -55179.169      193.91069      195.70447      239.81369    
     32800  -55479.143      314.96731     -55164.176      193.90581      195.70075      239.91675    
     32900  -55473.098      317.5932      -55155.505      193.89689      195.69076      240.01981    
     33000  -55458.525      312.28555     -55146.239      193.88869      195.68433      240.12286    
     33100  -55443.734      313.21782     -55130.516      193.88091      195.6746       240.22592    
     33200  -55425.653      314.06159     -55111.592      193.87141      195.65095      240.32898    
     33300  -55413.441      315.44497     -55097.996      193.86389      195.63032      240.43203    
     33400  -55402.768      315.85463     -55086.914      193.85377      195.61204      240.53509    
     33500  -55389.544      313.48989     -55076.054      193.83969      195.59461      240.63815    
     33600  -55372.11       309.7777      -55062.332      193.82816      195.59047      240.7412     
     33700  -55358.755      316.7257      -55042.029      193.81292      195.58528      240.84426    
     33800  -55341.442      315.0195      -55026.422      193.79828      195.57817      240.94732    
     33900  -55334.463      317.1831      -55017.28       193.79136      195.57322      241.05038    
     34000  -55320.117      313.27981     -55006.837      193.78438      195.55723      241.15343    
     34100  -55304.572      312.82326     -54991.749      193.7796       195.54008      241.25649    
     34200  -55291.716      314.77267     -54976.943      193.77594      195.52348      241.35955    
     34300  -55275.724      311.79877     -54963.926      193.76885      195.5005       241.4626     
     34400  -55264.346      314.76341     -54949.582      193.75976      195.48505      241.56566    
     34500  -55249.557      316.807       -54932.75       193.75053      195.47596      241.66872    
     34600  -55230.335      316.91983     -54913.415      193.73667      195.46231      241.77177    
     34700  -55213.662      316.94631     -54896.715      193.7264       195.45986      241.87483    
     34800  -55202.895      311.92987     -54890.965      193.71464      195.45608      241.97789    
     34900  -55191.349      310.89441     -54880.454      193.70091      195.44059      242.08095    
     35000  -55179.712      313.63208     -54866.079      193.69274      195.42933      242.184      
     35100  -55164.97       316.74452     -54848.225      193.68197      195.41145      242.28706    
     35200  -55147.352      317.80076     -54829.551      193.67095      195.38827      242.39012    
     35300  -55131.097      312.68644     -54818.411      193.66347      195.37183      242.49317    
     35400  -55119.779      312.41409     -54807.365      193.65214      195.35031      242.59623    
     35500  -55107.799      313.94032     -54793.859      193.64036      195.33191      242.69929    
     35600  -55096.001      314.60299     -54781.398      193.63203      195.3234       242.80235    
     35700  -55082.16       311.47416     -54770.686      193.61948      195.31101      242.9054     
     35800  -55068.316      308.92576     -54759.39       193.60811      195.30499      243.00846    
     35900  -55054.88       313.34362     -54741.536      193.59946      195.30265      243.11152    
     36000  -55036.062      314.64469     -54721.417      193.58807      195.29         243.21457    
     36100  -55024.095      317.71052     -54706.385      193.57925      195.28031      243.31763    
     36200  -55003.443      309.35209     -54694.091      193.56998      195.26413      243.42069    
     36300  -54997.791      312.07129     -54685.72       193.55819      195.23823      243.52374    
     36400  -54980.984      306.21243     -54674.771      193.54992      195.21972      243.6268     
     36500  -54966.175      312.26388     -54653.911      193.53817      195.19911      243.72986    
     36600  -54951.365      314.52139     -54636.843      193.52575      195.18027      243.83292    
     36700  -54934.761      312.32025     -54622.44       193.5184       195.17087      243.93597    
     36800  -54919.734      311.55276     -54608.181      193.50688      195.15516      244.03903    
     36900  -54907.805      315.60501     -54592.2        193.49745      195.14432      244.14209    
     37000  -54888.801      315.10213     -54573.699      193.48992      195.14026      244.24514    
     37100  -54874.499      315.72647     -54558.773      193.47588      195.12345      244.3482     
     37200  -54863.932      312.53397     -54551.398      193.46586      195.10831      244.45126    
     37300  -54852.979      312.44963     -54540.53       193.45617      195.09014      244.55431    
     37400  -54837.96       312.17182     -54525.788      193.44038      195.06493      244.65737    
     37500  -54823.472      314.96408     -54508.508      193.4292       195.0518       244.76043    
     37600  -54801.85       315.6953      -54486.155      193.4172       195.03427      244.86349    
     37700  -54789.784      317.54677     -54472.237      193.40511      195.01281      244.96654    
     37800  -54775.088      312.56703     -54462.521      193.39795      195.00338      245.0696     
     37900  -54765.643      313.94846     -54451.694      193.38492      194.98425      245.17266    
     38000  -54752.032      312.99952     -54439.032      193.3736       194.96815      245.27571    
     38100  -54737.424      312.88985     -54424.534      193.36399      194.95889      245.37877    
     38200  -54718.497      313.48357     -54405.014      193.34813      194.93891      245.48183    
     38300  -54698.973      313.45926     -54385.514      193.33642      194.92376      245.58488    
     38400  -54686.687      316.88001     -54369.807      193.32508      194.9094       245.68794    
     38500  -54671.431      312.13574     -54359.296      193.30912      194.88752      245.791      
     38600  -54662.873      311.51735     -54351.355      193.29869      194.87621      245.89406    
     38700  -54646.537      310.34061     -54336.196      193.28801      194.86161      245.99711    
     38800  -54628.422      310.31834     -54318.104      193.27452      194.83879      246.10017    
     38900  -54616.717      316.40249     -54300.315      193.26566      194.82203      246.20323    
     39000  -54598.599      313.53381     -54285.065      193.25281      194.79976      246.30628    
     39100  -54588.939      316.75646     -54272.182      193.23948      194.77927      246.40934    
     39200  -54572.231      313.2456      -54258.986      193.22848      194.7647       246.5124     
     39300  -54560.597      315.50054     -54245.096      193.21319      194.74255      246.61545    
     39400  -54543.44       313.24124     -54230.198      193.19825      194.72391      246.71851    
     39500  -54526.969      312.97757     -54213.991      193.18374      194.70815      246.82157    
     39600  -54513.453      320.46144     -54192.992      193.16486      194.68413      246.92463    
     39700  -54495.274      317.41127     -54177.863      193.15188      194.66927      247.02768    
     39800  -54481.523      312.02917     -54169.494      193.13858      194.65197      247.13074    
     39900  -54474.04       316.33355     -54157.706      193.12331      194.6276       247.2338     
     40000  -54456.09       312.38323     -54143.707      193.11554      194.61584      247.33685    
     40100  -54440.744      314.31771     -54126.426      193.10173      194.59699      247.43991    
     40200  -54421.759      316.67008     -54105.089      193.08511      194.5769       247.54297    
     40300  -54405.949      316.1325      -54089.816      193.07383      194.56757      247.64603    
     40400  -54394.717      315.08338     -54079.633      193.05556      194.54391      247.74908    
     40500  -54382.059      314.6264      -54067.432      193.04084      194.52238      247.85214    
     40600  -54367.467      313.07469     -54054.392      193.03061      194.50489      247.9552     
     40700  -54346.393      308.42372     -54037.969      193.01288      194.47175      248.05825    
     40800  -54334.822      318.48939     -54016.333      193.00024      194.44765      248.16131    
     40900  -54316.97       316.3061      -54000.664      192.98883      194.42798      248.26437    
     41000  -54303.517      313.99242     -53989.525      192.97184      194.401        248.36742    
     41100  -54293.159      315.61006     -53977.549      192.96085      194.38785      248.47048    
     41200  -54275.727      312.55624     -53963.171      192.94701      194.37342      248.57354    
     41300  -54257.51       309.89069     -53947.62       192.92856      194.35464      248.6766     
     41400  -54244.308      316.01114     -53928.296      192.91378      194.34344      248.77965    
     41500  -54227.398      321.0088      -53906.389      192.89498      194.32317      248.88271    
     41600  -54209.96       315.67276     -53894.287      192.87574      194.30036      248.98577    
     41700  -54198.664      313.0503      -53885.613      192.86095      194.27855      249.08882    
     41800  -54184.838      312.77641     -53872.062      192.84458      194.24336      249.19188    
     41900  -54171.256      311.77904     -53859.477      192.82989      194.20905      249.29494    
     42000  -54159.681      312.86429     -53846.816      192.81791      194.18384      249.39799    
     42100  -54144.43       312.9994      -53831.431      192.80147      194.15569      249.50105    
     42200  -54126.544      316.51772     -53810.026      192.78675      194.1362       249.60411    
     42300  -54108.857      316.5516      -53792.305      192.77046      194.12063      249.70717    
     42400  -54095.97       315.15763     -53780.813      192.75008      194.10053      249.81022    
     42500  -54085.105      315.51512     -53769.59       192.73459      194.08717      249.91328    
     42600  -54065.545      309.64682     -53755.898      192.71747      194.06999      250.01634    
     42700  -54054.552      315.30523     -53739.247      192.6977       194.04465      250.11939    
     42800  -54038.525      318.51164     -53720.014      192.68384      194.02279      250.22245    
     42900  -54016.001      317.11187     -53698.889      192.66676      193.98866      250.32551    
     43000  -54004.688      318.5133      -53686.175      192.65127      193.95599      250.42856    
     43100  -53988.638      314.28964     -53674.349      192.63851      193.93122      250.53162    
     43200  -53974.918      313.53329     -53661.385      192.61843      193.90035      250.63468    
     43300  -53961.685      313.40653     -53648.278      192.60259      193.88075      250.73774    
     43400  -53947.239      313.20219     -53634.036      192.58788      193.86316      250.84079    
     43500  -53928.072      313.125       -53614.947      192.56828      193.83765      250.94385    
     43600  -53913.569      319.05894     -53594.51       192.55537      193.82172      251.04691    
     43700  -53896.725      316.25777     -53580.467      192.5379       193.79659      251.14996    
     43800  -53883.483      311.85531     -53571.628      192.51559      193.76282      251.25302    
     43900  -53866.243      308.06336     -53558.18       192.49791      193.73704      251.35608    
     44000  -53858.055      315.72734     -53542.328      192.47628      193.70232      251.45913    
     44100  -53839.107      313.9694      -53525.137      192.45571      193.66868      251.56219    
     44200  -53821.749      314.14193     -53507.607      192.44038      193.64685      251.66525    
     44300  -53809.02       317.36245     -53491.658      192.41957      193.61994      251.76831    
     44400  -53796.883      317.3143      -53479.569      192.40162      193.59975      251.87136    
     44500  -53778.082      309.03578     -53469.046      192.38561      193.58227      251.97442    
     44600  -53763.565      309.1719      -53454.393      192.36557      193.55487      252.07748    
     44700  -53747.374      314.13271     -53433.241      192.3514       193.53178      252.18053    
     44800  -53729.047      315.91134     -53413.135      192.336        193.50423      252.28359    
     44900  -53715.41       315.569       -53399.841      192.31529      193.46679      252.38665    
     45000  -53698.482      310.46481     -53388.017      192.29865      193.43671      252.48971    
     45100  -53684.832      310.45702     -53374.375      192.27843      193.40317      252.59276    
     45200  -53672.544      313.51682     -53359.027      192.25586      193.36792      252.69582    
     45300  -53656.919      316.94001     -53339.979      192.23687      193.34151      252.79888    
     45400  -53637.512      320.7071      -53316.805      192.21517      193.31255      252.90193    
     45500  -53623.578      319.73618     -53303.842      192.19201      193.28397      253.00499    
     45600  -53610.33       315.50175     -53294.828      192.17351      193.26118      253.10805    
     45700  -53595.424      313.41935     -53282.005      192.15271      193.22992      253.2111     
     45800  -53578.515      310.31391     -53268.201      192.13493      193.19891      253.31416    
     45900  -53563.135      311.82754     -53251.308      192.11931      193.16868      253.41722    
     46000  -53546.774      317.77578     -53228.999      192.10022      193.13342      253.52028    
     46100  -53529.332      315.99215     -53213.34       192.08343      193.10602      253.62333    
     46200  -53514.475      311.3993      -53203.076      192.0635       193.079        253.72639    
     46300  -53503.21       313.59608     -53189.614      192.03813      193.04833      253.82945    
     46400  -53492.054      317.60442     -53174.45       192.01658      193.02512      253.9325     
     46500  -53472.604      311.8162      -53160.788      191.99419      192.99945      254.03556    
     46600  -53462.704      311.78954     -53150.915      191.97014      192.96879      254.13862    
     46700  -53449.248      311.34187     -53137.906      191.95139      192.94189      254.24167    
     46800  -53429.715      315.24155     -53114.474      191.93129      192.90836      254.34473    
     46900  -53405.108      308.9192      -53096.189      191.9114       192.87281      254.44779    
     47000  -53398.676      316.90889     -53081.768      191.89235      192.84212      254.55085    
     47100  -53380.184      310.28582     -53069.899      191.86902      192.80843      254.6539     
     47200  -53366.149      309.26938     -53056.879      191.84676      192.7778       254.75696    
     47300  -53354.829      316.25865     -53038.571      191.82719      192.75112      254.86002    
     47400  -53332.888      316.90181     -53015.986      191.80416      192.7203       254.96307    
     47500  -53314.189      315.09452     -52999.095      191.78501      192.69328      255.06613    
     47600  -53304.134      316.78289     -52987.351      191.7664       192.66387      255.16919    
     47700  -53288.073      311.4275      -52976.646      191.74383      192.62733      255.27224    
     47800  -53272.697      311.40487     -52961.292      191.72362      192.59555      255.3753     
     47900  -53260.931      316.30359     -52944.628      191.70192      192.56286      255.47836    
     48000  -53242.545      315.1207      -52927.424      191.67618      192.52708      255.58142    
     48100  -53224.166      314.87323     -52909.293      191.65243      192.4986       255.68447    
     48200  -53205.517      315.52651     -52889.991      191.62737      192.46985      255.78753    
     48300  -53190.639      314.64249     -52875.996      191.60272      192.43984      255.89059    
     48400  -53182.269      315.30758     -52866.961      191.58254      192.4142       255.99364    
     48500  -53167.457      313.65198     -52853.805      191.56104      192.38421      256.0967     
     48600  -53152.119      313.00837     -52839.111      191.53904      192.35218      256.19976    
     48700  -53135.526      314.02057     -52821.505      191.51893      192.32076      256.30281    
     48800  -53118.85       319.70979     -52799.14       191.49698      192.28571      256.40587    
     48900  -53100.551      317.79924     -52782.752      191.47698      192.25296      256.50893    
     49000  -53091.15       318.23893     -52772.911      191.45609      192.22155      256.61199    
     49100  -53072.236      312.21724     -52760.019      191.43116      192.188        256.71504    
     49200  -53056.023      312.54808     -52743.475      191.40857      192.15945      256.8181     
     49300  -53037.545      312.66149     -52724.884      191.38527      192.1299       256.92116    
     49400  -53021.188      316.24345     -52704.945      191.36139      192.09698      257.02421    
     49500  -53004.393      317.83249     -52686.561      191.34069      192.06589      257.12727    
     49600  -52992.355      315.58487     -52676.77       191.32001      192.03432      257.23033    
     49700  -52983.952      317.98547     -52665.967      191.29808      192.00097      257.33339    
     49800  -52965.514      314.41511     -52651.099      191.27808      191.97142      257.43644    
     49900  -52945.587      313.50896     -52632.078      191.25404      191.93813      257.5395     
     50000  -52927.327      316.94656     -52610.38       191.23071      191.90573      257.64256    
     50100  -52912.555      318.03841     -52594.517      191.20922      191.87771      257.74561    
     50200  -52902.19       314.67239     -52587.517      191.18472      191.84837      257.84867    
     50300  -52886.842      314.66626     -52572.176      191.16134      191.8207       257.95173    
     50400  -52870.922      315.98966     -52554.933      191.13889      191.79211      258.05478    
     50500  -52853.345      315.29659     -52538.048      191.11588      191.7613       258.15784    
     50600  -52844.382      320.85012     -52523.532      191.09517      191.73245      258.2609     
     50700  -52828.912      314.95769     -52513.954      191.07389      191.70204      258.36396    
     50800  -52809.634      309.74411     -52499.89       191.05052      191.67004      258.46701    
     50900  -52795.846      315.93885     -52479.907      191.02854      191.64088      258.57007    
     51000  -52778.03       317.18356     -52460.847      191.00459      191.60908      258.67313    
     51100  -52760.34       315.72208     -52444.618      190.98054      191.57707      258.77618    
     51200  -52743.691      313.74069     -52429.95       190.9603       191.54939      258.87924    
     51300  -52729.477      310.93759     -52418.539      190.93683      191.518        258.9823     
     51400  -52716.141      308.62068     -52407.52       190.91611      191.48842      259.08535    
     51500  -52700.157      310.97082     -52389.186      190.89755      191.46041      259.18841    
     51600  -52681.957      318.32264     -52363.635      190.87787      191.43114      259.29147    
     51700  -52664.475      316.3971      -52348.078      190.85884      191.40459      259.39453    
     51800  -52648.905      311.92839     -52336.977      190.83917      191.37912      259.49758    
     51900  -52635.107      310.78687     -52324.321      190.81497      191.3495       259.60064    
     52000  -52621.233      312.45838     -52308.775      190.79204      191.32305      259.7037     
     52100  -52599.372      311.95411     -52287.418      190.76765      191.29543      259.80675    
     52200  -52586.737      320.10294     -52266.634      190.74314      191.26568      259.90981    
     52300  -52570.873      316.92863     -52253.945      190.72218      191.23719      260.01287    
     52400  -52559.429      317.79102     -52241.638      190.7007       191.2057       260.11592    
     52500  -52541.089      313.00568     -52228.083      190.67816      191.17405      260.21898    
     52600  -52527.744      314.31652     -52213.428      190.65661      191.14529      260.32204    
     52700  -52510.996      310.88797     -52200.108      190.63349      191.11577      260.4251     
     52800  -52499.147      310.74723     -52188.399      190.6106       191.08853      260.52815    
     52900  -52479.624      308.2679      -52171.356      190.58983      191.06563      260.63121    
     53000  -52464.331      317.13794     -52147.193      190.5692       191.04121      260.73427    
     53100  -52446.894      317.20262     -52129.692      190.55027      191.01545      260.83732    
     53200  -52429.912      313.33218     -52116.58       190.53163      190.98937      260.94038    
     53300  -52416.622      312.27958     -52104.342      190.5117       190.96194      261.04344    
     53400  -52404.029      315.24168     -52088.788      190.49276      190.93379      261.1465     
     53500  -52387.828      315.78391     -52072.044      190.47425      190.90548      261.24955    
     53600  -52373.037      317.98001     -52055.057      190.45484      190.87706      261.35261    
     53700  -52354.202      315.07704     -52039.125      190.43468      190.84985      261.45567    
     53800  -52334.116      307.53899     -52026.577      190.41318      190.82339      261.55872    
     53900  -52322.186      310.59612     -52011.59       190.39027      190.79703      261.66178    
     54000  -52304.894      314.34782     -51990.546      190.36946      190.77287      261.76484    
     54100  -52285.255      315.55963     -51969.695      190.34843      190.74828      261.86789    
     54200  -52275.245      319.02308     -51956.222      190.32712      190.72348      261.97095    
     54300  -52259.292      315.31912     -51943.972      190.30656      190.69881      262.07401    
     54400  -52244.044      315.08421     -51928.96       190.28841      190.67547      262.17707    
     54500  -52229.747      315.73575     -51914.012      190.27018      190.65185      262.28012    
     54600  -52214.126      313.61979     -51900.506      190.25168      190.6279       262.38318    
     54700  -52194.846      309.83316     -51885.012      190.23541      190.6062       262.48624    
     54800  -52181.748      314.3868      -51867.362      190.21488      190.58144      262.58929    
     54900  -52159.608      313.03668     -51846.572      190.19346      190.55774      262.69235    
     55000  -52141.82       313.80612     -51828.014      190.17501      190.53614      262.79541    
     55100  -52130.044      312.70956     -51817.334      190.15326      190.50982      262.89846    
     55200  -52119.834      315.46464     -51804.369      190.13311      190.48484      263.00152    
     55300  -52099.252      311.82641     -51787.425      190.11496      190.4613       263.10458    
     55400  -52084.375      315.54676     -51768.828      190.09457      190.43586      263.20764    
     55500  -52062.914      316.16361     -51746.751      190.07528      190.41254      263.31069    
     55600  -52041.712      316.17082     -51725.541      190.05643      190.38909      263.41375    
     55700  -52035.659      320.38029     -51715.279      190.03814      190.36641      263.51681    
     55800  -52015.873      312.40962     -51703.464      190.02271      190.34683      263.61986    
     55900  -52004.12       314.48404     -51689.636      190.0056       190.3253       263.72292    
     56000  -51987.377      312.48392     -51674.893      189.98844      190.30458      263.82598    
     56100  -51975.182      318.14797     -51657.034      189.97302      190.28679      263.92903    
     56200  -51949.783      313.70894     -51636.074      189.95588      190.26637      264.03209    
     56300  -51935.516      317.87075     -51617.646      189.93755      190.24586      264.13515    
     56400  -51921.333      313.25593     -51608.077      189.91904      190.22756      264.23821    
     56500  -51908.221      313.65847     -51594.563      189.89803      190.20539      264.34126    
     56600  -51892.311      314.19381     -51578.117      189.878        190.18259      264.44432    
     56700  -51880.513      318.96985     -51561.543      189.85948      190.16049      264.54738    
     56800  -51859.865      311.19483     -51548.67       189.83885      190.13729      264.65043    
     56900  -51847.518      312.21284     -51535.305      189.82039      190.11816      264.75349    
     57000  -51828.978      312.93516     -51516.042      189.80224      190.09849      264.85655    
     57100  -51808.427      317.71187     -51490.715      189.78524      190.07902      264.9596     
     57200  -51792.156      318.44674     -51473.709      189.77174      190.06288      265.06266    
     57300  -51778.228      317.28376     -51460.945      189.7596       190.04797      265.16572    
     57400  -51761.417      313.71385     -51447.703      189.74429      190.02969      265.26878    
     57500  -51745.812      312.93864     -51432.873      189.72948      190.01309      265.37183    
     57600  -51733.564      315.53471     -51418.029      189.71261      189.99651      265.47489    
     57700  -51715.374      312.24592     -51403.128      189.69199      189.97507      265.57795    
     57800  -51700.6        309.45898     -51391.141      189.67363      189.95184      265.681      
     57900  -51684.693      310.92191     -51373.771      189.6568       189.92945      265.78406    
     58000  -51666.86       316.27487     -51350.585      189.63703      189.90452      265.88712    
     58100  -51644.253      314.24795     -51330.005      189.61947      189.88493      265.99018    
     58200  -51632.632      317.90162     -51314.731      189.60299      189.86885      266.09323    
     58300  -51615.685      315.80158     -51299.884      189.5852       189.85279      266.19629    
     58400  -51600.244      315.94546     -51284.299      189.57348      189.84275      266.29935    
     58500  -51585.847      315.28735     -51270.559      189.56011      189.82901      266.4024     
     58600  -51568.101      312.82707     -51255.274      189.5491       189.81656      266.50546    
     58700  -51553.899      315.61962     -51238.279      189.53608      189.80245      266.60852    
     58800  -51534.469      310.74855     -51223.72       189.51751      189.78135      266.71157    
     58900  -51519.275      309.51882     -51209.756      189.50228      189.76051      266.81463    
     59000  -51505.106      314.33206     -51190.774      189.48696      189.73845      266.91769    
     59100  -51484.579      316.68651     -51167.893      189.46704      189.71364      267.02075    
     59200  -51466.742      319.67895     -51147.063      189.45085      189.69501      267.1238     
     59300  -51454.631      317.80218     -51136.829      189.43205      189.67623      267.22686    
     59400  -51437.704      315.25696     -51122.447      189.41243      189.65801      267.32992    
     59500  -51418.899      313.90761     -51104.992      189.39778      189.64485      267.43297    
     59600  -51401.507      312.69463     -51088.812      189.38269      189.62876      267.53603    
     59700  -51384.178      310.89551     -51073.283      189.37218      189.61394      267.63909    
     59800  -51371.113      312.52859     -51058.585      189.36483      189.60123      267.74214    
     59900  -51355.262      311.40376     -51043.858      189.35109      189.5825       267.8452     
     60000  -51334.866      309.38971     -51025.476      189.33836      189.56537      267.94826    
     60100  -51317.252      317.30217     -50999.95       189.32561      189.55017      268.05132    
     60200  -51297.917      317.67936     -50980.238      189.30639      189.53154      268.15437    
     60300  -51279.367      312.92729     -50966.44       189.29109      189.51705      268.25743    
     60400  -51270.099      317.48206     -50952.617      189.27496      189.50043      268.36049    
     60500  -51251.735      315.23874     -50936.496      189.25621      189.48102      268.46354    
     60600  -51236.91       316.83537     -50920.074      189.24314      189.46626      268.5666     
     60700  -51217.068      311.93075     -50905.137      189.22845      189.44822      268.66966    
     60800  -51202.117      310.13419     -50891.983      189.21515      189.43082      268.77271    
     60900  -51185.459      310.11734     -50875.341      189.20485      189.41473      268.87577    
     61000  -51170.574      316.32026     -50854.254      189.19149      189.39626      268.97883    
     61100  -51147.284      317.31424     -50829.97       189.17848      189.38027      269.08189    
     61200  -51126.376      315.5288      -50810.847      189.16682      189.36713      269.18494    
     61300  -51110.555      312.05683     -50798.498      189.15137      189.35227      269.288      
     61400  -51099.189      316.03963     -50783.149      189.1357       189.33906      269.39106    
     61500  -51082.863      316.2414      -50766.622      189.12167      189.32642      269.49411    
     61600  -51064.587      314.63091     -50749.956      189.1069       189.31061      269.59717    
     61700  -51047.954      311.46152     -50736.493      189.09221      189.29318      269.70023    
     61800  -51032.704      310.79789     -50721.906      189.07654      189.27526      269.80328    
     61900  -51013.324      312.9494      -50700.374      189.05947      189.25705      269.90634    
     62000  -50989.194      317.30586     -50671.889      189.04397      189.24017      270.0094     
     62100  -50973.692      319.54004     -50654.152      189.02943      189.22339      270.11246    
     62200  -50956.306      314.91133     -50641.395      189.01596      189.2079       270.21551    
     62300  -50939.6        313.50674     -50626.094      189.00154      189.19278      270.31857    
     62400  -50924.348      314.83257     -50609.515      188.9868       189.17887      270.42163    
     62500  -50904.544      311.48758     -50593.056      188.9726       189.16627      270.52468    
     62600  -50887.484      310.93082     -50576.553      188.95919      189.15483      270.62774    
     62700  -50872.944      308.97072     -50563.973      188.94613      189.14305      270.7308     
     62800  -50852.696      306.98869     -50545.708      188.93372      189.12989      270.83386    
     62900  -50834.82       312.21712     -50522.603      188.92212      189.11474      270.93691    
     63000  -50815.636      316.26267     -50499.373      188.9083       189.09657      271.03997    
     63100  -50796.56       316.75788     -50479.803      188.89398      189.0786       271.14303    
     63200  -50779.581      316.53138     -50463.05       188.87731      189.05975      271.24608    
     63300  -50762.608      315.62862     -50446.98       188.86095      189.04213      271.34914    
     63400  -50745.718      316.47243     -50429.246      188.8462       189.02585      271.4522     
     63500  -50727.662      315.90453     -50411.758      188.832        189.0104       271.55525    
     63600  -50707.769      314.68315     -50393.086      188.81778      188.99626      271.65831    
     63700  -50686.685      313.02425     -50373.661      188.80367      188.98317      271.76137    
     63800  -50670.54       315.95467     -50354.585      188.78852      188.96798      271.86443    
     63900  -50656.18       318.84707     -50337.333      188.77612      188.95384      271.96748    
     64000  -50639.104      318.74445     -50320.36       188.76411      188.93902      272.07054    
     64100  -50615.77       314.0249      -50301.745      188.75239      188.92381      272.1736     
     64200  -50599.085      316.6857      -50282.399      188.74021      188.90883      272.27665    
     64300  -50577.394      312.2764      -50265.118      188.72526      188.89367      272.37971    
     64400  -50564.107      316.75368     -50247.353      188.71021      188.88045      272.48277    
     64500  -50543.483      316.12554     -50227.358      188.69281      188.86549      272.58582    
     64600  -50520.412      314.66897     -50205.743      188.6744       188.84832      272.68888    
     64700  -50501.738      313.21791     -50188.52       188.65613      188.83049      272.79194    
     64800  -50486.936      314.72564     -50172.21       188.63812      188.811        272.895      
     64900  -50466.098      314.15432     -50151.944      188.62309      188.79303      272.99805    
     65000  -50447.319      316.90603     -50130.413      188.61173      188.77722      273.10111    
     65100  -50422.99       312.43021     -50110.56       188.60192      188.76409      273.20417    
     65200  -50410.013      312.62795     -50097.385      188.59383      188.75416      273.30722    
     65300  -50392.033      314.30678     -50077.727      188.58339      188.74248      273.41028    
     65400  -50370.839      315.04088     -50055.799      188.56888      188.72867      273.51334    
     65500  -50348.812      315.79333     -50033.019      188.55242      188.71486      273.61639    
     65600  -50333.026      315.47021     -50017.556      188.53227      188.69735      273.71945    
     65700  -50310.109      311.11956     -49998.989      188.51237      188.67832      273.82251    
     65800  -50288.784      311.94265     -49976.841      188.49566      188.66148      273.92557    
     65900  -50267.989      313.55424     -49954.434      188.47781      188.64342      274.02862    
     66000  -50253.645      316.15548     -49937.49       188.46271      188.62819      274.13168    
     66100  -50232.398      311.93402     -49920.464      188.4492       188.61511      274.23474    
     66200  -50216.871      317.89073     -49898.98       188.43299      188.59966      274.33779    
     66300  -50193.429      315.98736     -49877.442      188.42024      188.58645      274.44085    
     66400  -50170.961      310.96402     -49859.997      188.40572      188.57149      274.54391    
     66500  -50151.742      311.26039     -49840.481      188.39248      188.55778      274.64696    
     66600  -50131.688      314.94086     -49816.747      188.37733      188.54296      274.75002    
     66700  -50110.145      317.16974     -49792.975      188.35981      188.52587      274.85308    
     66800  -50088.33       311.41217     -49776.918      188.34377      188.50965      274.95614    
     66900  -50071.062      314.48845     -49756.574      188.32641      188.49175      275.05919    
     67000  -50049.464      316.80114     -49732.663      188.31044      188.47428      275.16225    
     67100  -50028.587      317.18201     -49711.405      188.29444      188.45655      275.26531    
     67200  -50007.408      313.50637     -49693.901      188.27834      188.43979      275.36836    
     67300  -49986.089      315.9112      -49670.178      188.26183      188.42467      275.47142    
     67400  -49960.308      313.45666     -49646.852      188.24657      188.4108       275.57448    
     67500  -49943.355      316.65889     -49626.696      188.23276      188.39632      275.67754    
     67600  -49920.75       315.39233     -49605.358      188.21825      188.38166      275.78059    
     67700  -49902.937      320.29306     -49582.644      188.2026       188.36681      275.88365    
     67800  -49879.456      317.38179     -49562.074      188.18493      188.3508       275.98671    
     67900  -49854.005      313.72031     -49540.285      188.16499      188.33378      276.08976    
     68000  -49834.288      314.81897     -49519.469      188.14452      188.3175       276.19282    
     68100  -49813.673      315.93783     -49497.735      188.12346      188.30117      276.29588    
     68200  -49793.226      317.44748     -49475.779      188.10663      188.28649      276.39893    
     68300  -49766.418      313.16262     -49453.256      188.09017      188.2706       276.50199    
     68400  -49749.731      319.21022     -49430.52       188.07523      188.25626      276.60505    
     68500  -49724.802      316.25983     -49408.542      188.06038      188.24269      276.70811    
     68600  -49702.081      315.65137     -49386.43       188.04222      188.22565      276.81116    
     68700  -49681.623      317.74074     -49363.883      188.02664      188.21157      276.91422    
     68800  -49658.445      317.14125     -49341.304      188.00838      188.19514      277.01728    
     68900  -49639.349      320.85842     -49318.491      187.9899       188.17823      277.12033    
     69000  -49616.198      321.37425     -49294.824      187.97227      188.16214      277.22339    
     69100  -49587.509      315.0242      -49272.485      187.95178      188.14366      277.32645    
     69200  -49568.253      318.37936     -49249.874      187.93197      188.12613      277.4295     
     69300  -49542.286      315.40855     -49226.878      187.9132       188.11012      277.53256    
     69400  -49522.921      318.52632     -49204.395      187.89278      188.09485      277.63562    
     69500  -49497.581      315.06176     -49182.519      187.87307      188.08265      277.73868    
     69600  -49479.087      318.64836     -49160.439      187.85214      188.06874      277.84173    
     69700  -49453.432      316.34786     -49137.084      187.83464      188.05431      277.94479    
     69800  -49428.241      315.52845     -49112.713      187.81774      188.03719      278.04785    
     69900  -49404.507      315.08157     -49089.425      187.80032      188.01817      278.1509     
     70000  -49384.186      318.47437     -49065.711      187.78339      188.00021      278.25396    
     70100  -49360.325      318.6523      -49041.673      187.76392      187.9824       278.35702    
     70200  -49337.516      319.69696     -49017.819      187.74142      187.96542      278.46007    
     70300  -49313.908      320.3622      -48993.546      187.71787      187.94934      278.56313    
     70400  -49285.3        316.92512     -48968.375      187.69572      187.93308      278.66619    
     70500  -49262.631      318.14395     -48944.487      187.67557      187.91698      278.76925    
     70600  -49233.773      314.60545     -48919.167      187.65792      187.90202      278.8723     
     70700  -49215.388      320.63931     -48894.748      187.63933      187.88482      278.97536    
     70800  -49189.849      319.46381     -48870.385      187.62252      187.86939      279.07842    
     70900  -49167.939      320.03593     -48847.903      187.6041       187.85343      279.18147    
     71000  -49142.787      320.53653     -48822.25       187.58416      187.83683      279.28453    
     71100  -49118.317      320.72728     -48797.589      187.56469      187.82067      279.38759    
     71200  -49092.946      321.29906     -48771.647      187.54444      187.80274      279.49065    
     71300  -49069.174      320.46661     -48748.707      187.52345      187.78391      279.5937     
     71400  -49040.922      317.92934     -48722.992      187.50171      187.76488      279.69676    
     71500  -49023.988      325.91885     -48698.069      187.47792      187.745        279.79982    
     71600  -48993.602      320.90301     -48672.699      187.45671      187.7274       279.90287    
     71700  -48969.604      322.92263     -48646.682      187.43623      187.7094       280.00593    
     71800  -48944.55       323.39137     -48621.158      187.41791      187.69188      280.10899    
     71900  -48919.295      325.43614     -48593.859      187.40211      187.67532      280.21204    
     72000  -48888.621      321.59532     -48567.025      187.38159      187.65455      280.3151     
     72100  -48861.762      320.54644     -48541.215      187.36279      187.6368       280.41816    
     72200  -48836.848      320.05589     -48516.792      187.34244      187.61861      280.52122    
     72300  -48811.662      321.24684     -48490.415      187.32138      187.59898      280.62427    
     72400  -48790.299      325.49839     -48464.8        187.30396      187.58151      280.72733    
     72500  -48761.773      320.65766     -48441.115      187.28118      187.55916      280.83039    
     72600  -48733.735      320.92133     -48412.814      187.26063      187.53903      280.93344    
     72700  -48708.912      322.69176     -48386.22       187.2388       187.51705      281.0365     
     72800  -48685.368      323.44478     -48361.923      187.21657      187.49417      281.13956    
     72900  -48656.204      323.44906     -48332.755      187.19779      187.47613      281.24261    
     73000  -48626.783      325.48704     -48301.296      187.17598      187.45801      281.34567    
     73100  -48603.529      327.97554     -48275.554      187.1563       187.44353      281.44873    
     73200  -48571.946      323.53158     -48248.414      187.1356       187.42769      281.55179    
     73300  -48543.693      325.96825     -48217.725      187.11277      187.40924      281.65484    
     73400  -48522.365      329.5096      -48192.856      187.09119      187.39102      281.7579     
     73500  -48488.664      325.89448     -48162.769      187.06825      187.37032      281.86096    
     73600  -48462.205      327.15422     -48135.051      187.04476      187.34956      281.96401    
     73700  -48439.203      332.6002      -48106.603      187.02109      187.33024      282.06707    
     73800  -48411.41       331.85075     -48079.559      186.9963       187.3105       282.17013    
     73900  -48382.984      331.98351     -48051          186.97346      187.29195      282.27318    
     74000  -48355.721      330.29719     -48025.424      186.95065      187.2724       282.37624    
     74100  -48328.421      331.50944     -47996.911      186.92854      187.25363      282.4793     
     74200  -48297.779      331.18554     -47966.594      186.90628      187.23585      282.58236    
     74300  -48274.437      336.54488     -47937.892      186.88177      187.21702      282.68541    
     74400  -48244.509      337.77536     -47906.733      186.85715      187.19806      282.78847    
     74500  -48218.343      340.66456     -47877.678      186.83389      187.17945      282.89153    
     74600  -48175.446      329.10441     -47846.342      186.81112      187.15934      282.99458    
     74700  -48157.55       339.79047     -47817.759      186.78918      187.13876      283.09764    
     74800  -48126.766      341.07688     -47785.689      186.7672       187.11926      283.2007     
     74900  -48096.34       339.38526     -47756.955      186.74257      187.09936      283.30375    
     75000  -48070.359      340.0214      -47730.338      186.71801      187.07988      283.40681    
     75100  -48040.959      341.48242     -47699.476      186.69317      187.05922      283.50987    
     75200  -48006.403      335.57582     -47670.827      186.66885      187.03842      283.61293    
     75300  -47984.327      342.62202     -47641.705      186.64616      187.01845      283.71598    
     75400  -47974.338      364.02563     -47610.312      186.62285      186.99668      283.81904    
     75500  -47995.968      406.55715     -47589.411      186.60058      186.97534      283.9221     
     75600  -48390.645      745.76028     -47644.885      186.57857      186.95642      284.02515    
     75700  -49349.717      1347.7259     -48001.991      186.5668       186.94946      284.12821    
     75800  -50737.185      1740.0402     -48997.144      186.5697       186.9545       284.23127    
     75900  -52364.532      1900.614      -50463.918      186.59997      186.97565      284.33433    
     76000  -53965.106      1791.244      -52173.862      186.66281      187.01434      284.43738    
     76100  -55092.29       1400.2266     -53692.063      186.73668      187.05599      284.54044    
     76200  -55877.2        1101.4187     -54775.781      186.80066      187.0891       284.6435     
     76300  -56534.442      928.3595      -55606.083      186.87779      187.13622      284.74655    
     76400  -57079.964      801.03804     -56278.926      186.95474      187.18747      284.84961    
     76500  -57375.437      600.7552      -56774.682      187.02466      187.23539      284.95267    
     76600  -57484.592      419.73674     -57064.855      187.10078      187.29133      285.05572    
     76700  -57484.293      282.75064     -57201.543      187.18032      187.34899      285.15878    
     76800  -57393.365      181.91285     -57211.453      187.25798      187.40507      285.26184    
     76900  -57323.521      189.94158     -57133.579      187.31765      187.44683      285.3649     
     77000  -57279.088      241.14719     -57037.941      187.36681      187.47842      285.46795    
     77100  -57253.599      315.88947     -56937.709      187.43315      187.52636      285.57101    
     77200  -57261.19       378.80284     -56882.387      187.50558      187.57915      285.67407    
     77300  -57311.067      354.60252     -56956.465      187.56282      187.61975      285.77712    
     77400  -57365.867      313.03405     -57052.832      187.61448      187.65851      285.88018    
     77500  -57388.367      288.00909     -57100.357      187.67414      187.70278      285.98324    
     77600  -57380.441      283.72909     -57096.712      187.73222      187.74295      286.08629    
     77700  -57344.478      299.24032     -57045.238      187.78975      187.78157      286.18935    
     77800  -57309.451      324.69791     -56984.753      187.84327      187.82247      286.29241    
     77900  -57301.892      341.56543     -56960.326      187.87738      187.85172      286.39547    
     78000  -57329.126      335.78511     -56993.341      187.91945      187.88829      286.49852    
     78100  -57359.4        310.04381     -57049.356      187.96616      187.92718      286.60158    
     78200  -57391.429      299.85075     -57091.578      188.02086      187.9729       286.70464    
     78300  -57381.685      283.08413     -57098.601      188.06979      188.0075       286.80769    
     78400  -57354.915      295.67854     -57059.237      188.10936      188.03056      286.91075    
     78500  -57314.388      314.48236     -56999.906      188.15494      188.05863      287.01381    
     78600  -57292.486      338.27527     -56954.211      188.19778      188.08552      287.11686    
     78700  -57291.224      338.99031     -56952.233      188.24158      188.11473      287.21992    
     78800  -57317.486      322.36647     -56995.12       188.26669      188.13609      287.32298    
     78900  -57339.655      300.28501     -57039.37       188.28766      188.16066      287.42604    
     79000  -57349.125      295.23513     -57053.89       188.32246      188.19942      287.52909    
     79100  -57350.242      309.92015     -57040.321      188.34812      188.22585      287.63215    
     79200  -57336.337      317.76819     -57018.569      188.3706       188.24828      287.73521    
     79300  -57327.5        322.1811      -57005.319      188.39457      188.26915      287.83826    
     79400  -57332.119      321.666       -57010.453      188.41475      188.28219      287.94132    
     79500  -57342.119      313.59975     -57028.52       188.43245      188.29266      288.04438    
     79600  -57353.644      307.28686     -57046.357      188.46157      188.311        288.14743    
     79700  -57354.662      304.56854     -57050.094      188.48779      188.32675      288.25049    
     79800  -57353.584      315.18835     -57038.396      188.51388      188.34039      288.35355    
     79900  -57337.441      317.90967     -57019.531      188.5452       188.35586      288.45661    
     80000  -57323.723      320.26044     -57003.463      188.56925      188.36741      288.55966    
     80100  -57314.451      319.22319     -56995.228      188.59618      188.38558      288.66272    
     80200  -57322.38       323.39101     -56998.989      188.62064      188.3987       288.76578    
     80300  -57336.054      318.27498     -57017.779      188.64062      188.40578      288.86883    
     80400  -57346.243      304.64506     -57041.598      188.66553      188.42037      288.97189    
     80500  -57356.74       305.35041     -57051.39       188.68124      188.42763      289.07495    
     80600  -57348.449      305.15015     -57043.298      188.69588      188.43551      289.17801    
     80700  -57337.049      316.84745     -57020.201      188.71451      188.44486      289.28106    
     80800  -57326.271      327.36882     -56998.902      188.72988      188.44833      289.38412    
     80900  -57321.29       321.8482      -56999.442      188.74904      188.45492      289.48718    
     81000  -57347.392      321.67393     -57025.718      188.7689       188.46202      289.59023    
     81100  -57364.414      304.33987     -57060.075      188.78536      188.46681      289.69329    
     81200  -57365.918      292.26378     -57073.654      188.80256      188.47905      289.79635    
     81300  -57356.662      303.5278      -57053.135      188.82002      188.493        289.8994     
     81400  -57338.029      322.28492     -57015.745      188.8336       188.50062      290.00246    
     81500  -57322.684      329.97832     -56992.705      188.85008      188.51012      290.10552    
     81600  -57327.3        326.31917     -57000.981      188.86221      188.51377      290.20858    
     81700  -57346.146      316.15989     -57029.986      188.87067      188.51139      290.31163    
     81800  -57358.179      304.31476     -57053.864      188.88332      188.51033      290.41469    
     81900  -57357.867      301.28853     -57056.578      188.89397      188.51081      290.51775    
     82000  -57355.513      314.55224     -57040.96       188.90958      188.51452      290.6208     
     82100  -57348.119      322.93398     -57025.185      188.9278       188.52074      290.72386    
     82200  -57336.41       317.48776     -57018.922      188.94486      188.52403      290.82692    
     82300  -57341.809      319.26459     -57022.545      188.9704       188.53163      290.92997    
     82400  -57350.16       314.11815     -57036.042      188.9976       188.54198      291.03303    
     82500  -57360.123      308.15953     -57051.963      189.01479      188.54672      291.13609    
     82600  -57363.982      305.8727      -57058.109      189.02646      188.54996      291.23915    
     82700  -57358.117      311.33817     -57046.778      189.04019      188.55585      291.3422     
     82800  -57342.957      316.85722     -57026.1        189.0534       188.56334      291.44526    
     82900  -57338.125      322.60099     -57015.524      189.0599       188.56599      291.54832    
     83000  -57337.926      316.94141     -57020.985      189.06975      188.57278      291.65137    
     83100  -57350.272      315.77806     -57034.494      189.07805      188.5758       291.75443    
     83200  -57356.88       310.1082      -57046.772      189.08932      188.57921      291.85749    
     83300  -57357.921      304.97249     -57052.948      189.1028       188.58231      291.96054    
     83400  -57353.369      307.01561     -57046.353      189.11252      188.58275      292.0636     
     83500  -57347.181      317.53206     -57029.649      189.12072      188.58374      292.16666    
     83600  -57337.926      319.61258     -57018.314      189.12747      188.58832      292.26972    
     83700  -57341.73       322.13261     -57019.597      189.12709      188.58922      292.37277    
     83800  -57352.237      314.6658      -57037.572      189.13737      188.60001      292.47583    
     83900  -57364.291      308.47631     -57055.815      189.15008      188.61278      292.57889    
     84000  -57361.188      299.47435     -57061.714      189.16276      188.62126      292.68194    
     84100  -57357.308      308.78927     -57048.519      189.18171      188.63175      292.785      
     84200  -57344.489      319.27721     -57025.212      189.19664      188.64003      292.88806    
     84300  -57334.927      323.65332     -57011.274      189.20556      188.64502      292.99111    
     84400  -57338.118      320.307       -57017.811      189.21143      188.64775      293.09417    
     84500  -57351.42       312.02499     -57039.395      189.21223      188.65113      293.19723    
     84600  -57361.477      303.51086     -57057.966      189.21334      188.65489      293.30029    
     84700  -57359.907      300.35272     -57059.554      189.21554      188.65822      293.40334    
     84800  -57353.396      311.50031     -57041.896      189.21491      188.65757      293.5064     
     84900  -57344.547      324.97044     -57019.576      189.21879      188.6566       293.60946    
     85000  -57336.751      323.98408     -57012.767      189.22659      188.65523      293.71251    
     85100  -57343.771      317.98937     -57025.781      189.23539      188.65147      293.81557    
     85200  -57356.13       310.27055     -57045.859      189.24838      188.65156      293.91863    
     85300  -57363.701      308.09545     -57055.606      189.26009      188.64906      294.02169    
     85400  -57362.671      312.03337     -57050.637      189.27171      188.64786      294.12474    
     85500  -57354.66       317.77995     -57036.88       189.27906      188.64891      294.2278     
     85600  -57346.601      318.4581      -57028.143      189.28878      188.65669      294.33086    
     85700  -57350.277      318.72251     -57031.555      189.29898      188.66505      294.43391    
     85800  -57354.681      312.3263      -57042.355      189.30832      188.66981      294.53697    
     85900  -57357.751      309.00527     -57048.745      189.31638      188.66911      294.64003    
     86000  -57362.538      315.85371     -57046.684      189.32107      188.66207      294.74308    
     86100  -57354.63       312.02026     -57042.61       189.32528      188.65353      294.84614    
     86200  -57357.464      319.79516     -57037.668      189.331        188.65041      294.9492     
     86300  -57347.884      311.42849     -57036.456      189.3302       188.64751      295.05226    
     86400  -57350.074      311.65661     -57038.418      189.33175      188.64677      295.15531    
     86500  -57356.46       315.7721      -57040.688      189.33752      188.65053      295.25837    
     86600  -57355.661      313.27884     -57042.382      189.34026      188.64958      295.36143    
     86700  -57355.984      313.72907     -57042.255      189.34927      188.65031      295.46448    
     86800  -57356.848      313.28142     -57043.566      189.35992      188.65255      295.56754    
     86900  -57350.698      307.67558     -57043.022      189.364        188.65306      295.6706     
     87000  -57357.807      318.52668     -57039.28       189.36804      188.65177      295.77365    
     87100  -57352.1        313.92297     -57038.177      189.37039      188.65219      295.87671    
     87200  -57358.567      317.73678     -57040.83       189.36702      188.65005      295.97977    
     87300  -57354.534      309.2689      -57045.265      189.36396      188.64876      296.08283    
     87400  -57359.391      312.07753     -57047.314      189.36019      188.64816      296.18588    
     87500  -57363.862      316.80413     -57047.058      189.36192      188.64988      296.28894    
     87600  -57359.67       313.98815     -57045.682      189.36834      188.65484      296.392      
     87700  -57357.774      314.76769     -57043.006      189.37326      188.65561      296.49505    
     87800  -57359.594      319.01926     -57040.575      189.37824      188.65439      296.59811    
     87900  -57357.718      313.60924     -57044.109      189.38035      188.65357      296.70117    
     88000  -57365.007      314.3538      -57050.653      189.37224      188.6495       296.80422    
     88100  -57363.191      309.72092     -57053.47       189.36687      188.64934      296.90728    
     88200  -57361.861      311.69766     -57050.163      189.36156      188.64934      297.01034    
     88300  -57357.744      314.72691     -57043.017      189.35702      188.64794      297.1134     
     88400  -57352.744      316.2142      -57036.53       189.35887      188.64738      297.21645    
     88500  -57356.652      320.91581     -57035.737      189.35717      188.64171      297.31951    
     88600  -57355.808      313.70206     -57042.106      189.35679      188.63781      297.42257    
     88700  -57360.437      310.90407     -57049.533      189.36009      188.63673      297.52562    
     88800  -57364.241      312.53813     -57051.703      189.35779      188.63481      297.62868    
     88900  -57360.586      311.72054     -57048.866      189.35651      188.63567      297.73174    
     89000  -57356.889      313.96016     -57042.929      189.35414      188.63763      297.8348     
     89100  -57355.846      317.53154     -57038.315      189.34688      188.63506      297.93785    
     89200  -57356.773      320.00733     -57036.765      189.34619      188.63151      298.04091    
     89300  -57358.441      315.31582     -57043.125      189.35001      188.62806      298.14397    
     89400  -57360.69       308.97501     -57051.715      189.34523      188.62058      298.24702    
     89500  -57363.759      309.2191      -57054.54       189.34666      188.6239       298.35008    
     89600  -57360.04       312.43332     -57047.607      189.34074      188.6271       298.45314    
     89700  -57358.876      318.87214     -57040.004      189.33228      188.62983      298.55619    
     89800  -57353.211      315.17312     -57038.038      189.32973      188.63422      298.65925    
     89900  -57358.019      316.24657     -57041.772      189.32423      188.63292      298.76231    
     90000  -57356.567      308.0043      -57048.563      189.32295      188.63086      298.86537    
     90100  -57361.471      309.17632     -57052.295      189.31856      188.62743      298.96842    
     90200  -57361.752      312.6307      -57049.121      189.30903      188.62283      299.07148    
     90300  -57361.053      318.70991     -57042.343      189.30323      188.62283      299.17454    
     90400  -57354.766      316.25442     -57038.512      189.29607      188.62407      299.27759    
     90500  -57357.957      318.76402     -57039.193      189.28718      188.62256      299.38065    
     90600  -57355.863      311.57361     -57044.289      189.28281      188.62269      299.48371    
     90700  -57367.383      318.35899     -57049.024      189.27867      188.62116      299.58676    
     90800  -57366.761      311.60068     -57055.16       189.27385      188.61807      299.68982    
     90900  -57372.929      312.91917     -57060.01       189.27298      188.61968      299.79288    
     91000  -57373.446      309.87356     -57063.573      189.26557      188.61809      299.89594    
     91100  -57369.592      307.9852      -57061.606      189.25692      188.61665      299.99899    
     91200  -57365.889      313.46891     -57052.42       189.25272      188.62028      300.10205    
     91300  -57364.494      320.83796     -57043.656      189.23939      188.61901      300.20511    
     91400  -57363.591      316.92545     -57046.665      189.2277       188.61667      300.30816    
     91500  -57369.938      311.78954     -57058.148      189.21792      188.61412      300.41122    
     91600  -57375.608      308.83722     -57066.771      189.20402      188.60532      300.51428    
     91700  -57370.513      306.30956     -57064.204      189.19314      188.59784      300.61733    
     91800  -57368.101      315.85381     -57052.247      189.18336      188.59529      300.72039    
     91900  -57362.148      318.4514      -57043.697      189.17237      188.59412      300.82345    
     92000  -57365.128      319.24417     -57045.884      189.16368      188.59865      300.92651    
     92100  -57368.738      311.06679     -57057.672      189.15542      188.60418      301.02956    
     92200  -57378.816      311.35468     -57067.461      189.14872      188.60894      301.13262    
     92300  -57373.738      308.19822     -57065.54       189.1423       188.61119      301.23568    
     92400  -57369.384      317.04613     -57052.338      189.13636      188.61297      301.33873    
     92500  -57362.949      320.12039     -57042.828      189.13171      188.61512      301.44179    
     92600  -57362.764      316.72848     -57046.035      189.12194      188.61183      301.54485    
     92700  -57369.511      312.52461     -57056.987      189.11411      188.61042      301.6479     
     92800  -57374.628      309.42575     -57065.203      189.10329      188.60574      301.75096    
     92900  -57373.682      308.71322     -57064.968      189.08685      188.59832      301.85402    
     93000  -57372.175      316.22887     -57055.946      189.07653      188.59841      301.95708    
     93100  -57371.414      323.2968      -57048.117      189.06055      188.59308      302.06013    
     93200  -57368.705      319.60473     -57049.1        189.04473      188.58595      302.16319    
     93300  -57373.935      316.60965     -57057.325      189.03522      188.5854       302.26625    
     93400  -57376.165      311.02454     -57065.141      189.02053      188.57968      302.3693     
     93500  -57377.752      310.4947      -57067.257      189.00743      188.57618      302.47236    
     93600  -57372.046      309.51206     -57062.534      188.99513      188.57408      302.57542    
     93700  -57370.361      316.47614     -57053.885      188.97932      188.56651      302.67848    
     93800  -57367.059      317.7648      -57049.294      188.96476      188.55622      302.78153    
     93900  -57372.144      317.62885     -57054.515      188.94865      188.54262      302.88459    
     94000  -57373.844      309.96952     -57063.875      188.93542      188.53146      302.98765    
     94100  -57377.588      310.6182      -57066.97       188.92209      188.52244      303.0907     
     94200  -57374.062      311.44183     -57062.62       188.90824      188.51636      303.19376    
     94300  -57376.608      321.55062     -57055.058      188.89603      188.51193      303.29682    
     94400  -57364.236      313.76242     -57050.473      188.88156      188.50487      303.39987    
     94500  -57364.109      311.3585      -57052.75       188.86381      188.49631      303.50293    
     94600  -57372.204      312.53444     -57059.67       188.84658      188.48983      303.60599    
     94700  -57375.208      311.06017     -57064.148      188.82512      188.48157      303.70905    
     94800  -57376.552      313.72144     -57062.83       188.80591      188.47564      303.8121     
     94900  -57375.362      317.71949     -57057.643      188.78378      188.46634      303.91516    
     95000  -57366.753      313.1959      -57053.557      188.7629       188.45623      304.01822    
     95100  -57373.181      318.86695     -57054.314      188.74486      188.44537      304.12127    
     95200  -57369.56       311.42412     -57058.136      188.72813      188.43637      304.22433    
     95300  -57373.012      311.91473     -57061.097      188.70659      188.42414      304.32739    
     95400  -57373.055      311.1536      -57061.901      188.68368      188.41319      304.43044    
     95500  -57373.41       314.26966     -57059.14       188.66322      188.40427      304.5335     
     95600  -57372.904      317.95951     -57054.945      188.64284      188.39105      304.63656    
     95700  -57376.325      320.53157     -57055.793      188.62661      188.37837      304.73962    
     95800  -57374.026      313.8326      -57060.193      188.60816      188.36383      304.84267    
     95900  -57373.951      312.39861     -57061.552      188.58873      188.34773      304.94573    
     96000  -57373.531      314.57239     -57058.958      188.57047      188.33459      305.04879    
     96100  -57370.189      314.89068     -57055.299      188.55107      188.31853      305.15184    
     96200  -57371.764      314.87858     -57056.885      188.53315      188.30386      305.2549     
     96300  -57375.701      310.66207     -57065.039      188.51089      188.28922      305.35796    
     96400  -57383.334      311.76825     -57071.566      188.48429      188.27336      305.46101    
     96500  -57379.024      309.26172     -57069.762      188.46248      188.26312      305.56407    
     96600  -57373.442      313.15248     -57060.29       188.43786      188.24657      305.66713    
     96700  -57373.507      320.70466     -57052.802      188.41149      188.22618      305.77019    
     96800  -57374.384      318.00388     -57056.38       188.38552      188.20703      305.87324    
     96900  -57380.691      313.23384     -57067.458      188.3603       188.18417      305.9763     
     97000  -57384.812      307.57971     -57077.232      188.33532      188.161        306.07936    
     97100  -57382.865      307.19642     -57075.668      188.30964      188.14116      306.18241    
     97200  -57377.529      314.14184     -57063.387      188.28257      188.12188      306.28547    
     97300  -57371.342      318.63772     -57052.705      188.25412      188.10156      306.38853    
     97400  -57373.067      318.60882     -57054.459      188.22792      188.08045      306.49158    
     97500  -57381.839      316.35665     -57065.483      188.20192      188.05589      306.59464    
     97600  -57384.068      308.86826     -57075.199      188.1737       188.02908      306.6977     
     97700  -57387.369      311.19999     -57076.169      188.14843      188.0088       306.80076    
     97800  -57384.442      315.95864     -57068.483      188.11891      187.98288      306.90381    
     97900  -57376.295      315.7617      -57060.533      188.08861      187.95722      307.00687    
     98000  -57378.946      321.18095     -57057.765      188.06291      187.93808      307.10993    
     98100  -57378.173      316.0969      -57062.076      188.03397      187.91554      307.21298    
     98200  -57378.995      308.90269     -57070.092      188.00396      187.89109      307.31604    
     98300  -57381.301      307.94592     -57073.355      187.97473      187.86699      307.4191     
     98400  -57383.113      313.77138     -57069.341      187.94001      187.83463      307.52216    
     98500  -57378.018      315.59459     -57062.424      187.90482      187.80372      307.62521    
     98600  -57376.152      315.82897     -57060.323      187.87076      187.77376      307.72827    
     98700  -57379.153      316.19566     -57062.957      187.8335       187.73877      307.83133    
     98800  -57383.564      316.65241     -57066.911      187.79906      187.70764      307.93438    
     98900  -57383.61       314.7714      -57068.838      187.76591      187.67914      308.03744    
     99000  -57382.119      314.54286     -57067.576      187.7336       187.64849      308.1405     
     99100  -57378.615      314.17073     -57064.445      187.70279      187.61983      308.24355    
     99200  -57375.781      315.05524     -57060.726      187.67027      187.58919      308.34661    
     99300  -57372.189      312.22099     -57059.968      187.63922      187.55961      308.44967    
     99400  -57380.037      316.14988     -57063.887      187.60758      187.52874      308.55273    
     99500  -57378.182      310.35283     -57067.829      187.57561      187.49117      308.65578    
     99600  -57381.611      313.94773     -57067.663      187.54654      187.45843      308.75884    
     99700  -57380.636      314.59562     -57066.04       187.51448      187.42569      308.8619     
     99800  -57381.828      316.74198     -57065.086      187.47715      187.38891      308.96495    
     99900  -57381.637      316.63802     -57064.999      187.44714      187.35922      309.06801    
    100000  -57379.731      314.25704     -57065.474      187.41402      187.32426      309.17107    
Loop time of 33362.8 on 12 procs for 100000 steps with 8100 atoms

Performance: 0.259 ns/day, 92.674 hours/ns, 2.997 timesteps/s, 24.279 katom-step/s
39.7% CPU use with 12 MPI tasks x 1 OpenMP threads

MPI task timing breakdown:
Section |  min time  |  avg time  |  max time  |%varavg| %total
---------------------------------------------------------------
Pair    | 1631.2     | 2318.5     | 2953       |1093.8 |  6.95
Neigh   | 22.355     | 26.616     | 31.075     |  45.8 |  0.08
Comm    | 4940.3     | 5634       | 6536.2     | 778.1 | 16.89
Output  | 95.96      | 98.897     | 101.47     |  17.6 |  0.30
Modify  | 22243      | 22473      | 22743      | 104.4 | 67.36
Other   |            | 2811       |            |       |  8.43

Nlocal:            675 ave         991 max         404 min
Histogram: 3 1 0 2 0 2 1 0 1 2
Nghost:        2366.58 ave        3479 max        1712 min
Histogram: 2 3 1 2 0 1 1 1 0 1
Neighs:              0 ave           0 max           0 min
Histogram: 12 0 0 0 0 0 0 0 0 0

Total # of neighbors = 0
Ave neighs/atom = 0
Neighbor list builds = 732
Dangerous builds = 0
Total wall time: 9:16:04
