LAMMPS (2 Aug 2023 - Update 3)
OMP_NUM_THREADS environment is not set. Defaulting to 1 thread. (src/comm.cpp:98)
  using 1 OpenMP thread(s) per MPI task

# 1------general---------------
units                             metal      #单位为lammps 中的metel 类型
dimension                    3          #模拟的维度 三维
boundary                    p p p      #周期边界条件
atom_style                  atomic   #原子类型自动
atom_modify              map array sort 100 2.0
neighbor                    3.0 bin
neigh_modify            every 1 delay 0 check yes
#2 -----global variable-------定义全局变量，方便统一修改；
variable temperature equal 300
variable tstep equal 0.001
variable pressure equal 0
variable thermalstep equal 100
variable dumpstep equal 1000
variable relaxtime equal 0
variable totaltime equal 100000
variable deformrate equal 5e-3
#3 -------model------------
#box tilt large
read_data     1.lmp
Reading data file ...
  orthogonal box = (-100 -100 -2.3312512) to (100 100 41.316429)
  2 by 5 by 1 MPI processor grid
  reading atoms ...
  1824 atoms
  read_data CPU = 0.006 seconds
replicate 1 1 9
Replication is creating a 1x1x9 = 9 times larger system...
  orthogonal box = (-100 -100 -2.3312512) to (100 100 390.49787)
  1 by 2 by 5 MPI processor grid
  16416 atoms
  replicate CPU = 0.001 seconds
write_data h.data
System init for write_data ...
WARNING: Communication cutoff is 0.0. No ghost atoms will be generated. Atoms may get lost. (src/comm_brick.cpp:210)
pair_style hybrid airebo 3.0 airebo 3.0 airebo 3.0 lj/cut 10
pair_coeff * * airebo 1 CH.airebo C NULL NULL
Reading airebo potential file CH.airebo with DATE: 2011-10-25
pair_coeff * * airebo 2 CH.airebo NULL C NULL
Reading airebo potential file CH.airebo with DATE: 2011-10-25
pair_coeff * * airebo 3 CH.airebo NULL NULL C
Reading airebo potential file CH.airebo with DATE: 2011-10-25
pair_coeff 1 2 lj/cut 0.00456 3.431
pair_coeff 1 3 lj/cut 0.00456 3.431
pair_coeff 2 3 lj/cut 0.00456 3.431

# 5------minimize -----------
min_style      sd
minimize       1.0e-4 1.0e-6 100 1000
Neighbor list info ...
  update: every = 1 steps, delay = 0 steps, check = yes
  max neighbors/atom: 2000, page size: 100000
  master list distance cutoff = 13.2
  ghost atom cutoff = 13.2
  binsize = 6.6, bins = 31 31 60
  6 neighbor lists, perpetual/occasional/extra = 6 0 0
  (1) pair airebo, perpetual, skip from (5)
      attributes: full, newton on, ghost
      pair build: skip/ghost
      stencil: none
      bin: none
  (2) pair airebo, perpetual, skip from (5)
      attributes: full, newton on, ghost
      pair build: skip/ghost
      stencil: none
      bin: none
  (3) pair airebo, perpetual, skip from (5)
      attributes: full, newton on, ghost
      pair build: skip/ghost
      stencil: none
      bin: none
  (4) pair lj/cut, perpetual, skip from (6)
      attributes: half, newton on, cut 13
      pair build: skip
      stencil: none
      bin: none
  (5) neighbor class addition, perpetual
      attributes: full, newton on, ghost
      pair build: full/bin/ghost
      stencil: full/ghost/bin/3d
      bin: standard
  (6) neighbor class addition, perpetual
      attributes: half, newton on, cut 13
      pair build: half/bin/atomonly/newton
      stencil: half/bin/3d
      bin: standard
Per MPI rank memory allocation (min/avg/max) = 15.23 | 15.42 | 15.62 Mbytes
   Step          Temp          E_pair         E_mol          TotEng         Press     
         0   0             -118263.28      0             -118263.28      705.43265    
         4   0             -118666.61      0             -118666.61      93.415916    
Loop time of 0.22137 on 10 procs for 4 steps with 16416 atoms

99.8% CPU use with 10 MPI tasks x 1 OpenMP threads

Minimization stats:
  Stopping criterion = energy tolerance
  Energy initial, next-to-last, final = 
     -118263.281722071   -118656.50769155  -118666.605393704
  Force two-norm initial, final = 207.17633 34.540213
  Force max component initial, final = 3.4318528 0.54749295
  Final line search alpha, max atom move = 0.13695896 0.074984064
  Iterations, force evaluations = 4 8

MPI task timing breakdown:
Section |  min time  |  avg time  |  max time  |%varavg| %total
---------------------------------------------------------------
Pair    | 0.21265    | 0.21497    | 0.21965    |   0.5 | 97.11
Neigh   | 0          | 0          | 0          |   0.0 |  0.00
Comm    | 0.00085233 | 0.0039885  | 0.0079083  |   4.0 |  1.80
Output  | 0          | 0          | 0          |   0.0 |  0.00
Modify  | 0          | 0          | 0          |   0.0 |  0.00
Other   |            | 0.002411   |            |       |  1.09

Nlocal:         1641.6 ave        1684 max        1593 min
Histogram: 4 0 0 1 0 0 0 0 0 5
Nghost:         2745.6 ave        2823 max        2657 min
Histogram: 2 0 0 1 2 2 0 0 0 3
Neighs:              0 ave           0 max           0 min
Histogram: 10 0 0 0 0 0 0 0 0 0

Total # of neighbors = 0
Ave neighs/atom = 0
Neighbor list builds = 0
Dangerous builds = 0
#6----define computes------
variable nums equal count(all) #计算原子数目
variable toval equal 22.7273*22.7165*lz #计算系统总体积，单层石墨烯厚度为0.335nm
variable vol equal ${toval} #体系的初始体积
variable vol equal 202811.670105542 
variable vatom equal v_vol/v_nums #单个原子体积
compute 1 all stress/atom NULL #计算体系中单原子应力
compute xalls all reduce sum c_1[1]
variable xstress equal (c_xalls)/(v_toval*10000)
compute yalls all reduce sum c_1[2]
variable ystress equal (c_yalls)/(v_toval*10000)
compute zalls all reduce sum c_1[3]
variable zstress equal (c_zalls)/(v_toval*10000)
#7---------relaxation-------------------------
timestep ${tstep}
timestep 0.001
velocity all create ${temperature} 231743 units box dist gaussian
velocity all create 300 231743 units box dist gaussian
dump   1 all atom 100 all-cy.lammpstrj
#fix    1 all npt temp 300 300  0.1 aniso 0 0 10 drag 1  #三个方向独立控压
fix  1 all npt temp ${temperature} ${temperature} 0.1 x ${pressure} ${pressure} 10 y ${pressure} ${pressure} 10
fix  1 all npt temp 300 ${temperature} 0.1 x ${pressure} ${pressure} 10 y ${pressure} ${pressure} 10
fix  1 all npt temp 300 300 0.1 x ${pressure} ${pressure} 10 y ${pressure} ${pressure} 10
fix  1 all npt temp 300 300 0.1 x 0 ${pressure} 10 y ${pressure} ${pressure} 10
fix  1 all npt temp 300 300 0.1 x 0 0 10 y ${pressure} ${pressure} 10
fix  1 all npt temp 300 300 0.1 x 0 0 10 y 0 ${pressure} 10
fix  1 all npt temp 300 300 0.1 x 0 0 10 y 0 0 10
compute  2 all pe/atom
compute  pe all reduce sum c_2
variable PE equal "c_pe"
fix    pe all print 100 "${PE} " file PE.txt screen no
thermo  ${thermalstep}
thermo  100
#thermo_style  custom step pe ke etotal lx ly lz
run   ${relaxtime}
run   0
Per MPI rank memory allocation (min/avg/max) = 16.24 | 16.32 | 16.62 Mbytes
   Step          Temp          E_pair         E_mol          TotEng         Press          Volume    
         4   300           -118666.61      0             -118030.06      136.68545      15713165     
Loop time of 2.49111e-05 on 10 procs for 0 steps with 16416 atoms

93.9% CPU use with 10 MPI tasks x 1 OpenMP threads

MPI task timing breakdown:
Section |  min time  |  avg time  |  max time  |%varavg| %total
---------------------------------------------------------------
Pair    | 0          | 0          | 0          |   0.0 |  0.00
Neigh   | 0          | 0          | 0          |   0.0 |  0.00
Comm    | 0          | 0          | 0          |   0.0 |  0.00
Output  | 0          | 0          | 0          |   0.0 |  0.00
Modify  | 0          | 0          | 0          |   0.0 |  0.00
Other   |            | 2.491e-05  |            |       |100.00

Nlocal:         1641.6 ave        1660 max        1616 min
Histogram: 1 1 2 0 0 0 0 2 2 2
Nghost:         2744.6 ave        2797 max        2683 min
Histogram: 3 0 0 1 0 0 2 1 1 2
Neighs:              0 ave           0 max           0 min
Histogram: 10 0 0 0 0 0 0 0 0 0

Total # of neighbors = 0
Ave neighs/atom = 0
Neighbor list builds = 0
Dangerous builds = 0
#8 -------tension-----------------------------
unfix  1
undump  1
unfix  pe
reset_timestep 0
fix avestress all ave/atom 1 ${dumpstep} ${dumpstep} c_1[1] c_1[2] c_1[3] c_1[4] c_1[5] c_1[6]
fix avestress all ave/atom 1 1000 ${dumpstep} c_1[1] c_1[2] c_1[3] c_1[4] c_1[5] c_1[6]
fix avestress all ave/atom 1 1000 1000 c_1[1] c_1[2] c_1[3] c_1[4] c_1[5] c_1[6]

#-----calculation of strain and Cumulative compression--------
variable                tmp equal "lz"
variable                L0 equal ${tmp}
variable                L0 equal 392.8291231572
variable                strain equal "(lz - v_L0)/v_L0"
variable                Cumulativels equal "(lz - v_L0)/10"
fix Step all print 100 "${strain} ${Cumulativels} ${zstress}" file grapoten.txt screen no

dump 2 all custom ${dumpstep} tension.xyz type x y z f_avestress[1] f_avestress[2] f_avestress[3] f_avestress[4] f_avestress[5] f_avestress[6]
dump 2 all custom 1000 tension.xyz type x y z f_avestress[1] f_avestress[2] f_avestress[3] f_avestress[4] f_avestress[5] f_avestress[6]

fix  1 all npt temp ${temperature} ${temperature} 0.1 y ${pressure} ${pressure} 10 x ${pressure} ${pressure} 10
fix  1 all npt temp 300 ${temperature} 0.1 y ${pressure} ${pressure} 10 x ${pressure} ${pressure} 10
fix  1 all npt temp 300 300 0.1 y ${pressure} ${pressure} 10 x ${pressure} ${pressure} 10
fix  1 all npt temp 300 300 0.1 y 0 ${pressure} 10 x ${pressure} ${pressure} 10
fix  1 all npt temp 300 300 0.1 y 0 0 10 x ${pressure} ${pressure} 10
fix  1 all npt temp 300 300 0.1 y 0 0 10 x 0 ${pressure} 10
fix  1 all npt temp 300 300 0.1 y 0 0 10 x 0 0 10

thermo_style custom step pe ke etotal lx ly lz
fix   2 all deform 1 z erate ${deformrate} remap x units box
fix   2 all deform 1 z erate 0.005 remap x units box
fix   3 all ave/time 2 500 1000 v_xstress v_ystress v_zstress file pressure.out
run   ${totaltime}
run   100000
WARNING: Dump 2 includes no atom IDs and is not sorted by ID. This may complicate post-processing tasks or visualization (src/dump.cpp:221)
Per MPI rank memory allocation (min/avg/max) = 17.74 | 17.82 | 18.12 Mbytes
   Step         PotEng         KinEng         TotEng           Lx             Ly             Lz      
         0  -118666.61      636.54158     -118030.06      200            200            392.82912    
       100  -118307.67      321.65623     -117986.02      199.99245      199.99072      393.02554    
       200  -118332.73      406.01006     -117926.72      199.98505      199.98436      393.22195    
       300  -118289.32      432.6137      -117856.71      200.0038       200.00487      393.41837    
       400  -118261.62      480.81953     -117780.8       199.99511      200.00202      393.61478    
       500  -118225.24      523.55406     -117701.69      199.98369      199.9999       393.8112     
       600  -118192.92      571.41599     -117621.5       199.99738      200.02037      394.00761    
       700  -118144.41      598.68803     -117545.72      199.98708      200.0148       394.20403    
       800  -118084.1       603.84542     -117480.25      199.96807      200.00018      394.40044    
       900  -118063.22      633.24645     -117429.97      199.97118      200.00309      394.59685    
      1000  -118034.18      627.53991     -117406.64      199.97922      200.00982      394.79327    
      1100  -118067.08      645.31799     -117421.76      199.96955      199.9981       394.98968    
      1200  -118068.56      614.5946      -117453.97      199.97862      200.00404      395.1861     
      1300  -118095.65      628.43377     -117467.22      199.98124      200.00353      395.38251    
      1400  -118091.3       637.61289     -117453.68      199.97099      199.99265      395.57893    
      1500  -118081.37      653.89685     -117427.47      199.97337      199.9927       395.77534    
      1600  -118075.7       665.37695     -117410.33      199.97714      199.99452      395.97176    
      1700  -118057.47      644.77801     -117412.69      199.96571      199.98369      396.16817    
      1800  -118073.82      641.41266     -117432.41      199.96256      199.9804       396.36459    
      1900  -118060.81      614.49998     -117446.31      199.9721       199.99128      396.561      
      2000  -118069.51      628.50097     -117441.01      199.96202      199.98632      396.75741    
      2100  -118043.93      622.20505     -117421.72      199.95193      199.98221      396.95383    
      2200  -118047.09      641.67687     -117405.42      199.94789      199.9856       397.15024    
      2300  -118041.32      637.34304     -117403.98      199.94059      199.98726      397.34666    
      2400  -118055.53      638.7891      -117416.74      199.92515      199.98127      397.54307    
      2500  -118058.03      630.29961     -117427.73      199.92292      199.9894       397.73949    
      2600  -118056.15      633.10734     -117423.04      199.9185       199.99619      397.9359     
      2700  -118050.69      646.1329      -117404.55      199.90397      199.99225      398.13232    
      2800  -118035.16      648.16186     -117387         199.89367      199.99318      398.32873    
      2900  -118035.4       651.71951     -117383.68      199.88905      199.99799      398.52515    
      3000  -118029.71      636.68401     -117393.02      199.87944      199.99782      398.72156    
      3100  -118038.67      637.55763     -117401.11      199.86593      199.99259      398.91797    
      3200  -118018.08      620.13351     -117397.95      199.86266      199.99327      399.11439    
      3300  -118018.25      636.64505     -117381.61      199.85275      199.98512      399.3108     
      3400  -118006.93      641.25476     -117365.67      199.84675      199.97876      399.50722    
      3500  -118005.19      644.43108     -117360.76      199.84325      199.97512      399.70363    
      3600  -118004.68      639.1368      -117365.55      199.84036      199.97029      399.90005    
      3700  -118008.23      636.3926      -117371.84      199.8334       199.96281      400.09646    
      3800  -118004.78      634.31849     -117370.46      199.82985      199.95739      400.29288    
      3900  -117995.45      638.7321      -117356.72      199.82724      199.95054      400.48929    
      4000  -117981.86      642.6782      -117339.18      199.82101      199.93888      400.68571    
      4100  -117971.67      642.60947     -117329.06      199.81691      199.93008      400.88212    
      4200  -117971.55      639.55164     -117332         199.81212      199.9205       401.07853    
      4300  -117966.21      630.65452     -117335.55      199.80466      199.90952      401.27495    
      4400  -117965.3       633.79917     -117331.5       199.79894      199.90197      401.47136    
      4500  -117956.37      636.0184      -117320.35      199.79866      199.89967      401.66778    
      4600  -117943.37      636.33732     -117307.03      199.78897      199.88925      401.86419    
      4700  -117934.33      636.61314     -117297.72      199.78033      199.88043      402.06061    
      4800  -117933.57      640.07267     -117293.49      199.77495      199.8762       402.25702    
      4900  -117933.76      637.20713     -117296.55      199.76436      199.86871      402.45344    
      5000  -117926.93      628.21184     -117298.72      199.75091      199.85918      402.64985    
      5100  -117924.54      634.61621     -117289.92      199.74222      199.85458      402.84627    
      5200  -117913.27      641.54512     -117271.73      199.73251      199.84913      403.04268    
      5300  -117902.25      644.18257     -117258.06      199.71838      199.83944      403.23909    
      5400  -117892.08      637.58344     -117254.5       199.70865      199.83266      403.43551    
      5500  -117898.51      642.38159     -117256.13      199.6981       199.82534      403.63192    
      5600  -117883.7       626.24434     -117257.45      199.68499      199.81722      403.82834    
      5700  -117881.91      630.28489     -117251.63      199.66897      199.80755      404.02475    
      5800  -117871.66      635.91491     -117235.74      199.65659      199.80315      404.22117    
      5900  -117854.57      636.60737     -117217.96      199.64356      199.80036      404.41758    
      6000  -117849.97      644.27903     -117205.69      199.62626      199.79662      404.614      
      6100  -117841.49      636.6195      -117204.87      199.60851      199.7919       404.81041    
      6200  -117845.1       636.97064     -117208.13      199.59152      199.787        405.00683    
      6300  -117831.65      628.36463     -117203.28      199.57266      199.77839      405.20324    
      6400  -117825.58      637.05353     -117188.52      199.55336      199.7668       405.39966    
      6500  -117816.78      646.29744     -117170.48      199.53753      199.75669      405.59607    
      6600  -117797.75      639.13807     -117158.61      199.5241       199.74549      405.79248    
      6700  -117790.89      635.55696     -117155.33      199.51302      199.73699      405.9889     
      6800  -117794.66      640.83424     -117153.83      199.50077      199.72609      406.18531    
      6900  -117782.89      633.63138     -117149.26      199.48658      199.71475      406.38173    
      7000  -117773.63      635.02413     -117138.61      199.47158      199.7016       406.57814    
      7100  -117764.53      640.64805     -117123.89      199.46109      199.68974      406.77456    
      7200  -117751.69      641.45284     -117110.24      199.45192      199.67538      406.97097    
      7300  -117743.39      641.73316     -117101.65      199.44469      199.659        407.16739    
      7400  -117731.98      634.78745     -117097.19      199.43823      199.64323      407.3638     
      7500  -117722.65      631.34794     -117091.3       199.42875      199.62602      407.56022    
      7600  -117718.29      637.45677     -117080.84      199.41808      199.6093       407.75663    
      7700  -117707.7       640.81099     -117066.89      199.40393      199.59313      407.95304    
      7800  -117691.79      637.66133     -117054.13      199.38985      199.57754      408.14946    
      7900  -117683.29      637.28429     -117046         199.3751       199.56575      408.34587    
      8000  -117672.89      630.47229     -117042.42      199.35585      199.55354      408.54229    
      8100  -117672.22      635.56912     -117036.65      199.33204      199.53695      408.7387     
      8200  -117664.93      639.81973     -117025.11      199.309        199.52381      408.93512    
      8300  -117649.43      639.29498     -117010.14      199.2851       199.51144      409.13153    
      8400  -117638.63      641.77055     -116996.86      199.26147      199.50024      409.32795    
      8500  -117631.77      642.98684     -116988.79      199.23694      199.48981      409.52436    
      8600  -117619.87      636.01347     -116983.86      199.21186      199.47811      409.72078    
      8700  -117601.3       627.45449     -116973.84      199.18587      199.46663      409.91719    
      8800  -117591.53      634.7677      -116956.76      199.16092      199.45663      410.1136     
      8900  -117577.14      638.03202     -116939.1       199.13463      199.4464       410.31002    
      9000  -117567.51      640.40493     -116927.11      199.10794      199.43693      410.50643    
      9100  -117553.74      633.1507      -116920.59      199.08501      199.42851      410.70285    
      9200  -117553.43      640.29241     -116913.13      199.06344      199.41824      410.89926    
      9300  -117539.03      637.24885     -116901.79      199.03985      199.40332      411.09568    
      9400  -117525.17      636.66449     -116888.51      199.01635      199.38553      411.29209    
      9500  -117505.43      630.78996     -116874.64      198.99304      199.36632      411.48851    
      9600  -117501.08      641.52628     -116859.55      198.96809      199.34699      411.68492    
      9700  -117488.82      643.01018     -116845.81      198.94578      199.33088      411.88134    
      9800  -117474.58      637.79719     -116836.78      198.92301      199.31319      412.07775    
      9900  -117466.55      635.79487     -116830.76      198.89811      199.29352      412.27416    
     10000  -117452.11      629.03996     -116823.07      198.87491      199.27323      412.47058    
     10100  -117443.22      636.41355     -116806.8       198.85042      199.24955      412.66699    
     10200  -117418.52      632.60121     -116785.92      198.82715      199.22922      412.86341    
     10300  -117413.11      643.11656     -116769.99      198.80597      199.20914      413.05982    
     10400  -117398.79      637.88613     -116760.91      198.77926      199.18327      413.25624    
     10500  -117390.92      635.10421     -116755.82      198.75182      199.15836      413.45265    
     10600  -117375.39      628.18116     -116747.21      198.72678      199.13552      413.64907    
     10700  -117364.24      633.82401     -116730.41      198.69668      199.11145      413.84548    
     10800  -117347.79      635.37592     -116712.42      198.67039      199.09098      414.0419     
     10900  -117333.96      633.27639     -116700.68      198.6459       199.07249      414.23831    
     11000  -117329.58      638.21854     -116691.36      198.61943      199.05016      414.43472    
     11100  -117310.61      632.3546      -116678.26      198.59412      199.02636      414.63114    
     11200  -117299.18      638.9096      -116660.27      198.56719      199.00147      414.82755    
     11300  -117286.02      643.15127     -116642.87      198.53972      198.97554      415.02397    
     11400  -117267.12      636.33824     -116630.78      198.5129       198.95107      415.22038    
     11500  -117257.98      637.29017     -116620.69      198.48774      198.92652      415.4168     
     11600  -117249.85      638.60817     -116611.24      198.46431      198.9001       415.61321    
     11700  -117233.31      632.346       -116600.96      198.44092      198.87594      415.80963    
     11800  -117212.28      627.35849     -116584.92      198.41406      198.849        416.00604    
     11900  -117198.97      636.53342     -116562.43      198.38425      198.82274      416.20246    
     12000  -117186.92      644.23281     -116542.69      198.35153      198.79913      416.39887    
     12100  -117171.24      643.06713     -116528.18      198.31684      198.77703      416.59529    
     12200  -117153.29      634.29637     -116519         198.27943      198.75549      416.7917     
     12300  -117152.23      641.12081     -116511.1       198.24002      198.73524      416.98811    
     12400  -117133.54      633.09176     -116500.45      198.20121      198.71494      417.18453    
     12500  -117115.24      633.17312     -116482.07      198.16018      198.69507      417.38094    
     12600  -117096.12      636.81408     -116459.3       198.12154      198.67865      417.57736    
     12700  -117077.62      637.90217     -116439.71      198.08192      198.65961      417.77377    
     12800  -117067.71      643.37612     -116424.33      198.04002      198.64098      417.97019    
     12900  -117050.24      638.99151     -116411.25      197.99906      198.62264      418.1666     
     13000  -117032.49      635.34419     -116397.15      197.95955      198.60303      418.36302    
     13100  -117022.74      639.47197     -116383.27      197.92292      198.58542      418.55943    
     13200  -117000.89      630.43381     -116370.46      197.89122      198.56724      418.75585    
     13300  -116994.99      637.51802     -116357.47      197.85929      198.54483      418.95226    
     13400  -116978.1       636.1346      -116341.96      197.8278       198.51824      419.14867    
     13500  -116958.78      639.21133     -116319.57      197.79991      198.4924       419.34509    
     13600  -116937.91      641.26209     -116296.65      197.77032      198.46357      419.5415     
     13700  -116919.19      638.68952     -116280.5       197.7393       198.43351      419.73792    
     13800  -116910.93      638.6263      -116272.31      197.71201      198.40673      419.93433    
     13900  -116893.29      630.86797     -116262.43      197.68666      198.37831      420.13075    
     14000  -116877.56      633.61262     -116243.94      197.65828      198.34572      420.32716    
     14100  -116858.01      634.54036     -116223.47      197.63376      198.31392      420.52358    
     14200  -116835.11      633.58865     -116201.53      197.6079       198.28233      420.71999    
     14300  -116827.98      643.33549     -116184.64      197.57926      198.25129      420.91641    
     14400  -116809.2       631.4979      -116177.7       197.55148      198.21887      421.11282    
     14500  -116795.74      631.6638      -116164.07      197.52267      198.18838      421.30923    
     14600  -116780.04      635.93279     -116144.11      197.49786      198.16012      421.50565    
     14700  -116765.02      645.81093     -116119.21      197.4694       198.13372      421.70206    
     14800  -116738.95      642.23563     -116096.71      197.43804      198.10727      421.89848    
     14900  -116726.08      639.33422     -116086.74      197.4088       198.082        422.09489    
     15000  -116704.43      631.78116     -116072.65      197.37454      198.05561      422.29131    
     15100  -116698.09      640.35929     -116057.73      197.34187      198.02856      422.48772    
     15200  -116678.64      634.41691     -116044.22      197.31318      198.00866      422.68414    
     15300  -116656.13      627.82042     -116028.31      197.28544      197.98974      422.88055    
     15400  -116634.2       633.56015     -116000.64      197.25726      197.97073      423.07697    
     15500  -116616.97      639.1592      -115977.81      197.22995      197.95321      423.27338    
     15600  -116605.83      642.40756     -115963.42      197.20345      197.93199      423.46979    
     15700  -116590.71      637.65361     -115953.06      197.17535      197.91079      423.66621    
     15800  -116570.85      632.83591     -115938.02      197.14767      197.89207      423.86262    
     15900  -116549.28      630.47252     -115918.8       197.11799      197.87497      424.05904    
     16000  -116538.12      639.89379     -115898.23      197.088        197.85827      424.25545    
     16100  -116506.73      632.05081     -115874.68      197.05675      197.84192      424.45187    
     16200  -116495.28      641.02435     -115854.26      197.02608      197.82342      424.64828    
     16300  -116474.47      637.31215     -115837.16      196.99653      197.80429      424.8447     
     16400  -116456.27      635.58937     -115820.68      196.97036      197.7879       425.04111    
     16500  -116435.79      631.63536     -115804.15      196.94656      197.77257      425.23753    
     16600  -116423.92      637.24025     -115786.68      196.92358      197.75678      425.43394    
     16700  -116407.09      640.46862     -115766.62      196.89822      197.7369       425.63035    
     16800  -116381.33      639.89316     -115741.44      196.87134      197.71378      425.82677    
     16900  -116361.55      641.42539     -115720.13      196.84771      197.69206      426.02318    
     17000  -116343.53      635.06038     -115708.47      196.82621      197.66977      426.2196     
     17100  -116324.58      628.38349     -115696.2       196.8078       197.65005      426.41601    
     17200  -116312.38      636.59724     -115675.78      196.79066      197.63359      426.61243    
     17300  -116290.95      638.13175     -115652.82      196.77252      197.61725      426.80884    
     17400  -116272.19      640.53706     -115631.65      196.75521      197.60087      427.00526    
     17500  -116248.49      638.8501      -115609.64      196.73583      197.58403      427.20167    
     17600  -116226.18      636.26738     -115589.91      196.71731      197.56786      427.39809    
     17700  -116213.62      638.41802     -115575.2       196.70093      197.55589      427.5945     
     17800  -116195.53      636.19899     -115559.33      196.68111      197.54231      427.79092    
     17900  -116175.01      637.40899     -115537.6       196.66069      197.52708      427.98733    
     18000  -116143.95      636.50747     -115507.45      196.64204      197.51722      428.18374    
     18100  -116122         637.23332     -115484.77      196.62275      197.50476      428.38016    
     18200  -116106.34      637.47379     -115468.86      196.60162      197.49277      428.57657    
     18300  -116085.92      631.9344      -115453.98      196.58532      197.48312      428.77299    
     18400  -116069.44      635.00048     -115434.44      196.56806      197.47311      428.9694     
     18500  -116050.94      637.64226     -115413.29      196.54738      197.45981      429.16582    
     18600  -116029.18      634.1311      -115395.05      196.53013      197.44659      429.36223    
     18700  -116014.27      631.40689     -115382.86      196.51225      197.43432      429.55865    
     18800  -115999.7       633.21993     -115366.48      196.49154      197.4166       429.75506    
     18900  -115970.93      632.86545     -115338.07      196.47272      197.40073      429.95148    
     19000  -115945.43      632.85874     -115312.58      196.45814      197.3894       430.14789    
     19100  -115925.08      638.92788     -115286.16      196.44386      197.37739      430.3443     
     19200  -115903.71      640.40213     -115263.31      196.43155      197.36493      430.54072    
     19300  -115880.76      633.47595     -115247.29      196.4209       197.35255      430.73713    
     19400  -115870.64      635.39696     -115235.24      196.41071      197.33851      430.93355    
     19500  -115842.05      629.27994     -115212.77      196.39881      197.32379      431.12996    
     19600  -115818.24      631.52427     -115186.71      196.38865      197.31344      431.32638    
     19700  -115799.52      637.27799     -115162.24      196.38087      197.30343      431.52279    
     19800  -115772.35      634.00923     -115138.34      196.36795      197.29145      431.71921    
     19900  -115749.79      636.74643     -115113.04      196.35606      197.28208      431.91562    
     20000  -115720.04      638.28054     -115081.76      196.34663      197.27299      432.11204    
     20100  -115699.07      638.7016      -115060.36      196.33355      197.26177      432.30845    
     20200  -115685.69      639.44599     -115046.24      196.32324      197.24967      432.50486    
     20300  -115662.49      635.26685     -115027.22      196.31478      197.24118      432.70128    
     20400  -115642.56      635.99209     -115006.56      196.30646      197.2301       432.89769    
     20500  -115624.52      639.85166     -114984.67      196.29333      197.21737      433.09411    
     20600  -115595.64      634.59922     -114961.04      196.27846      197.20756      433.29052    
     20700  -115578.4       640.98281     -114937.42      196.26391      197.19667      433.48694    
     20800  -115553.26      636.29531     -114916.96      196.24842      197.18582      433.68335    
     20900  -115531.44      634.70271     -114896.73      196.2345       197.17569      433.87977    
     21000  -115511.18      634.09379     -114877.08      196.2235       197.16954      434.07618    
     21100  -115494.83      637.10115     -114857.73      196.21087      197.16302      434.2726     
     21200  -115473.67      640.73913     -114832.93      196.19752      197.15536      434.46901    
     21300  -115439.36      638.34066     -114801.02      196.18499      197.15097      434.66542    
     21400  -115413.35      637.9983      -114775.36      196.1705       197.14097      434.86184    
     21500  -115393.57      638.10422     -114755.47      196.15371      197.12942      435.05825    
     21600  -115374.97      634.7688      -114740.2       196.14205      197.11999      435.25467    
     21700  -115357.66      633.72276     -114723.94      196.13312      197.10937      435.45108    
     21800  -115333.67      635.00799     -114698.66      196.1234       197.09827      435.6475     
     21900  -115307.78      635.30245     -114672.48      196.11764      197.08935      435.84391    
     22000  -115279.29      633.41726     -114645.88      196.10859      197.07778      436.04033    
     22100  -115254.04      637.05145     -114616.99      196.09693      197.0627       436.23674    
     22200  -115232.56      643.8665      -114588.69      196.09019      197.04995      436.43316    
     22300  -115203.61      637.21665     -114566.39      196.0846       197.03775      436.62957    
     22400  -115190.61      636.03796     -114554.57      196.07773      197.02298      436.82598    
     22500  -115163.51      629.5647      -114533.95      196.07012      197.0076       437.0224     
     22600  -115143.42      636.77406     -114506.65      196.06481      196.99447      437.21881    
     22700  -115113.39      639.18354     -114474.21      196.05772      196.977        437.41523    
     22800  -115091.85      642.0303      -114449.82      196.05193      196.95915      437.61164    
     22900  -115067.77      637.50823     -114430.26      196.0524       196.94279      437.80806    
     23000  -115044.76      635.54629     -114409.21      196.04912      196.92423      438.00447    
     23100  -115022.65      637.21322     -114385.44      196.04436      196.90434      438.20089    
     23200  -115000.64      641.61241     -114359.02      196.04148      196.88866      438.3973     
     23300  -114964.49      634.47162     -114330.02      196.03633      196.87245      438.59372    
     23400  -114944.39      640.19646     -114304.19      196.03115      196.85439      438.79013    
     23500  -114921.86      636.00742     -114285.85      196.02506      196.84054      438.98655    
     23600  -114897.62      629.8011      -114267.82      196.01709      196.82629      439.18296    
     23700  -114874.1       632.73053     -114241.37      196.00543      196.81379      439.37937    
     23800  -114849.16      640.75108     -114208.41      195.99241      196.80333      439.57579    
     23900  -114819.43      640.50549     -114178.93      195.9764       196.79219      439.7722     
     24000  -114798.37      640.87561     -114157.49      195.95944      196.78366      439.96862    
     24100  -114776         637.62966     -114138.37      195.94251      196.77558      440.16503    
     24200  -114757.61      637.77711     -114119.83      195.92423      196.76869      440.36145    
     24300  -114733.38      634.74882     -114098.63      195.91126      196.76389      440.55786    
     24400  -114706.66      634.24864     -114072.41      195.89756      196.75668      440.75428    
     24500  -114678.21      642.63214     -114035.58      195.8812       196.7461       440.95069    
     24600  -114649.7       640.49297     -114009.21      195.87047      196.73726      441.14711    
     24700  -114625.74      633.46397     -113992.27      195.85995      196.72463      441.34352    
     24800  -114604.99      632.69406     -113972.3       195.8513       196.71009      441.53993    
     24900  -114580.81      634.19619     -113946.61      195.8467       196.69788      441.73635    
     25000  -114551.4       635.26679     -113916.13      195.84103      196.68556      441.93276    
     25100  -114525.13      642.81662     -113882.31      195.83403      196.66955      442.12918    
     25200  -114505.92      646.01386     -113859.91      195.82709      196.65271      442.32559    
     25300  -114482.1       634.02169     -113848.08      195.81929      196.63554      442.52201    
     25400  -114458.32      635.54698     -113822.77      195.81254      196.6152       442.71842    
     25500  -114424.25      632.44352     -113791.81      195.80367      196.59669      442.91484    
     25600  -114408.03      645.84047     -113762.19      195.7968       196.58063      443.11125    
     25700  -114373.02      635.6679      -113737.36      195.7911       196.56458      443.30767    
     25800  -114356.4       639.60469     -113716.8       195.78314      196.5489       443.50408    
     25900  -114331.02      633.11451     -113697.91      195.77517      196.53204      443.70049    
     26000  -114301.05      627.91404     -113673.13      195.76349      196.51613      443.89691    
     26100  -114270.69      634.43732     -113636.26      195.74872      196.49992      444.09332    
     26200  -114241.18      632.93538     -113608.25      195.73522      196.48878      444.28974    
     26300  -114221.32      637.91507     -113583.41      195.7216       196.48131      444.48615    
     26400  -114196.01      635.60487     -113560.41      195.70685      196.47194      444.68257    
     26500  -114165.97      626.08613     -113539.89      195.69109      196.46129      444.87898    
     26600  -114141.58      628.94332     -113512.63      195.67404      196.45212      445.0754     
     26700  -114114.84      638.6294      -113476.21      195.65533      196.44455      445.27181    
     26800  -114085.78      638.26563     -113447.52      195.6356       196.43697      445.46823    
     26900  -114064.7       638.99458     -113425.71      195.61606      196.4301       445.66464    
     27000  -114040.08      634.56954     -113405.51      195.59701      196.42144      445.86105    
     27100  -114023.01      641.60517     -113381.41      195.58156      196.41122      446.05747    
     27200  -113984.56      633.89135     -113350.67      195.56733      196.40132      446.25388    
     27300  -113956.48      640.50616     -113315.97      195.55129      196.38817      446.4503     
     27400  -113923.8       635.54921     -113288.25      195.53589      196.37525      446.64671    
     27500  -113906.46      641.13664     -113265.33      195.52234      196.36401      446.84313    
     27600  -113878.62      633.75813     -113244.86      195.5108       196.34957      447.03954    
     27700  -113864.14      640.0172      -113224.13      195.5012       196.33293      447.23596    
     27800  -113826.92      633.42516     -113193.5       195.49352      196.31384      447.43237    
     27900  -113795.98      640.71595     -113155.26      195.48423      196.29236      447.62879    
     28000  -113768.11      641.39927     -113126.71      195.47537      196.27269      447.8252     
     28100  -113741.72      638.78415     -113102.94      195.46918      196.25368      448.02161    
     28200  -113713.39      632.80222     -113080.58      195.46135      196.23421      448.21803    
     28300  -113687.59      634.65785     -113052.93      195.45157      196.21346      448.41444    
     28400  -113659.19      643.18938     -113016         195.44173      196.19135      448.61086    
     28500  -113622.07      635.30987     -112986.76      195.43139      196.17206      448.80727    
     28600  -113601.71      637.85434     -112963.85      195.42024      196.15372      449.00369    
     28700  -113576.34      633.75647     -112942.59      195.4057       196.135        449.2001     
     28800  -113556.24      630.20244     -112926.04      195.39006      196.11971      449.39652    
     28900  -113526.33      625.3365      -112901         195.37633      196.10536      449.59293    
     29000  -113500.46      634.99395     -112865.46      195.35936      196.09055      449.78935    
     29100  -113468.96      636.36751     -112832.59      195.34211      196.07575      449.98576    
     29200  -113433.73      634.81549     -112798.91      195.32411      196.06411      450.18218    
     29300  -113406.21      637.44731     -112768.76      195.30139      196.05333      450.37859    
     29400  -113381.75      639.91825     -112741.83      195.27806      196.04552      450.575      
     29500  -113355.14      631.86569     -112723.28      195.25671      196.0406       450.77142    
     29600  -113326.55      627.89172     -112698.66      195.2322       196.03006      450.96783    
     29700  -113297.53      634.01544     -112663.51      195.21061      196.01871      451.16425    
     29800  -113273.1       641.49656     -112631.6       195.19061      196.00979      451.36066    
     29900  -113241.4       636.9883      -112604.41      195.1672       195.9961       451.55708    
     30000  -113218.5       639.43503     -112579.07      195.14252      195.98193      451.75349    
     30100  -113187.17      630.05548     -112557.11      195.12141      195.9724       451.94991    
     30200  -113159.75      624.95587     -112534.8       195.10469      195.96066      452.14632    
     30300  -113134.12      635.51794     -112498.6       195.08648      195.94472      452.34274    
     30400  -113099.82      637.38456     -112462.43      195.07178      195.92871      452.53915    
     30500  -113067.27      634.32903     -112432.94      195.05792      195.91313      452.73556    
     30600  -113039.81      635.03854     -112404.77      195.03951      195.89315      452.93198    
     30700  -113016.31      634.70449     -112381.6       195.02243      195.87076      453.12839    
     30800  -112994.15      633.47249     -112360.68      195.00757      195.84906      453.32481    
     30900  -112963.78      632.18052     -112331.6       194.99568      195.82541      453.52122    
     31000  -112925.73      634.31134     -112291.41      194.98533      195.80173      453.71764    
     31100  -112899.59      639.32135     -112260.27      194.97475      195.77792      453.91405    
     31200  -112872.33      638.16281     -112234.17      194.96283      195.75551      454.11047    
     31300  -112841.01      628.53781     -112212.47      194.94809      195.73334      454.30688    
     31400  -112821.5       632.41238     -112189.09      194.93222      195.71244      454.5033     
     31500  -112791.17      633.97725     -112157.19      194.91814      195.69343      454.69971    
     31600  -112757.77      641.75862     -112116.01      194.90561      195.67278      454.89612    
     31700  -112723.61      634.53186     -112089.08      194.89109      195.65274      455.09254    
     31800  -112703.21      637.09984     -112066.11      194.87625      195.63295      455.28895    
     31900  -112673.99      631.09902     -112042.89      194.85745      195.61323      455.48537    
     32000  -112648.14      632.9067      -112015.23      194.83525      195.59396      455.68178    
     32100  -112619.67      641.47953     -111978.19      194.81486      195.57805      455.8782     
     32200  -112580.74      639.162       -111941.58      194.79195      195.56444      456.07461    
     32300  -112554.57      640.02946     -111914.54      194.773        195.55482      456.27103    
     32400  -112524.81      633.01692     -111891.79      194.75246      195.54578      456.46744    
     32500  -112504.15      636.04726     -111868.1       194.72303      195.52992      456.66386    
     32600  -112475.41      631.13439     -111844.28      194.69707      195.51771      456.86027    
     32700  -112448.76      629.54282     -111819.21      194.67477      195.51032      457.05668    
     32800  -112413.82      632.72828     -111781.09      194.64408      195.49471      457.2531     
     32900  -112380.33      635.32235     -111745.01      194.61772      195.48365      457.44951    
     33000  -112350.16      638.18533     -111711.97      194.59748      195.47743      457.64593    
     33100  -112323.17      644.07532     -111679.1       194.56891      195.45901      457.84234    
     33200  -112290.66      640.70059     -111649.96      194.54584      195.44057      458.03876    
     33300  -112266.16      635.65242     -111630.51      194.53061      195.4275       458.23517    
     33400  -112239.72      634.1591      -111605.56      194.50995      195.40679      458.43159    
     33500  -112212.45      639.25998     -111573.19      194.49096      195.38712      458.628      
     33600  -112171.28      636.74449     -111534.54      194.47789      195.37298      458.82442    
     33700  -112138.7       637.54303     -111501.16      194.4614       195.35091      459.02083    
     33800  -112112.42      637.78185     -111474.64      194.4442       195.32738      459.21724    
     33900  -112084.36      635.27168     -111449.08      194.43088      195.30623      459.41366    
     34000  -112060.12      639.04562     -111421.08      194.41701      195.28199      459.61007    
     34100  -112032.95      642.37294     -111390.58      194.40421      195.25941      459.80649    
     34200  -111995.91      638.60241     -111357.31      194.39341      195.23881      460.0029     
     34300  -111962.18      638.31074     -111323.87      194.37769      195.21358      460.19932    
     34400  -111933.53      639.74371     -111293.78      194.36224      195.19077      460.39573    
     34500  -111907.54      639.8859      -111267.65      194.34765      195.17006      460.59215    
     34600  -111878.08      632.78248     -111245.29      194.32727      195.14788      460.78856    
     34700  -111844.96      630.03697     -111214.92      194.30847      195.13087      460.98498    
     34800  -111807.34      633.61951     -111173.72      194.2911       195.11733      461.18139    
     34900  -111778.6       636.97647     -111141.62      194.2673       195.09896      461.37781    
     35000  -111752.5       637.78474     -111114.71      194.24245      195.07879      461.57422    
     35100  -111726.78      636.27342     -111090.51      194.2202       195.06068      461.77063    
     35200  -111700.48      637.89415     -111062.58      194.1963       195.04286      461.96705    
     35300  -111657.45      635.94729     -111021.5       194.17329      195.02678      462.16346    
     35400  -111632.69      645.14659     -110987.54      194.1528       195.01309      462.35988    
     35500  -111598.64      636.12434     -110962.52      194.13328      194.99736      462.55629    
     35600  -111573.81      634.74495     -110939.07      194.11168      194.97486      462.75271    
     35700  -111537.45      629.01306     -110908.44      194.09083      194.95108      462.94912    
     35800  -111508.7       635.55356     -110873.15      194.07612      194.93268      463.14554    
     35900  -111474.83      640.32395     -110834.51      194.06077      194.91311      463.34195    
     36000  -111440.21      645.98996     -110794.22      194.04125      194.8908       463.53837    
     36100  -111406.94      637.30143     -110769.64      194.0261       194.87319      463.73478    
     36200  -111386.08      638.46637     -110747.61      194.01008      194.85526      463.93119    
     36300  -111354.22      632.65797     -110721.57      193.99049      194.83315      464.12761    
     36400  -111329.16      637.67942     -110691.48      193.97518      194.81513      464.32402    
     36500  -111294.42      637.25338     -110657.17      193.96312      194.80021      464.52044    
     36600  -111255.98      638.4835      -110617.49      193.94663      194.77912      464.71685    
     36700  -111226.21      640.19415     -110586.02      193.9286       194.7549       464.91327    
     36800  -111198.03      635.5601      -110562.47      193.91337      194.7347       465.10968    
     36900  -111169.12      629.44382     -110539.67      193.89717      194.71207      465.3061     
     37000  -111142.75      635.23147     -110507.51      193.88019      194.68785      465.50251    
     37100  -111111.21      638.13233     -110473.07      193.86597      194.66763      465.69893    
     37200  -111075.2       636.95616     -110438.25      193.85086      194.64632      465.89534    
     37300  -111047.66      640.21266     -110407.45      193.83253      194.62347      466.09175    
     37400  -111020.11      632.41646     -110387.7       193.8161       194.60115      466.28817    
     37500  -110988.06      630.49083     -110357.57      193.80121      194.57919      466.48458    
     37600  -110957.75      639.24501     -110318.5       193.78476      194.55726      466.681      
     37700  -110920.35      637.59105     -110282.76      193.76805      194.5358       466.87741    
     37800  -110887.7       636.38825     -110251.32      193.74805      194.51679      467.07383    
     37900  -110862.8       637.43107     -110225.37      193.72925      194.50008      467.27024    
     38000  -110832.07      628.43329     -110203.63      193.71158      194.48511      467.46666    
     38100  -110806.06      633.32407     -110172.73      193.6907       194.46802      467.66307    
     38200  -110772         634.75687     -110137.24      193.66823      194.44932      467.85949    
     38300  -110734.84      634.08592     -110100.75      193.64652      194.43498      468.0559     
     38400  -110702.05      636.41951     -110065.63      193.62507      194.42104      468.25231    
     38500  -110669.16      635.76546     -110033.4       193.60091      194.40496      468.44873    
     38600  -110640.19      634.73647     -110005.46      193.58266      194.39412      468.64514    
     38700  -110615.68      635.27289     -109980.41      193.56781      194.38307      468.84156    
     38800  -110584.2       634.97797     -109949.22      193.54868      194.36455      469.03797    
     38900  -110545.9       636.04671     -109909.85      193.5325       194.34534      469.23439    
     39000  -110511.41      636.85538     -109874.55      193.51866      194.33096      469.4308     
     39100  -110478.93      634.11663     -109844.81      193.49882      194.3118       469.62722    
     39200  -110454.77      637.86868     -109816.9       193.47882      194.29422      469.82363    
     39300  -110422.74      632.99782     -109789.74      193.46494      194.281        470.02005    
     39400  -110392.1       621.27894     -109770.82      193.44942      194.25897      470.21646    
     39500  -110360.3       625.02592     -109735.28      193.43296      194.23368      470.41287    
     39600  -110326.98      632.78722     -109694.2       193.42416      194.21179      470.60929    
     39700  -110293.9       637.76166     -109656.13      193.41228      194.19027      470.8057     
     39800  -110262.61      642.0772      -109620.53      193.39716      194.16688      471.00212    
     39900  -110223.37      632.15785     -109591.21      193.38623      194.14565      471.19853    
     40000  -110202.85      635.3059      -109567.54      193.3724       194.12461      471.39495    
     40100  -110170.89      630.66671     -109540.22      193.35999      194.1012       471.59136    
     40200  -110133.82      634.96585     -109498.85      193.35051      194.0796       471.78778    
     40300  -110101.38      641.15508     -109460.23      193.34243      194.05898      471.98419    
     40400  -110061.44      633.68519     -109427.75      193.33427      194.03813      472.18061    
     40500  -110033.74      635.178       -109398.56      193.32027      194.01719      472.37702    
     40600  -110008.53      634.51124     -109374.01      193.30482      193.99693      472.57344    
     40700  -109973.97      628.96332     -109345         193.28713      193.98121      472.76985    
     40800  -109942.11      639.02214     -109303.09      193.26548      193.96533      472.96626    
     40900  -109907.18      641.23688     -109265.95      193.24438      193.95076      473.16268    
     41000  -109872.25      634.35386     -109237.89      193.22433      193.94017      473.35909    
     41100  -109844.2       631.5776      -109212.62      193.2035       193.92779      473.55551    
     41200  -109819.9       636.20188     -109183.7       193.18401      193.91643      473.75192    
     41300  -109777.73      630.58497     -109147.15      193.16529      193.90584      473.94834    
     41400  -109744.03      640.76014     -109103.27      193.14483      193.89423      474.14475    
     41500  -109713.17      642.34576     -109070.82      193.12436      193.88423      474.34117    
     41600  -109685.58      640.22361     -109045.36      193.10466      193.87492      474.53758    
     41700  -109652.73      632.91256     -109019.82      193.08412      193.86451      474.734      
     41800  -109615.6       627.96154     -108987.64      193.06591      193.85393      474.93041    
     41900  -109586.8       637.27189     -108949.53      193.05066      193.84366      475.12682    
     42000  -109549.51      635.2522      -108914.26      193.03468      193.83109      475.32324    
     42100  -109525.04      641.75373     -108883.29      193.0168       193.81348      475.51965    
     42200  -109484.35      630.3694      -108853.98      193.00047      193.79525      475.71607    
     42300  -109453.42      628.61172     -108824.81      192.9862       193.7777       475.91248    
     42400  -109425.45      632.18853     -108793.26      192.97172      193.759        476.1089     
     42500  -109396.74      641.4692      -108755.27      192.95735      193.74144      476.30531    
     42600  -109357.55      639.87186     -108717.68      192.94014      193.72369      476.50173    
     42700  -109325.74      641.07688     -108684.66      192.92277      193.70353      476.69814    
     42800  -109300.63      639.24496     -108661.38      192.90617      193.68502      476.89456    
     42900  -109267.85      632.9757      -108634.88      192.89138      193.66689      477.09097    
     43000  -109235.22      635.12495     -108600.1       192.87895      193.64898      477.28738    
     43100  -109196.3       635.22974     -108561.07      192.86784      193.63433      477.4838     
     43200  -109169.67      643.87575     -108525.79      192.85611      193.61956      477.68021    
     43300  -109130.87      635.44859     -108495.43      192.8419       193.60393      477.87663    
     43400  -109104.15      639.51228     -108464.64      192.82789      193.58977      478.07304    
     43500  -109070.09      635.2022      -108434.89      192.81391      193.57597      478.26946    
     43600  -109042.79      636.35199     -108406.44      192.79867      193.56143      478.46587    
     43700  -109012.11      636.01013     -108376.1       192.78571      193.54662      478.66229    
     43800  -108974.39      637.92002     -108336.47      192.77234      193.53075      478.8587     
     43900  -108932.79      635.77151     -108297.02      192.75964      193.51441      479.05512    
     44000  -108906.28      641.38075     -108264.9       192.74575      193.50144      479.25153    
     44100  -108873.9       634.91402     -108238.99      192.72951      193.48861      479.44794    
     44200  -108848.38      634.76416     -108213.62      192.71288      193.47557      479.64436    
     44300  -108815.03      635.86727     -108179.16      192.69732      193.46568      479.84077    
     44400  -108779.76      636.59857     -108143.16      192.68363      193.45429      480.03719    
     44500  -108744.01      635.62093     -108108.39      192.6659       193.44004      480.2336     
     44600  -108710.2       635.67063     -108074.53      192.64819      193.42673      480.43002    
     44700  -108682.37      640.73932     -108041.63      192.62951      193.41399      480.62643    
     44800  -108649.69      636.9766      -108012.71      192.60543      193.40105      480.82285    
     44900  -108620.07      635.24077     -107984.83      192.58279      193.38843      481.01926    
     45000  -108583.31      631.63642     -107951.67      192.56191      193.37662      481.21568    
     45100  -108545.37      635.98073     -107909.39      192.54133      193.36195      481.41209    
     45200  -108504.77      631.97039     -107872.8       192.52483      193.34725      481.6085     
     45300  -108481.89      638.36645     -107843.52      192.50731      193.33344      481.80492    
     45400  -108451.14      635.33864     -107815.81      192.49131      193.32012      482.00133    
     45500  -108413.1       629.41529     -107783.68      192.47861      193.30966      482.19775    
     45600  -108387.38      638.83852     -107748.54      192.46591      193.29772      482.39416    
     45700  -108354.73      643.69191     -107711.04      192.45745      193.28535      482.59058    
     45800  -108317.3       646.92697     -107670.37      192.4521       193.27378      482.78699    
     45900  -108275.91      643.21475     -107632.69      192.44418      193.25646      482.98341    
     46000  -108252.45      642.60783     -107609.84      192.43287      193.23623      483.17982    
     46100  -108216.5       634.442       -107582.06      192.42262      193.21921      483.37624    
     46200  -108187.99      638.29127     -107549.7       192.41018      193.20124      483.57265    
     46300  -108154.5       638.38185     -107516.12      192.3966       193.18303      483.76907    
     46400  -108115.92      634.54519     -107481.37      192.38587      193.16947      483.96548    
     46500  -108079.94      635.75549     -107444.19      192.37468      193.15348      484.16189    
     46600  -108051.37      641.71688     -107409.66      192.36087      193.13508      484.35831    
     46700  -108017.71      633.51304     -107384.19      192.34806      193.11778      484.55472    
     46800  -107985.21      630.24345     -107354.97      192.33434      193.10227      484.75114    
     46900  -107951.13      633.96941     -107317.16      192.31665      193.09056      484.94755    
     47000  -107920.04      640.59295     -107279.45      192.30034      193.08153      485.14397    
     47100  -107885.16      638.55503     -107246.61      192.28198      193.07333      485.34038    
     47200  -107849.02      633.2994      -107215.72      192.26409      193.06542      485.5368     
     47300  -107822.61      636.9115      -107185.7       192.24423      193.05717      485.73321    
     47400  -107786.53      632.98985     -107153.54      192.22134      193.0457       485.92963    
     47500  -107749.84      635.45374     -107114.39      192.20096      193.03535      486.12604    
     47600  -107716.41      642.91848     -107073.5       192.18056      193.02532      486.32245    
     47700  -107683.78      640.73721     -107043.05      192.15957      193.01197      486.51887    
     47800  -107657.25      639.37273     -107017.88      192.14064      193.00076      486.71528    
     47900  -107621.36      635.50025     -106985.86      192.12576      192.9925       486.9117     
     48000  -107589.32      637.98127     -106951.34      192.10985      192.98121      487.10811    
     48100  -107550.79      636.74943     -106914.04      192.09308      192.96798      487.30453    
     48200  -107516.68      645.06002     -106871.62      192.08077      192.95491      487.50094    
     48300  -107481.62      643.81677     -106837.8       192.06635      192.93973      487.69736    
     48400  -107454.43      639.76709     -106814.66      192.05235      192.92264      487.89377    
     48500  -107419.65      635.9529      -106783.7       192.04213      192.90794      488.09019    
     48600  -107386.11      635.76298     -106750.35      192.03222      192.89242      488.2866     
     48700  -107359.22      644.48057     -106714.74      192.02434      192.87536      488.48301    
     48800  -107314.86      634.75954     -106680.1       192.01692      192.85909      488.67943    
     48900  -107283.43      631.76292     -106651.67      192.00526      192.83875      488.87584    
     49000  -107255.89      633.07255     -106622.82      191.9927       192.81926      489.07226    
     49100  -107219.57      632.41935     -106587.15      191.98266      192.80253      489.26867    
     49200  -107182.73      640.67903     -106542.05      191.97069      192.78368      489.46509    
     49300  -107146.57      639.03075     -106507.53      191.95818      192.76447      489.6615     
     49400  -107118.04      638.5639      -106479.48      191.94846      192.74584      489.85792    
     49500  -107087.88      637.7206      -106450.16      191.93604      192.72677      490.05433    
     49600  -107054.12      635.58622     -106418.53      191.91938      192.70759      490.25075    
     49700  -107020.64      635.34795     -106385.29      191.90122      192.69319      490.44716    
     49800  -106989.33      641.78602     -106347.54      191.88326      192.68155      490.64357    
     49900  -106953.56      648.45186     -106305.11      191.86562      192.66958      490.83999    
     50000  -106916.05      643.55275     -106272.49      191.84818      192.65701      491.0364     
     50100  -106887         639.82958     -106247.17      191.83426      192.6437       491.23282    
     50200  -106844.23      628.72671     -106215.5       191.82143      192.63035      491.42923    
     50300  -106818.46      635.15723     -106183.3       191.80794      192.61813      491.62565    
     50400  -106785.79      633.41104     -106152.38      191.79258      192.60636      491.82206    
     50500  -106751.87      628.40487     -106123.47      191.77819      192.59525      492.01848    
     50600  -106719.44      630.43751     -106089         191.76357      192.58403      492.21489    
     50700  -106681.3       635.95389     -106045.35      191.7476       192.56954      492.41131    
     50800  -106647.29      640.58927     -106006.7       191.73216      192.55534      492.60772    
     50900  -106613.73      638.75469     -105974.97      191.71588      192.54194      492.80414    
     51000  -106581.13      634.24612     -105946.88      191.69961      192.52847      493.00055    
     51100  -106550.04      635.78014     -105914.26      191.68426      192.51509      493.19696    
     51200  -106512.86      634.14153     -105878.72      191.66909      192.50114      493.39338    
     51300  -106477.73      634.33864     -105843.39      191.65484      192.48629      493.58979    
     51400  -106446.69      632.05632     -105814.64      191.63939      192.46971      493.78621    
     51500  -106420.43      632.47029     -105787.96      191.62502      192.45174      493.98262    
     51600  -106386.75      634.31606     -105752.44      191.61463      192.43505      494.17904    
     51700  -106348.1       638.30273     -105709.8       191.60418      192.41687      494.37545    
     51800  -106311.91      645.00987     -105666.9       191.5919       192.39538      494.57187    
     51900  -106277.91      641.68892     -105636.22      191.58092      192.37618      494.76828    
     52000  -106247.3       642.84599     -105604.46      191.56934      192.35623      494.9647     
     52100  -106214.54      639.24811     -105575.29      191.55473      192.33376      495.16111    
     52200  -106182.45      636.75764     -105545.69      191.54337      192.31407      495.35752    
     52300  -106145.45      631.90094     -105513.55      191.53383      192.29444      495.55394    
     52400  -106112.13      636.43667     -105475.7       191.52181      192.2716       495.75035    
     52500  -106070.11      638.73548     -105431.37      191.51153      192.25103      495.94677    
     52600  -106038.55      642.87322     -105395.68      191.50087      192.23319      496.14318    
     52700  -106004.44      635.07056     -105369.37      191.48656      192.2136       496.3396     
     52800  -105974.02      636.69791     -105337.33      191.47028      192.19686      496.53601    
     52900  -105942.24      637.50973     -105304.73      191.45677      192.18437      496.73243    
     53000  -105908.32      635.80364     -105272.51      191.44264      192.17328      496.92884    
     53100  -105873.02      630.22481     -105242.79      191.43009      192.16219      497.12526    
     53200  -105842.89      629.04939     -105213.84      191.41856      192.15054      497.32167    
     53300  -105809.89      632.84905     -105177.04      191.40448      192.14032      497.51808    
     53400  -105771.04      641.47846     -105129.57      191.38903      192.13028      497.7145     
     53500  -105734.77      641.73429     -105093.03      191.36931      192.12008      497.91091    
     53600  -105700.7       636.64717     -105064.05      191.35074      192.11015      498.10733    
     53700  -105676.4       641.84939     -105034.55      191.33397      192.09815      498.30374    
     53800  -105635.42      636.33389     -104999.09      191.31424      192.0819       498.50016    
     53900  -105599.8       636.79413     -104963.01      191.29758      192.06576      498.69657    
     54000  -105564.68      640.98952     -104923.69      191.28272      192.05119      498.89299    
     54100  -105523.52      640.0722      -104883.45      191.26366      192.03224      499.0894     
     54200  -105493.83      639.80643     -104854.02      191.24421      192.01272      499.28582    
     54300  -105460.26      634.05234     -104826.2       191.22939      191.99546      499.48223    
     54400  -105426.82      633.3239      -104793.5       191.21453      191.97514      499.67864    
     54500  -105393.69      634.53767     -104759.16      191.20022      191.95322      499.87506    
     54600  -105357.9       633.3098      -104724.59      191.18826      191.93312      500.07147    
     54700  -105332.59      638.53653     -104694.06      191.17526      191.9138       500.26789    
     54800  -105286.84      625.26565     -104661.58      191.1607       191.89359      500.4643     
     54900  -105255.82      634.73325     -104621.09      191.14585      191.87414      500.66072    
     55000  -105222.56      646.11068     -104576.45      191.13333      191.85626      500.85713    
     55100  -105183.45      639.5442      -104543.91      191.12211      191.84084      501.05355    
     55200  -105152.79      636.46708     -104516.33      191.11081      191.82524      501.24996    
     55300  -105123.51      641.1295      -104482.38      191.0973       191.80863      501.44638    
     55400  -105087.58      637.3531      -104450.23      191.08307      191.7933       501.64279    
     55500  -105048.98      629.84953     -104419.13      191.06667      191.77745      501.8392     
     55600  -105014.61      630.35934     -104384.25      191.04749      191.76293      502.03562    
     55700  -104978.6       633.92888     -104344.67      191.02964      191.75014      502.23203    
     55800  -104946.52      645.25349     -104301.27      191.01223      191.73853      502.42845    
     55900  -104911.61      643.04811     -104268.57      190.99391      191.72573      502.62486    
     56000  -104876.97      636.25921     -104240.71      190.97442      191.71272      502.82128    
     56100  -104846.06      639.39948     -104206.66      190.95472      191.70018      503.01769    
     56200  -104813.72      640.56504     -104173.15      190.93439      191.68779      503.21411    
     56300  -104778.11      636.50503     -104141.61      190.91395      191.67741      503.41052    
     56400  -104743.34      630.97238     -104112.36      190.89472      191.66775      503.60694    
     56500  -104708.89      630.3394      -104078.55      190.8731       191.65501      503.80335    
     56600  -104673.74      640.48524     -104033.26      190.85378      191.64099      503.99977    
     56700  -104635.37      645.75228     -103989.62      190.83646      191.62839      504.19618    
     56800  -104595.57      635.84209     -103959.73      190.81526      191.61094      504.39259    
     56900  -104567.05      637.5416      -103929.51      190.79475      191.59367      504.58901    
     57000  -104538.07      641.61901     -103896.45      190.77562      191.58028      504.78542    
     57100  -104500.1       637.59768     -103862.5       190.75594      191.56274      504.98184    
     57200  -104467.95      638.28931     -103829.66      190.73784      191.54524      505.17825    
     57300  -104432.39      630.59458     -103801.8       190.72346      191.52615      505.37467    
     57400  -104398.34      633.21755     -103765.12      190.71001      191.50469      505.57108    
     57500  -104357.15      633.63659     -103723.51      190.69741      191.48314      505.7675     
     57600  -104326.65      642.49431     -103684.15      190.68557      191.4609       505.96391    
     57700  -104281.29      632.50126     -103648.79      190.67356      191.44073      506.16033    
     57800  -104256.32      640.28751     -103616.03      190.66179      191.42185      506.35674    
     57900  -104223.47      636.75445     -103586.72      190.64863      191.40278      506.55315    
     58000  -104187.92      634.81967     -103553.1       190.63613      191.3856       506.74957    
     58100  -104150.37      639.2426      -103511.13      190.62334      191.36938      506.94598    
     58200  -104109.27      645.0988      -103464.17      190.60725      191.34938      507.1424     
     58300  -104074.34      645.58734     -103428.76      190.594        191.33035      507.33881    
     58400  -104040.47      639.609       -103400.86      190.58175      191.3115       507.53523    
     58500  -104007.08      637.71311     -103369.37      190.56566      191.28995      507.73164    
     58600  -103972.65      637.19315     -103335.46      190.55086      191.27183      507.92806    
     58700  -103934.79      634.17055     -103300.62      190.53577      191.2567       508.12447    
     58800  -103897.82      631.41524     -103266.4       190.51729      191.23957      508.32089    
     58900  -103869.53      633.44428     -103236.09      190.49912      191.22431      508.5173     
     59000  -103830.35      629.60885     -103200.74      190.48073      191.2097       508.71371    
     59100  -103788.92      633.89282     -103155.03      190.46031      191.19329      508.91013    
     59200  -103747.77      639.2731      -103108.5       190.44204      191.17895      509.10654    
     59300  -103718.08      643.06105     -103075.01      190.42397      191.16395      509.30296    
     59400  -103682.92      639.06577     -103043.85      190.40453      191.14897      509.49937    
     59500  -103651.47      640.59922     -103010.87      190.38376      191.13369      509.69579    
     59600  -103615.51      638.01315     -102977.5       190.3629       191.11803      509.8922     
     59700  -103578.49      636.03929     -102942.45      190.34166      191.10318      510.08862    
     59800  -103541.84      634.66046     -102907.18      190.31913      191.0875       510.28503    
     59900  -103508.38      637.75335     -102870.63      190.29638      191.07151      510.48145    
     60000  -103470.7       637.26207     -102833.44      190.27741      191.05763      510.67786    
     60100  -103434.15      637.1996      -102796.95      190.25718      191.04207      510.87427    
     60200  -103403.91      643.09862     -102760.81      190.23737      191.02632      511.07069    
     60300  -103366.4       641.2544      -102725.14      190.22425      191.01419      511.2671     
     60400  -103326.64      638.08882     -102688.55      190.20868      190.99844      511.46352    
     60500  -103288.11      636.81958     -102651.29      190.19404      190.97964      511.65993    
     60600  -103250.04      635.95692     -102614.09      190.18184      190.9646       511.85635    
     60700  -103215.84      634.27881     -102581.56      190.16709      190.94483      512.05276    
     60800  -103177.98      632.89807     -102545.09      190.15154      190.92368      512.24918    
     60900  -103139.99      635.50482     -102504.49      190.13893      190.9046       512.44559    
     61000  -103108.34      641.69208     -102466.65      190.12708      190.88452      512.64201    
     61100  -103067.83      633.87256     -102433.96      190.11342      190.86481      512.83842    
     61200  -103034.1       637.89158     -102396.21      190.09845      190.8429       513.03483    
     61300  -102994.28      638.08828     -102356.2       190.08144      190.8231       513.23125    
     61400  -102956.08      636.86719     -102319.22      190.06314      190.80347      513.42766    
     61500  -102919.26      632.99357     -102286.27      190.04563      190.7826       513.62408    
     61600  -102884.67      637.38808     -102247.29      190.02863      190.76377      513.82049    
     61700  -102846.52      639.08722     -102207.43      190.01372      190.74445      514.01691    
     61800  -102803.26      633.439       -102169.82      189.99557      190.72552      514.21332    
     61900  -102770.81      636.00933     -102134.8       189.97901      190.70791      514.40974    
     62000  -102739.17      642.2273      -102096.95      189.96277      190.69329      514.60615    
     62100  -102695.22      636.86145     -102058.36      189.94267      190.676        514.80257    
     62200  -102658.15      636.91443     -102021.23      189.92472      190.65922      514.99898    
     62300  -102627.58      641.62207     -101985.96      189.90546      190.6427       515.1954     
     62400  -102584.25      637.21698     -101947.03      189.88437      190.62305      515.39181    
     62500  -102546.24      639.21373     -101907.03      189.86304      190.60374      515.58822    
     62600  -102506.52      638.73472     -101867.79      189.84109      190.58551      515.78464    
     62700  -102469.33      638.54129     -101830.79      189.82104      190.57144      515.98105    
     62800  -102428.26      637.58469     -101790.68      189.80083      190.55636      516.17747    
     62900  -102388.15      637.74277     -101750.41      189.78248      190.54229      516.37388    
     63000  -102356.38      642.81703     -101713.56      189.76627      190.52948      516.5703     
     63100  -102308.96      631.79719     -101677.16      189.74676      190.51205      516.76671    
     63200  -102275.05      639.41841     -101635.63      189.72896      190.49658      516.96313    
     63300  -102231.35      635.67587     -101595.67      189.71412      190.48138      517.15954    
     63400  -102196.08      636.75943     -101559.32      189.69654      190.46071      517.35596    
     63500  -102158.93      640.51017     -101518.42      189.68388      190.44179      517.55237    
     63600  -102115.91      638.25156     -101477.65      189.67074      190.41887      517.74878    
     63700  -102081.06      642.37039     -101438.69      189.65559      190.3927       517.9452     
     63800  -102033.72      633.34645     -101400.38      189.64356      190.37004      518.14161    
     63900  -101995.46      636.55887     -101358.9       189.62809      190.34672      518.33803    
     64000  -101955.86      638.47495     -101317.39      189.61388      190.32536      518.53444    
     64100  -101925.18      647.51249     -101277.67      189.60159      190.30857      518.73086    
     64200  -101872.78      635.10587     -101237.67      189.58716      190.28867      518.92727    
     64300  -101839.52      643.14934     -101196.37      189.57314      190.26995      519.12369    
     64400  -101798.42      641.03845     -101157.39      189.55908      190.25221      519.3201     
     64500  -101757.37      638.84786     -101118.52      189.54287      190.2315       519.51652    
     64600  -101715.74      638.9929      -101076.75      189.52715      190.21367      519.71293    
     64700  -101678.19      643.04289     -101035.15      189.51111      190.19371      519.90934    
     64800  -101629.14      636.12371     -100993.02      189.49256      190.17321      520.10576    
     64900  -101589.36      639.78233     -100949.58      189.47496      190.15334      520.30217    
     65000  -101549.05      642.19098     -100906.86      189.45553      190.13488      520.49859    
     65100  -101507.1       640.72065     -100866.38      189.43293      190.11615      520.695      
     65200  -101463.29      639.5616      -100823.73      189.41243      190.099        520.89142    
     65300  -101421.81      639.9955      -100781.82      189.39236      190.08368      521.08783    
     65400  -101381.99      640.87465     -100741.12      189.37254      190.06464      521.28425    
     65500  -101338.98      640.36668     -100698.61      189.35413      190.04666      521.48066    
     65600  -101297.51      640.67324     -100656.83      189.33718      190.0304       521.67708    
     65700  -101247.08      632.65562     -100614.43      189.32026      190.01277      521.87349    
     65800  -101209.67      639.95689     -100569.72      189.30345      189.99712      522.0699     
     65900  -101170.04      642.10635     -100527.94      189.28793      189.98232      522.26632    
     66000  -101120.8       635.22802     -100485.57      189.26884      189.96579      522.46273    
     66100  -101083.81      641.85152     -100441.96      189.25139      189.95079      522.65915    
     66200  -101035.97      638.16736     -100397.8       189.23334      189.93657      522.85556    
     66300  -100987.33      633.74238     -100353.59      189.21465      189.91849      523.05198    
     66400  -100951.55      641.88004     -100309.67      189.19682      189.89909      523.24839    
     66500  -100897.81      633.19154     -100264.62      189.18152      189.87938      523.44481    
     66600  -100856.8       636.86453     -100219.93      189.16701      189.85718      523.64122    
     66700  -100818.3       641.81351     -100176.49      189.14958      189.83507      523.83764    
     66800  -100775.46      642.69906     -100132.76      189.1348       189.81501      524.03405    
     66900  -100725.61      638.09243     -100087.51      189.11848      189.79642      524.23046    
     67000  -100682.22      639.00478     -100043.21      189.10128      189.77649      524.42688    
     67100  -100638.43      642.26288     -99996.169      189.08435      189.76116      524.62329    
     67200  -100591.18      639.92328     -99951.258      189.06628      189.74364      524.81971    
     67300  -100545.19      640.29745     -99904.891      189.04593      189.72441      525.01612    
     67400  -100504.49      643.67303     -99860.82       189.02724      189.70699      525.21254    
     67500  -100460.8       645.16587     -99815.636      189.00653      189.68835      525.40895    
     67600  -100411.37      643.30572     -99768.069      188.98524      189.67014      525.60537    
     67700  -100363.4       641.45225     -99721.949      188.96541      189.65231      525.80178    
     67800  -100312.48      637.76967     -99674.714      188.94339      189.63239      525.9982     
     67900  -100265.15      637.43235     -99627.719      188.9251       189.615        526.19461    
     68000  -100220.11      639.5624      -99580.547      188.90802      189.59989      526.39103    
     68100  -100173.63      639.70134     -99533.931      188.88902      189.58133      526.58744    
     68200  -100125.01      635.76939     -99489.245      188.87476      189.56559      526.78385    
     68300  -100081.75      639.4522      -99442.303      188.85933      189.54688      526.98027    
     68400  -100033.86      640.27153     -99393.591      188.84446      189.52823      527.17668    
     68500  -99984.223      639.99081     -99344.232      188.83197      189.51205      527.3731     
     68600  -99939.654      645.70823     -99293.946      188.81371      189.49096      527.56951    
     68700  -99890.73       646.08924     -99244.641      188.79433      189.47125      527.76593    
     68800  -99840.204      643.17452     -99197.029      188.77655      189.45319      527.96234    
     68900  -99789.84       641.54871     -99148.291      188.75687      189.43406      528.15876    
     69000  -99743.739      642.22272     -99101.517      188.74019      189.4175       528.35517    
     69100  -99697.473      645.74789     -99051.725      188.72163      189.39817      528.55159    
     69200  -99650.215      647.9203      -99002.295      188.70134      189.37943      528.748      
     69300  -99601.818      648.7067      -98953.111      188.68447      189.36203      528.94441    
     69400  -99542.615      639.29815     -98903.317      188.66604      189.34368      529.14083    
     69500  -99494.221      641.07544     -98853.146      188.64832      189.32677      529.33724    
     69600  -99449.571      645.51853     -98804.052      188.62874      189.30888      529.53366    
     69700  -99393.578      640.52116     -98753.057      188.60638      189.28963      529.73007    
     69800  -99339.86       636.32183     -98703.539      188.58659      189.27197      529.92649    
     69900  -99295.847      644.08988     -98651.757      188.56446      189.25494      530.1229     
     70000  -99250.513      650.352       -98600.161      188.54412      189.23846      530.31932    
     70100  -99194.919      646.94784     -98547.972      188.52313      189.22225      530.51573    
     70200  -99146.978      650.17809     -98496.8        188.50291      189.2036       530.71215    
     70300  -99086.592      640.20462     -98446.387      188.48588      189.18553      530.90856    
     70400  -99041.36       647.90213     -98393.458      188.47007      189.16789      531.10497    
     70500  -98982.595      640.71367     -98341.881      188.45528      189.14856      531.30139    
     70600  -98941.057      652.06108     -98288.996      188.4388       189.12867      531.4978     
     70700  -98875.731      639.52864     -98236.202      188.42163      189.10795      531.69422    
     70800  -98829.566      646.08903     -98183.476      188.40648      189.09089      531.89063    
     70900  -98776.806      647.65194     -98129.154      188.39029      189.07336      532.08705    
     71000  -98722.878      647.82501     -98075.053      188.37268      189.05263      532.28346    
     71100  -98668.722      647.82826     -98020.894      188.35585      189.03381      532.47988    
     71200  -98613.748      647.13946     -97966.608      188.33769      189.01296      532.67629    
     71300  -98563.426      652.53866     -97910.887      188.31774      188.99263      532.87271    
     71400  -98514.052      657.21321     -97856.839      188.30168      188.97481      533.06912    
     71500  -98445.104      643.4586      -97801.645      188.28366      188.95785      533.26553    
     71600  -98396.355      650.97466     -97745.38       188.26336      188.9392       533.46195    
     71700  -98339.468      651.09041     -97688.377      188.24289      188.92189      533.65836    
     71800  -98286.24       652.75599     -97633.484      188.22236      188.90337      533.85478    
     71900  -98235.349      658.48916     -97576.86       188.20189      188.88319      534.05119    
     72000  -98182.381      658.63029     -97523.75       188.18331      188.864        534.24761    
     72100  -98121.392      654.41285     -97466.979      188.16546      188.84632      534.44402    
     72200  -98066.155      655.02158     -97411.134      188.14612      188.82692      534.64044    
     72300  -98008.534      652.16386     -97356.37       188.12605      188.80934      534.83685    
     72400  -97949.673      649.04234     -97300.631      188.10647      188.7898       535.03327    
     72500  -97908.97       664.98714     -97243.983      188.08834      188.77201      535.22968    
     72600  -97833.7        650.12293     -97183.577      188.07106      188.75411      535.42609    
     72700  -97792.019      665.47554     -97126.544      188.05284      188.7364       535.62251    
     72800  -97725.547      656.92527     -97068.622      188.03293      188.71941      535.81892    
     72900  -97669.611      661.83162     -97007.78       188.01209      188.69835      536.01534    
     73000  -97607.161      657.41401     -96949.747      187.99291      188.67928      536.21175    
     73100  -97550.945      663.04984     -96887.895      187.97469      188.65805      536.40817    
     73200  -97494.576      667.97696     -96826.599      187.95621      188.63713      536.60458    
     73300  -97433.581      663.28422     -96770.296      187.93785      188.6167       536.801      
     73400  -97383.909      674.30824     -96709.601      187.91824      188.59505      536.99741    
     73500  -97316.275      666.31517     -96649.96       187.90008      188.57482      537.19383    
     73600  -97259.925      670.59533     -96589.33       187.883        188.55327      537.39024    
     73700  -97196.985      669.31207     -96527.673      187.86649      188.53424      537.58666    
     73800  -97135.984      671.23541     -96464.749      187.85107      188.51638      537.78307    
     73900  -97075.632      671.6702      -96403.962      187.83098      188.49683      537.97948    
     74000  -97023.334      678.73076     -96344.604      187.81138      188.47888      538.1759     
     74100  -96955.924      671.65289     -96284.271      187.79274      188.4616       538.37231    
     74200  -96891.699      672.06564     -96219.634      187.77083      188.44223      538.56873    
     74300  -96834.867      677.61935     -96157.248      187.75105      188.42408      538.76514    
     74400  -96779.335      689.01453     -96090.321      187.73046      188.40591      538.96156    
     74500  -96707.047      682.25294     -96024.794      187.70893      188.38514      539.15797    
     74600  -96650.335      686.41314     -95963.922      187.69019      188.36604      539.35439    
     74700  -96585.126      687.36409     -95897.762      187.67079      188.34605      539.5508     
     74800  -96517.626      686.5704      -95831.056      187.64991      188.32481      539.74722    
     74900  -96457.599      694.70642     -95762.893      187.62969      188.3043       539.94363    
     75000  -96399.619      700.75229     -95698.866      187.61026      188.28443      540.14004    
     75100  -96333.173      698.23639     -95634.937      187.59072      188.26488      540.33646    
     75200  -96271.639      702.3724      -95569.267      187.57005      188.24419      540.53287    
     75300  -96204.506      700.94423     -95503.561      187.54886      188.22339      540.72929    
     75400  -96138.807      701.20498     -95437.602      187.52958      188.20506      540.9257     
     75500  -96064.488      701.75285     -95362.736      187.51016      188.18532      541.12212    
     75600  -96014.421      717.02444     -95297.396      187.49009      188.16543      541.31853    
     75700  -95945.779      717.12113     -95228.658      187.4714       188.14487      541.51495    
     75800  -95945.222      775.45775     -95169.764      187.4529       188.12491      541.71136    
     75900  -96219.496      1049.7615     -95169.735      187.43392      188.10593      541.90778    
     76000  -96873.76       1529.5617     -95344.198      187.41952      188.0889       542.10419    
     76100  -97885.53       2029.1901     -95856.34       187.41213      188.07783      542.3006     
     76200  -99381.122      2530.4691     -96850.653      187.41312      188.07515      542.49702    
     76300  -101092.45      2754.8936     -98337.557      187.42493      188.0913       542.69343    
     76400  -102611.82      2587.5468     -100024.28      187.45223      188.12489      542.88985    
     76500  -103920.49      2325.2578     -101595.23      187.47605      188.1528       543.08626    
     76600  -105116.83      2105.3681     -103011.46      187.49193      188.18284      543.28268    
     76700  -106160.37      1891.9135     -104268.46      187.51463      188.21798      543.47909    
     76800  -107099.1       1724.8645     -105374.24      187.54533      188.25972      543.67551    
     76900  -107949.62      1587.3791     -106362.24      187.57671      188.29821      543.87192    
     77000  -108700.92      1462.1148     -107238.8       187.60849      188.33474      544.06834    
     77100  -109388.48      1363.5634     -108024.91      187.6464       188.37516      544.26475    
     77200  -110018.9       1282.5984     -108736.31      187.68388      188.41554      544.46116    
     77300  -110613.13      1223.1211     -109390.01      187.71815      188.45204      544.65758    
     77400  -111173.38      1173.6323     -109999.75      187.75218      188.4876       544.85399    
     77500  -111702.47      1130.7684     -110571.71      187.78679      188.52388      545.05041    
     77600  -112206.59      1094.4133     -111112.18      187.82044      188.55943      545.24682    
     77700  -112685.75      1061.3479     -111624.4       187.8551       188.59576      545.44324    
     77800  -113145.02      1033.1792     -112111.84      187.88947      188.63173      545.63965    
     77900  -113586.26      1008.4853     -112577.77      187.92338      188.66614      545.83607    
     78000  -114012.38      987.1381      -113025.24      187.95769      188.70009      546.03248    
     78100  -114426.7       969.51778     -113457.19      187.99107      188.73275      546.2289     
     78200  -114829.04      953.37391     -113875.67      188.02339      188.76401      546.42531    
     78300  -115220.74      938.80017     -114281.94      188.05532      188.79512      546.62172    
     78400  -115603.86      926.50692     -114677.35      188.08706      188.82608      546.81814    
     78500  -115979.02      915.5252      -115063.49      188.11793      188.85672      547.01455    
     78600  -116332.16      892.81163     -115439.35      188.14785      188.88693      547.21097    
     78700  -116642.87      854.59974     -115788.27      188.17783      188.9178       547.40738    
     78800  -116919.99      816.37628     -116103.62      188.2083       188.94994      547.6038     
     78900  -117167.87      781.61012     -116386.26      188.23829      188.98182      547.80021    
     79000  -117386.34      748.66913     -116637.68      188.26864      189.01433      547.99663    
     79100  -117580.26      720.68466     -116859.58      188.30107      189.04864      548.19304    
     79200  -117747.9       694.19728     -117053.7       188.33399      189.08299      548.38946    
     79300  -117889.8       669.88491     -117219.92      188.36655      189.11661      548.58587    
     79400  -118005.08      648.13815     -117356.94      188.39987      189.15121      548.78229    
     79500  -118093.94      630.84289     -117463.1       188.4339       189.18715      548.9787     
     79600  -118153.4       618.52422     -117534.88      188.4687       189.22442      549.17511    
     79700  -118181.21      613.68819     -117567.52      188.50613      189.26473      549.37153    
     79800  -118180.97      621.91448     -117559.06      188.54331      189.30447      549.56794    
     79900  -118161.77      636.04271     -117525.73      188.57787      189.34121      549.76436    
     80000  -118109.54      621.03306     -117488.51      188.6093       189.3753       549.96077    
     80100  -118023.79      596.72051     -117427.07      188.63735      189.40621      550.15719    
     80200  -117904.88      583.17894     -117321.7       188.66284      189.43467      550.3536     
     80300  -117771.03      581.0689      -117189.96      188.68344      189.4578       550.55002    
     80400  -117661.29      609.99445     -117051.3       188.69468      189.47011      550.74643    
     80500  -117619.49      681.15069     -116938.34      188.70101      189.47494      550.94285    
     80600  -117587.67      665.74867     -116921.92      188.69954      189.46487      551.13926    
     80700  -117534.95      583.24642     -116951.7       188.71253      189.46469      551.33567    
     80800  -117490.31      592.60747     -116897.7       188.74208      189.47721      551.53209    
     80900  -117443.38      654.78648     -116788.6       188.77361      189.49339      551.7285     
     81000  -117407.27      680.8248      -116726.45      188.80768      189.5148       551.92492    
     81100  -117402.48      654.86436     -116747.62      188.83398      189.5315       552.12133    
     81200  -117414.61      613.36269     -116801.25      188.86278      189.56161      552.31775    
     81300  -117406.44      594.19543     -116812.24      188.89494      189.61185      552.51416    
     81400  -117388.62      629.54097     -116759.08      188.92292      189.65552      552.71058    
     81500  -117358.35      657.59467     -116700.76      188.94012      189.69769      552.90699    
     81600  -117350.3       663.96427     -116686.34      188.959        189.73035      553.10341    
     81700  -117369.05      643.81903     -116725.23      188.98977      189.75395      553.29982    
     81800  -117389.78      619.43821     -116770.34      189.02576      189.76935      553.49623    
     81900  -117397.03      616.4223      -116780.6       189.06158      189.78083      553.69265    
     82000  -117408.55      645.83656     -116762.71      189.09736      189.79102      553.88906    
     82100  -117398.07      640.93345     -116757.13      189.12998      189.80121      554.08548    
     82200  -117391.27      632.29107     -116758.98      189.16188      189.8227       554.28189    
     82300  -117386.17      632.49323     -116753.67      189.19893      189.85549      554.47831    
     82400  -117391.35      646.94296     -116744.41      189.23114      189.88796      554.67472    
     82500  -117395.18      650.92836     -116744.25      189.26342      189.91806      554.87114    
     82600  -117401.57      636.3236      -116765.25      189.29884      189.95207      555.06755    
     82700  -117399.84      613.69133     -116786.15      189.32195      189.98176      555.26397    
     82800  -117394.03      623.90786     -116770.13      189.34182      190.00131      555.46038    
     82900  -117390.69      658.41342     -116732.27      189.35979      190.02789      555.65679    
     83000  -117390.78      659.45068     -116731.32      189.38265      190.06225      555.85321    
     83100  -117412.88      634.93069     -116777.95      189.40102      190.09943      556.04962    
     83200  -117422.31      607.71646     -116814.59      189.41245      190.12904      556.24604    
     83300  -117417.62      615.62361     -116802         189.42765      190.16319      556.44245    
     83400  -117404.75      649.64436     -116755.1       189.45176      190.19878      556.63887    
     83500  -117391.26      663.4381      -116727.82      189.47831      190.23219      556.83528    
     83600  -117403.37      647.46554     -116755.9       189.49973      190.25247      557.0317     
     83700  -117415.56      613.53852     -116802.02      189.52302      190.27814      557.22811    
     83800  -117403.85      604.16849     -116799.68      189.54728      190.31145      557.42453    
     83900  -117384.24      642.68142     -116741.56      189.55772      190.33763      557.62094    
     84000  -117375.74      675.56678     -116700.17      189.56955      190.36829      557.81735    
     84100  -117377.33      652.56415     -116724.76      189.58783      190.40172      558.01377    
     84200  -117397.3       617.69892     -116779.6       189.60226      190.42279      558.21018    
     84300  -117411.66      606.6394      -116805.02      189.62023      190.43938      558.4066     
     84400  -117418.19      636.7226      -116781.47      189.65467      190.47282      558.60301    
     84500  -117409.86      658.05904     -116751.8       189.68931      190.50356      558.79943    
     84600  -117401.61      644.03959     -116757.57      189.72036      190.53332      558.99584    
     84700  -117413.71      641.78839     -116771.92      189.75107      190.56517      559.19226    
     84800  -117421.5       626.65782     -116794.84      189.77232      190.59544      559.38867    
     84900  -117424.24      623.42111     -116800.82      189.78452      190.62197      559.58509    
     85000  -117413.33      631.5921      -116781.73      189.79405      190.65299      559.7815     
     85100  -117406.79      650.31208     -116756.48      189.80641      190.68841      559.97792    
     85200  -117419.15      657.80417     -116761.34      189.82968      190.71876      560.17433    
     85300  -117428.05      628.75373     -116799.3       189.84931      190.74454      560.37074    
     85400  -117440.56      614.99555     -116825.56      189.86188      190.77234      560.56716    
     85500  -117438.64      624.13903     -116814.5       189.87932      190.80179      560.76357    
     85600  -117436.28      651.01016     -116785.27      189.90228      190.83303      560.95999    
     85700  -117439.82      657.7884      -116782.03      189.92112      190.86392      561.1564     
     85800  -117443.44      628.81257     -116814.63      189.93972      190.89358      561.35282    
     85900  -117460.07      619.47646     -116840.6       189.96904      190.93333      561.54923    
     86000  -117454.52      620.22051     -116834.3       190.00703      190.97886      561.74565    
     86100  -117444.38      645.6964      -116798.69      190.04795      191.02044      561.94206    
     86200  -117439.37      658.12499     -116781.25      190.09502      191.06492      562.13848    
     86300  -117449.3       646.40408     -116802.89      190.13028      191.09844      562.33489    
     86400  -117462.99      624.55393     -116838.44      190.17515      191.1396       562.5313     
     86500  -117475.94      622.48183     -116853.45      190.22895      191.18055      562.72772    
     86600  -117470.29      630.32684     -116839.97      190.27922      191.21659      562.92413    
     86700  -117465.29      649.79353     -116815.5       190.33023      191.25665      563.12055    
     86800  -117466.08      651.00493     -116815.07      190.38023      191.29738      563.31696    
     86900  -117476.05      634.53288     -116841.52      190.43291      191.33102      563.51338    
     87000  -117485.99      620.58322     -116865.41      190.49217      191.3629       563.70979    
     87100  -117482.12      622.18496     -116859.94      190.56228      191.40402      563.90621    
     87200  -117469.99      640.8004      -116829.19      190.63888      191.44388      564.10262    
     87300  -117467.24      653.68847     -116813.55      190.71274      191.47455      564.29904    
     87400  -117469.28      638.23513     -116831.05      190.78361      191.50459      564.49545    
     87500  -117470.63      619.62445     -116851.01      190.85506      191.5339       564.69186    
     87600  -117470.48      626.33563     -116844.14      190.92742      191.55899      564.88828    
     87700  -117465.15      646.0101      -116819.14      191.00474      191.57975      565.08469    
     87800  -117457.72      650.99393     -116806.72      191.08194      191.60057      565.28111    
     87900  -117461.39      640.13451     -116821.25      191.15486      191.61716      565.47752    
     88000  -117472.2       629.79045     -116842.41      191.22444      191.62762      565.67394    
     88100  -117477.86      627.37401     -116850.48      191.29744      191.63434      565.87035    
     88200  -117474.48      635.04414     -116839.44      191.36549      191.63193      566.06677    
     88300  -117473.02      646.62085     -116826.4       191.42548      191.61791      566.26318    
     88400  -117472.76      643.12244     -116829.64      191.48933      191.60808      566.4596     
     88500  -117486.34      644.92669     -116841.42      191.55843      191.59856      566.65601    
     88600  -117487.1       631.42757     -116855.68      191.6268       191.58859      566.85242    
     88700  -117496.13      633.32686     -116862.8       191.69058      191.57779      567.04884    
     88800  -117497.12      638.53505     -116858.59      191.75523      191.56359      567.24525    
     88900  -117491.54      641.42814     -116850.11      191.8174       191.55115      567.44167    
     89000  -117486.65      641.81511     -116844.84      191.87089      191.53834      567.63808    
     89100  -117490.24      641.35473     -116848.89      191.91902      191.52943      567.8345     
     89200  -117490.89      628.27867     -116862.61      191.96762      191.52284      568.03091    
     89300  -117500.52      630.58976     -116869.93      192.01921      191.51466      568.22733    
     89400  -117504.71      638.41777     -116866.29      192.08155      191.51151      568.42374    
     89500  -117495.34      636.85624     -116858.48      192.14264      191.50967      568.62016    
     89600  -117501.35      647.43416     -116853.92      192.19898      191.50569      568.81657    
     89700  -117498.44      636.48949     -116861.95      192.25835      191.50587      569.01298    
     89800  -117505.82      632.33757     -116873.48      192.31054      191.50088      569.2094     
     89900  -117510.53      631.6068      -116878.92      192.35878      191.49432      569.40581    
     90000  -117500.58      628.9811      -116871.6       192.40961      191.49266      569.60223    
     90100  -117500.91      644.35155     -116856.56      192.46149      191.4909       569.79864    
     90200  -117497.99      644.93708     -116853.05      192.51313      191.49227      569.99506    
     90300  -117507.4       641.78251     -116865.62      192.56067      191.49175      570.19147    
     90400  -117508.36      627.84786     -116880.52      192.61163      191.49371      570.38789    
     90500  -117504.12      626.0141      -116878.11      192.67421      191.49627      570.5843     
     90600  -117498.7       641.59128     -116857.11      192.73908      191.49853      570.78072    
     90700  -117491.28      650.834       -116840.44      192.80341      191.50621      570.97713    
     90800  -117489.6       641.65798     -116847.94      192.86444      191.51412      571.17355    
     90900  -117493.36      627.26786     -116866.09      192.92091      191.51883      571.36996    
     91000  -117498.82      628.98065     -116869.84      192.97831      191.52666      571.56637    
     91100  -117499.14      637.6324      -116861.51      193.03376      191.53518      571.76279    
     91200  -117493.19      639.18314     -116854.01      193.08953      191.54257      571.9592     
     91300  -117497.36      645.78126     -116851.57      193.14372      191.54823      572.15562    
     91400  -117500.52      641.33656     -116859.18      193.19666      191.54589      572.35203    
     91500  -117499.75      631.69369     -116868.05      193.25194      191.54439      572.54845    
     91600  -117502.4       634.08106     -116868.32      193.3067       191.54928      572.74486    
     91700  -117499.13      636.51915     -116862.61      193.34733      191.55025      572.94128    
     91800  -117494.74      640.73605     -116854         193.37603      191.54275      573.13769    
     91900  -117483.24      636.45362     -116846.79      193.40699      191.53846      573.33411    
     92000  -117485.96      640.38486     -116845.57      193.43512      191.53458      573.53052    
     92100  -117493.84      639.85335     -116853.99      193.45438      191.53354      573.72693    
     92200  -117497.99      632.43405     -116865.56      193.46451      191.53118      573.92335    
     92300  -117499.82      630.40747     -116869.42      193.47654      191.53259      574.11976    
     92400  -117494.11      633.88196     -116860.23      193.48422      191.53697      574.31618    
     92500  -117497.37      646.64759     -116850.72      193.481        191.54064      574.51259    
     92600  -117496.9       639.59149     -116857.31      193.46867      191.54894      574.70901    
     92700  -117509.11      634.49348     -116874.62      193.45528      191.56502      574.90542    
     92800  -117517.02      627.96192     -116889.06      193.43789      191.58545      575.10184    
     92900  -117508.31      624.39195     -116883.91      193.40828      191.60567      575.29825    
     93000  -117505.85      641.12012     -116864.73      193.37438      191.63424      575.49467    
     93100  -117500.65      649.94098     -116850.71      193.32972      191.66061      575.69108    
     93200  -117502.52      641.419       -116861.1       193.28399      191.69194      575.88749    
     93300  -117515.01      632.64816     -116882.37      193.23523      191.73514      576.08391    
     93400  -117515.16      625.15284     -116890.01      193.17165      191.77997      576.28032    
     93500  -117509.13      632.60188     -116876.53      193.1058       191.82635      576.47674    
     93600  -117512.2       650.00601     -116862.19      193.05095      191.8806       576.67315    
     93700  -117508.63      643.52651     -116865.11      192.99085      191.93432      576.86957    
     93800  -117514.68      636.35452     -116878.33      192.92841      191.98618      577.06598    
     93900  -117516.21      627.96681     -116888.25      192.87298      192.04376      577.2624     
     94000  -117522.07      636.36712     -116885.7       192.81426      192.09556      577.45881    
     94100  -117513.04      638.08105     -116874.96      192.7548       192.15026      577.65523    
     94200  -117509.07      642.58826     -116866.48      192.70062      192.2069       577.85164    
     94300  -117508.36      638.22511     -116870.13      192.64812      192.26239      578.04805    
     94400  -117510.24      629.04062     -116881.2       192.60477      192.3196       578.24447    
     94500  -117512.95      627.66512     -116885.28      192.56419      192.37262      578.44088    
     94600  -117514.41      639.75086     -116874.66      192.52129      192.4212       578.6373     
     94700  -117500.89      638.50288     -116862.39      192.4775       192.47274      578.83371    
     94800  -117504.73      644.59231     -116860.14      192.43551      192.52476      579.03013    
     94900  -117503.61      634.67797     -116868.93      192.39558      192.57692      579.22654    
     95000  -117501.88      625.92969     -116875.95      192.35549      192.6256       579.42296    
     95100  -117492.44      626.0151      -116866.43      192.3105       192.67352      579.61937    
     95200  -117485.24      637.93547     -116847.3       192.25787      192.72135      579.81579    
     95300  -117479.3       646.95055     -116832.35      192.19793      192.76203      580.0122     
     95400  -117474.73      639.12658     -116835.6       192.12755      192.80083      580.20861    
     95500  -117478.17      631.14008     -116847.03      192.04519      192.8414       580.40503    
     95600  -117482.97      629.6544      -116853.32      191.95582      192.87552      580.60144    
     95700  -117479.43      633.52862     -116845.9       191.8703       192.90642      580.79786    
     95800  -117471.22      637.21157     -116834         191.79091      192.94312      580.99427    
     95900  -117462.22      640.37622     -116821.84      191.70931      192.98348      581.19069    
     96000  -117465.35      645.00308     -116820.34      191.62752      193.02616      581.3871     
     96100  -117470.25      635.67159     -116834.58      191.54554      193.06115      581.58352    
     96200  -117478.83      630.80102     -116848.03      191.46467      193.09143      581.77993    
     96300  -117476.35      631.8883      -116844.46      191.39289      193.12725      581.97635    
     96400  -117466.77      637.10979     -116829.66      191.3183       193.15798      582.17276    
     96500  -117470.45      649.78933     -116820.66      191.2408       193.18266      582.36918    
     96600  -117475.5       642.25135     -116833.25      191.16749      193.20381      582.56559    
     96700  -117481.28      625.75089     -116855.53      191.09865      193.21816      582.762      
     96800  -117487.18      623.75832     -116863.42      191.03175      193.23502      582.95842    
     96900  -117486.13      635.6687      -116850.46      190.96546      193.24648      583.15483    
     97000  -117484.02      648.43518     -116835.59      190.89766      193.25268      583.35125    
     97100  -117484.65      647.75183     -116836.9       190.82996      193.25881      583.54766    
     97200  -117490.12      634.49568     -116855.63      190.76615      193.26647      583.74408    
     97300  -117490.14      620.04862     -116870.09      190.71396      193.27859      583.94049    
     97400  -117482.74      625.08817     -116857.65      190.67307      193.29149      584.13691    
     97500  -117471.88      644.73316     -116827.15      190.64205      193.30385      584.33332    
     97600  -117463.09      651.31836     -116811.77      190.61796      193.3167       584.52974    
     97700  -117470.72      645.2728      -116825.45      190.59623      193.32401      584.72615    
     97800  -117478.99      625.94854     -116853.04      190.58083      193.32706      584.92256    
     97900  -117490.65      625.76741     -116864.88      190.57421      193.33608      585.11898    
     98000  -117482.33      626.53657     -116855.8       190.57272      193.35479      585.31539    
     98100  -117472.97      638.10119     -116834.87      190.57151      193.36808      585.51181    
     98200  -117476.41      651.43992     -116824.97      190.57972      193.38399      585.70822    
     98300  -117479.21      637.6732      -116841.54      190.59745      193.39696      585.90464    
     98400  -117490.87      624.1807      -116866.69      190.61542      193.40565      586.10105    
     98500  -117501.79      626.77878     -116875.01      190.6258       193.42257      586.29747    
     98600  -117493.69      634.33326     -116859.36      190.62748      193.44011      586.49388    
     98700  -117487.79      650.67372     -116837.12      190.6304       193.45627      586.6903     
     98800  -117481.75      647.63123     -116834.12      190.63867      193.48021      586.88671    
     98900  -117494.57      638.82443     -116855.75      190.65025      193.50264      587.08312    
     99000  -117505.5       623.06099     -116882.44      190.66093      193.52597      587.27954    
     99100  -117511.85      625.37258     -116886.48      190.66698      193.55149      587.47595    
     99200  -117498.11      632.45965     -116865.65      190.6713       193.57116      587.67237    
     99300  -117495.81      652.65825     -116843.15      190.67595      193.58431      587.86878    
     99400  -117490.74      646.89076     -116843.85      190.6748       193.59953      588.0652     
     99500  -117502.23      636.22617     -116866         190.66956      193.61574      588.26161    
     99600  -117505.1       618.79167     -116886.3       190.66077      193.62935      588.45803    
     99700  -117518.16      631.60688     -116886.55      190.6537       193.64801      588.65444    
     99800  -117503.91      633.60412     -116870.31      190.64437      193.6644       588.85086    
     99900  -117501.48      647.51415     -116853.97      190.62767      193.6732       589.04727    
    100000  -117504.3       648.57916     -116855.72      190.60679      193.68819      589.24368    
Loop time of 4199.22 on 10 procs for 100000 steps with 16416 atoms

Performance: 2.058 ns/day, 11.665 hours/ns, 23.814 timesteps/s, 390.929 katom-step/s
91.4% CPU use with 10 MPI tasks x 1 OpenMP threads

MPI task timing breakdown:
Section |  min time  |  avg time  |  max time  |%varavg| %total
---------------------------------------------------------------
Pair    | 2211.3     | 2824.7     | 3976.1     |1071.7 | 67.27
Neigh   | 14.51      | 22.373     | 35.693     | 143.6 |  0.53
Comm    | 18.851     | 1069.8     | 1897.3     |1834.5 | 25.48
Output  | 1.0325     | 1.0862     | 1.1461     |   3.4 |  0.03
Modify  | 66.946     | 277.45     | 665.97     |1275.6 |  6.61
Other   |            | 3.819      |            |       |  0.09

Nlocal:         1641.6 ave        3232 max         260 min
Histogram: 2 2 0 0 0 1 2 1 1 1
Nghost:         1503.9 ave        2790 max         639 min
Histogram: 2 1 1 2 1 0 0 2 0 1
Neighs:              0 ave           0 max           0 min
Histogram: 10 0 0 0 0 0 0 0 0 0

Total # of neighbors = 0
Ave neighs/atom = 0
Neighbor list builds = 780
Dangerous builds = 0
Total wall time: 1:09:59
