LAMMPS (2 Aug 2023 - Update 3)
OMP_NUM_THREADS environment is not set. Defaulting to 1 thread. (src/comm.cpp:98)
  using 1 OpenMP thread(s) per MPI task

# 1------general---------------
units                             metal      #单位为lammps 中的metel 类型
dimension                    3          #模拟的维度 三维
boundary                    p p p      #周期边界条件
atom_style                  atomic   #原子类型自动
atom_modify              map array sort 100 2.0
neighbor                    3.0 bin
neigh_modify            every 1 delay 0 check yes
#2 -----global variable-------定义全局变量，方便统一修改；
variable temperature equal 300
variable tstep equal 0.001
variable pressure equal 0
variable thermalstep equal 100
variable dumpstep equal 1000
variable relaxtime equal 0
variable totaltime equal 100000
variable deformrate equal 5e-3
#3 -------model------------
#box tilt large
read_data     1.lmp
Reading data file ...
  orthogonal box = (-100 -100 -2.3312512) to (100 100 41.316429)
  3 by 4 by 1 MPI processor grid
  reading atoms ...
  1824 atoms
  read_data CPU = 0.105 seconds
replicate 1 1 9
Replication is creating a 1x1x9 = 9 times larger system...
  orthogonal box = (-100 -100 -2.3312512) to (100 100 390.49787)
  2 by 2 by 3 MPI processor grid
  16416 atoms
  replicate CPU = 0.002 seconds
group SR type 2 3
5400 atoms in group SR
delete_atoms group SR
Deleted 5400 atoms, new total = 11016
write_data h.data
System init for write_data ...
WARNING: Communication cutoff is 0.0. No ghost atoms will be generated. Atoms may get lost. (src/comm_brick.cpp:210)
pair_style hybrid airebo 3.0 airebo 3.0 airebo 3.0 lj/cut 10
pair_coeff * * airebo 1 CH.airebo C NULL NULL
Reading airebo potential file CH.airebo with DATE: 2011-10-25
pair_coeff * * airebo 2 CH.airebo NULL C NULL
Reading airebo potential file CH.airebo with DATE: 2011-10-25
pair_coeff * * airebo 3 CH.airebo NULL NULL C
Reading airebo potential file CH.airebo with DATE: 2011-10-25
pair_coeff 1 2 lj/cut 0.00456 3.431
pair_coeff 1 3 lj/cut 0.00456 3.431
pair_coeff 2 3 lj/cut 0.00456 3.431

# 5------minimize -----------
min_style      sd
minimize       1.0e-4 1.0e-6 100 1000
Neighbor list info ...
  update: every = 1 steps, delay = 0 steps, check = yes
  max neighbors/atom: 2000, page size: 100000
  master list distance cutoff = 13.2
  ghost atom cutoff = 13.2
  binsize = 6.6, bins = 31 31 60
  6 neighbor lists, perpetual/occasional/extra = 6 0 0
  (1) pair airebo, perpetual, skip from (5)
      attributes: full, newton on, ghost
      pair build: skip/ghost
      stencil: none
      bin: none
  (2) pair airebo, perpetual, skip from (5)
      attributes: full, newton on, ghost
      pair build: skip/ghost
      stencil: none
      bin: none
  (3) pair airebo, perpetual, skip from (5)
      attributes: full, newton on, ghost
      pair build: skip/ghost
      stencil: none
      bin: none
  (4) pair lj/cut, perpetual, skip from (6)
      attributes: half, newton on, cut 13
      pair build: skip
      stencil: none
      bin: none
  (5) neighbor class addition, perpetual
      attributes: full, newton on, ghost
      pair build: full/bin/ghost
      stencil: full/ghost/bin/3d
      bin: standard
  (6) neighbor class addition, perpetual
      attributes: half, newton on, cut 13
      pair build: half/bin/atomonly/newton
      stencil: half/bin/3d
      bin: standard
Per MPI rank memory allocation (min/avg/max) = 12.57 | 12.76 | 12.95 Mbytes
   Step          Temp          E_pair         E_mol          TotEng         Press     
         0   0             -81705.248      0             -81705.248     -77.843168    
         1   0             -81705.308      0             -81705.308     -77.708063    
Loop time of 0.202846 on 12 procs for 1 steps with 11016 atoms

76.4% CPU use with 12 MPI tasks x 1 OpenMP threads

Minimization stats:
  Stopping criterion = energy tolerance
  Energy initial, next-to-last, final = 
     -81705.2475731248  -81705.2475731248  -81705.3076152407
  Force two-norm initial, final = 3.8555467 0.99396993
  Force max component initial, final = 0.036762983 0.0094736875
  Final line search alpha, max atom move = 1 0.0094736875
  Iterations, force evaluations = 1 2

MPI task timing breakdown:
Section |  min time  |  avg time  |  max time  |%varavg| %total
---------------------------------------------------------------
Pair    | 0.033986   | 0.04926    | 0.086998   |   7.3 | 24.28
Neigh   | 0          | 0          | 0          |   0.0 |  0.00
Comm    | 0.0149     | 0.052458   | 0.075019   |   7.8 | 25.86
Output  | 0          | 0          | 0          |   0.0 |  0.00
Modify  | 0          | 0          | 0          |   0.0 |  0.00
Other   |            | 0.1011     |            |       | 49.85

Nlocal:            918 ave         972 max         864 min
Histogram: 3 0 0 0 0 6 0 0 0 3
Nghost:           3468 ave        3522 max        3414 min
Histogram: 3 0 0 0 0 6 0 0 0 3
Neighs:              0 ave           0 max           0 min
Histogram: 12 0 0 0 0 0 0 0 0 0

Total # of neighbors = 0
Ave neighs/atom = 0
Neighbor list builds = 0
Dangerous builds = 0
#6----define computes------
variable nums equal count(all) #计算原子数目
variable toval equal 22.7273*22.7165*lz #计算系统总体积，单层石墨烯厚度为0.335nm
variable vol equal ${toval} #体系的初始体积
variable vol equal 202811.670105542 
variable vatom equal v_vol/v_nums #单个原子体积
compute 1 all stress/atom NULL #计算体系中单原子应力
compute xalls all reduce sum c_1[1]
variable xstress equal (c_xalls)/(v_toval*10000)
compute yalls all reduce sum c_1[2]
variable ystress equal (c_yalls)/(v_toval*10000)
compute zalls all reduce sum c_1[3]
variable zstress equal (c_zalls)/(v_toval*10000)
#7---------relaxation-------------------------
timestep ${tstep}
timestep 0.001
velocity all create ${temperature} 231743 units box dist gaussian
velocity all create 300 231743 units box dist gaussian
dump   1 all atom 100 all-cy.lammpstrj
#fix    1 all npt temp 300 300  0.1 aniso 0 0 10 drag 1  #三个方向独立控压
fix  1 all npt temp ${temperature} ${temperature} 0.1 x ${pressure} ${pressure} 10 y ${pressure} ${pressure} 10
fix  1 all npt temp 300 ${temperature} 0.1 x ${pressure} ${pressure} 10 y ${pressure} ${pressure} 10
fix  1 all npt temp 300 300 0.1 x ${pressure} ${pressure} 10 y ${pressure} ${pressure} 10
fix  1 all npt temp 300 300 0.1 x 0 ${pressure} 10 y ${pressure} ${pressure} 10
fix  1 all npt temp 300 300 0.1 x 0 0 10 y ${pressure} ${pressure} 10
fix  1 all npt temp 300 300 0.1 x 0 0 10 y 0 ${pressure} 10
fix  1 all npt temp 300 300 0.1 x 0 0 10 y 0 0 10
compute  2 all pe/atom
compute  pe all reduce sum c_2
variable PE equal "c_pe"
fix    pe all print 100 "${PE} " file PE.txt screen no
thermo  ${thermalstep}
thermo  100
#thermo_style  custom step pe ke etotal lx ly lz
run   ${relaxtime}
run   0
Per MPI rank memory allocation (min/avg/max) = 13.19 | 13.39 | 13.58 Mbytes
   Step          Temp          E_pair         E_mol          TotEng         Press          Volume    
         1   300           -81705.308      0             -81278.167     -48.672796      15713165     
Loop time of 2.84848e-05 on 12 procs for 0 steps with 11016 atoms

88.1% CPU use with 12 MPI tasks x 1 OpenMP threads

MPI task timing breakdown:
Section |  min time  |  avg time  |  max time  |%varavg| %total
---------------------------------------------------------------
Pair    | 0          | 0          | 0          |   0.0 |  0.00
Neigh   | 0          | 0          | 0          |   0.0 |  0.00
Comm    | 0          | 0          | 0          |   0.0 |  0.00
Output  | 0          | 0          | 0          |   0.0 |  0.00
Modify  | 0          | 0          | 0          |   0.0 |  0.00
Other   |            | 2.848e-05  |            |       |100.00

Nlocal:            918 ave         972 max         864 min
Histogram: 6 0 0 0 0 0 0 0 0 6
Nghost:           3468 ave        3522 max        3414 min
Histogram: 6 0 0 0 0 0 0 0 0 6
Neighs:              0 ave           0 max           0 min
Histogram: 12 0 0 0 0 0 0 0 0 0

Total # of neighbors = 0
Ave neighs/atom = 0
Neighbor list builds = 0
Dangerous builds = 0
#8 -------tension-----------------------------
unfix  1
undump  1
unfix  pe
reset_timestep 0
fix avestress all ave/atom 1 ${dumpstep} ${dumpstep} c_1[1] c_1[2] c_1[3] c_1[4] c_1[5] c_1[6]
fix avestress all ave/atom 1 1000 ${dumpstep} c_1[1] c_1[2] c_1[3] c_1[4] c_1[5] c_1[6]
fix avestress all ave/atom 1 1000 1000 c_1[1] c_1[2] c_1[3] c_1[4] c_1[5] c_1[6]

#-----calculation of strain and Cumulative compression--------
variable                tmp equal "lz"
variable                L0 equal ${tmp}
variable                L0 equal 392.8291231572
variable                strain equal "(lz - v_L0)/v_L0"
variable                Cumulativels equal "(lz - v_L0)/10"
fix Step all print 100 "${strain} ${Cumulativels} ${zstress}" file grapoten.txt screen no

dump 2 all custom ${dumpstep} tension.xyz type x y z f_avestress[1] f_avestress[2] f_avestress[3] f_avestress[4] f_avestress[5] f_avestress[6]
dump 2 all custom 1000 tension.xyz type x y z f_avestress[1] f_avestress[2] f_avestress[3] f_avestress[4] f_avestress[5] f_avestress[6]

fix  1 all npt temp ${temperature} ${temperature} 0.1 y ${pressure} ${pressure} 10 x ${pressure} ${pressure} 10
fix  1 all npt temp 300 ${temperature} 0.1 y ${pressure} ${pressure} 10 x ${pressure} ${pressure} 10
fix  1 all npt temp 300 300 0.1 y ${pressure} ${pressure} 10 x ${pressure} ${pressure} 10
fix  1 all npt temp 300 300 0.1 y 0 ${pressure} 10 x ${pressure} ${pressure} 10
fix  1 all npt temp 300 300 0.1 y 0 0 10 x ${pressure} ${pressure} 10
fix  1 all npt temp 300 300 0.1 y 0 0 10 x 0 ${pressure} 10
fix  1 all npt temp 300 300 0.1 y 0 0 10 x 0 0 10

thermo_style custom step pe ke etotal lx ly lz
fix   2 all deform 1 z erate ${deformrate} remap x units box
fix   2 all deform 1 z erate 0.005 remap x units box
fix   3 all ave/time 2 500 1000 v_xstress v_ystress v_zstress file pressure.out
run   ${totaltime}
run   100000
WARNING: Dump 2 includes no atom IDs and is not sorted by ID. This may complicate post-processing tasks or visualization (src/dump.cpp:221)
Per MPI rank memory allocation (min/avg/max) = 14.69 | 14.89 | 15.08 Mbytes
   Step         PotEng         KinEng         TotEng           Lx             Ly             Lz      
         0  -81705.308      427.14015     -81278.167      200            200            392.82912    
       100  -81456.709      209.62446     -81247.085      199.98789      199.98854      393.02554    
       200  -81464.399      259.9119      -81204.488      199.97665      199.97688      393.22195    
       300  -81431.164      277.72149     -81153.442      199.99056      199.99132      393.41837    
       400  -81403.622      305.99525     -81097.627      199.98896      199.98979      393.61478    
       500  -81379.899      341.27267     -81038.627      199.96922      199.97063      393.8112     
       600  -81343.244      364.08321     -80979.161      199.97673      199.9782       394.00761    
       700  -81313.138      390.9562      -80922.182      199.98688      199.98909      394.20403    
       800  -81286.597      414.31145     -80872.286      199.96692      199.97024      394.40044    
       900  -81269.387      432.86277     -80836.525      199.96064      199.96549      394.59685    
      1000  -81257.739      437.136       -80820.603      199.97451      199.98034      394.79327    
      1100  -81266.469      435.75746     -80830.712      199.96505      199.97212      394.98968    
      1200  -81276.735      423.52975     -80853.206      199.94921      199.95937      395.1861     
      1300  -81280.986      416.04383     -80864.942      199.95662      199.96843      395.38251    
      1400  -81273.969      418.18374     -80855.785      199.95448      199.96871      395.57893    
      1500  -81259.756      425.61851     -80834.137      199.93514      199.95369      395.77534    
      1600  -81254.593      437.15214     -80817.441      199.9334       199.95585      395.97176    
      1700  -81252.617      435.15816     -80817.459      199.93927      199.96573      396.16817    
      1800  -81250.688      421.25442     -80829.434      199.92129      199.95406      396.36459    
      1900  -81265.181      425.55566     -80839.625      199.90858      199.94813      396.561      
      2000  -81254.663      416.30862     -80838.354      199.91564      199.96051      396.75741    
      2100  -81249.993      427.88399     -80822.109      199.90331      199.95632      396.95383    
      2200  -81243.114      437.26984     -80805.844      199.88256      199.94428      397.15024    
      2300  -81236.121      435.58107     -80800.539      199.88462      199.95442      397.34666    
      2400  -81231.116      424.32349     -80806.793      199.88099      199.96053      397.54307    
      2500  -81240.988      425.84731     -80815.14       199.85735      199.94737      397.73949    
      2600  -81234.684      419.57699     -80815.107      199.84731      199.94709      397.9359     
      2700  -81228.252      425.14105     -80803.111      199.84867      199.95946      398.13232    
      2800  -81216.596      430.22993     -80786.366      199.82993      199.95273      398.32873    
      2900  -81211.154      434.30266     -80776.851      199.80852      199.94362      398.52515    
      3000  -81213.149      433.35742     -80779.792      199.80722      199.95497      398.72156    
      3100  -81211.4        424.71098     -80786.689      199.79736      199.95832      398.91797    
      3200  -81206.26       417.8675      -80788.392      199.77176      199.94629      399.11439    
      3300  -81203.499      424.0183      -80779.481      199.76038      199.94864      399.3108     
      3400  -81187.813      424.3707      -80763.442      199.75656      199.95926      399.50722    
      3500  -81182.032      432.01794     -80750.014      199.73417      199.95159      399.70363    
      3600  -81179.709      431.31665     -80748.392      199.71321      199.94445      399.90005    
      3700  -81174.875      420.60592     -80754.269      199.70706      199.95327      400.09646    
      3800  -81180.261      424.21558     -80756.046      199.69253      199.95385      400.29288    
      3900  -81170.264      421.98139     -80748.282      199.66805      199.94328      400.48929    
      4000  -81159.011      424.74663     -80734.265      199.65511      199.94502      400.68571    
      4100  -81152.352      431.93174     -80720.421      199.64563      199.94956      400.88212    
      4200  -81144.85       429.49888     -80715.351      199.62422      199.94198      401.07853    
      4300  -81144.485      425.12891     -80719.356      199.60395      199.9361       401.27495    
      4400  -81142.135      421.02173     -80721.114      199.59365      199.93852      401.47136    
      4500  -81140.036      425.78763     -80714.248      199.57853      199.93661      401.66778    
      4600  -81125.742      425.48147     -80700.26       199.55824      199.92827      401.86419    
      4700  -81117.64       431.47228     -80686.168      199.54319      199.92434      402.06061    
      4800  -81109.148      430.12624     -80679.022      199.53049      199.92395      402.25702    
      4900  -81103.277      424.24751     -80679.03       199.51301      199.91651      402.45344    
      5000  -81104.128      424.16814     -80679.959      199.4941       199.90775      402.64985    
      5100  -81100.197      424.68434     -80675.513      199.4815       199.90512      402.84627    
      5200  -81089.825      426.50939     -80663.315      199.4675       199.89993      403.04268    
      5300  -81076.501      428.13041     -80648.37       199.44756      199.88859      403.23909    
      5400  -81063.498      424.65388     -80638.844      199.43247      199.88216      403.43551    
      5500  -81066.326      430.26559     -80636.061      199.4215       199.87734      403.63192    
      5600  -81057.909      422.87102     -80635.038      199.40321      199.86614      403.82834    
      5700  -81055.035      423.80147     -80631.234      199.38611      199.85581      404.02475    
      5800  -81047.855      427.26178     -80620.593      199.37549      199.84926      404.22117    
      5900  -81037.178      431.03312     -80606.145      199.36068      199.84082      404.41758    
      6000  -81020.063      425.77309     -80594.29       199.34233      199.82632      404.614      
      6100  -81019.112      430.87414     -80588.238      199.32806      199.81556      404.81041    
      6200  -81011.236      424.8144      -80586.422      199.31559      199.80821      405.00683    
      6300  -81006.735      424.10074     -80582.635      199.29982      199.79401      405.20324    
      6400  -80998.071      424.46949     -80573.602      199.28191      199.78001      405.39966    
      6500  -80983.34       423.23908     -80560.101      199.27044      199.77171      405.59607    
      6600  -80972.447      426.12927     -80546.317      199.25733      199.75915      405.79248    
      6700  -80970.352      434.55845     -80535.794      199.23713      199.74206      405.9889     
      6800  -80957.344      425.28028     -80532.064      199.22346      199.7297       406.18531    
      6900  -80950.814      422.37084     -80528.443      199.21148      199.7185       406.38173    
      7000  -80952.568      431.35725     -80521.211      199.19309      199.70261      406.57814    
      7100  -80937.065      428.15267     -80508.912      199.17621      199.68666      406.77456    
      7200  -80918.989      425.02136     -80493.967      199.1627       199.6746       406.97097    
      7300  -80908.944      427.1121      -80481.832      199.14572      199.66039      407.16739    
      7400  -80907.619      432.61798     -80475.001      199.12592      199.64198      407.3638     
      7500  -80894.618      424.27561     -80470.342      199.10896      199.62789      407.56022    
      7600  -80889.878      425.82476     -80464.053      199.09333      199.61555      407.75663    
      7700  -80881.063      429.3879      -80451.675      199.07268      199.59816      407.95304    
      7800  -80863.269      426.9243      -80436.345      199.05192      199.58065      408.14946    
      7900  -80855.078      432.91206     -80422.166      199.03411      199.56848      408.34587    
      8000  -80841.156      428.3403      -80412.815      199.01455      199.55375      408.54229    
      8100  -80835.487      428.65876     -80406.829      198.98948      199.53439      408.7387     
      8200  -80822.709      421.36139     -80401.348      198.96871      199.52042      408.93512    
      8300  -80817.708      425.9575      -80391.75       198.94938      199.50875      409.13153    
      8400  -80803.637      425.95869     -80377.679      198.92306      199.49115      409.32795    
      8500  -80792.565      430.11211     -80362.453      198.89665      199.47363      409.52436    
      8600  -80786.534      436.14813     -80350.386      198.87569      199.46224      409.72078    
      8700  -80771.996      430.0531      -80341.943      198.8495       199.44704      409.91719    
      8800  -80760.99       426.13494     -80334.855      198.81932      199.4277       410.1136     
      8900  -80752.487      426.40434     -80326.083      198.79376      199.41354      410.31002    
      9000  -80739.189      425.77591     -80313.413      198.76837      199.40116      410.50643    
      9100  -80730.627      432.86917     -80297.758      198.73752      199.38268      410.70285    
      9200  -80706.378      422.5293      -80283.849      198.70689      199.36625      410.89926    
      9300  -80706.739      432.13085     -80274.608      198.68042      199.35383      411.09568    
      9400  -80692.936      425.08954     -80267.847      198.64955      199.33798      411.29209    
      9500  -80680.889      421.94478     -80258.944      198.61398      199.31829      411.48851    
      9600  -80670.122      423.78043     -80246.342      198.58446      199.30444      411.68492    
      9700  -80665.182      435.65884     -80229.523      198.55455      199.29057      411.88134    
      9800  -80642.153      429.93885     -80212.215      198.51819      199.27088      412.07775    
      9900  -80629.99       429.71088     -80200.279      198.48359      199.25409      412.27416    
     10000  -80623.643      431.12331     -80192.519      198.45303      199.24036      412.47058    
     10100  -80608.338      423.09483     -80185.244      198.41792      199.22233      412.66699    
     10200  -80598.629      425.66653     -80172.963      198.37943      199.20256      412.86341    
     10300  -80584.833      428.16112     -80156.672      198.34645      199.18721      413.05982    
     10400  -80568.179      429.05486     -80139.124      198.31317      199.17186      413.25624    
     10500  -80557.516      432.1781      -80125.338      198.27507      199.15183      413.45265    
     10600  -80545.122      429.15359     -80115.968      198.23747      199.13253      413.64907    
     10700  -80531.226      423.30148     -80107.925      198.20301      199.11624      413.84548    
     10800  -80519.69       424.28132     -80095.409      198.16601      199.09699      414.0419     
     10900  -80504.903      426.47297     -80078.43       198.12773      199.07633      414.23831    
     11000  -80497.92       437.20101     -80060.719      198.09172      199.05826      414.43472    
     11100  -80474.189      428.37052     -80045.819      198.05537      199.03877      414.63114    
     11200  -80462.197      425.70866     -80036.488      198.01638      199.01621      414.82755    
     11300  -80453.917      425.46838     -80028.449      197.97802      198.99512      415.02397    
     11400  -80442.408      427.7666      -80014.641      197.9418       198.97487      415.22038    
     11500  -80422.327      428.50865     -79993.819      197.90294      198.95217      415.4168     
     11600  -80402.235      428.21658     -79974.018      197.86456      198.92945      415.61321    
     11700  -80391.028      428.42509     -79962.602      197.82792      198.9074       415.80963    
     11800  -80378.922      425.80881     -79953.113      197.78861      198.88381      416.00604    
     11900  -80363.583      422.16359     -79941.419      197.74892      198.85784      416.20246    
     12000  -80350.88       422.96064     -79927.919      197.71219      198.8348       416.39887    
     12100  -80336.595      429.271       -79907.324      197.67392      198.81115      416.59529    
     12200  -80316.683      429.32788     -79887.355      197.63378      198.78319      416.7917     
     12300  -80306.181      431.54792     -79874.634      197.5942       198.75689      416.98811    
     12400  -80292.126      425.38055     -79866.745      197.55704      198.7322       417.18453    
     12500  -80280.108      425.55004     -79854.558      197.51839      198.7052       417.38094    
     12600  -80263.645      426.12754     -79837.517      197.47703      198.67602      417.57736    
     12700  -80248.662      429.73607     -79818.926      197.43823      198.64787      417.77377    
     12800  -80230.044      428.10943     -79801.935      197.4012       198.62113      417.97019    
     12900  -80218.563      432.10965     -79786.454      197.36048      198.59137      418.1666     
     13000  -80200.51       425.39609     -79775.114      197.32022      198.55982      418.36302    
     13100  -80186.907      422.64876     -79764.259      197.28285      198.53237      418.55943    
     13200  -80172.582      424.30015     -79748.282      197.24442      198.50354      418.75585    
     13300  -80155.75       429.91137     -79725.839      197.20292      198.47011      418.95226    
     13400  -80130.062      423.08421     -79706.978      197.16423      198.44052      419.14867    
     13500  -80122.169      429.04242     -79693.126      197.12784      198.41257      419.34509    
     13600  -80107.371      425.06387     -79682.307      197.08718      198.37918      419.5415     
     13700  -80096.554      422.85833     -79673.696      197.04588      198.34614      419.73792    
     13800  -80080.3        416.55688     -79663.743      197.00933      198.31747      419.93433    
     13900  -80063.472      422.7059      -79640.766      196.9719       198.28713      420.13075    
     14000  -80039.174      421.18206     -79617.991      196.93085      198.2546       420.32716    
     14100  -80026.117      429.53707     -79596.58       196.893        198.22338      420.52358    
     14200  -80009.62       430.53555     -79579.085      196.85733      198.19536      420.71999    
     14300  -79991.566      426.04024     -79565.525      196.81695      198.16324      420.91641    
     14400  -79983.07       426.49727     -79556.573      196.77726      198.13008      421.11282    
     14500  -79967.922      426.80451     -79541.117      196.74219      198.10381      421.30923    
     14600  -79944.313      425.15876     -79519.155      196.70487      198.07438      421.50565    
     14700  -79933.737      434.61975     -79499.117      196.66291      198.03971      421.70206    
     14800  -79905.088      424.24215     -79480.846      196.62633      198.01196      421.89848    
     14900  -79885.645      423.66209     -79461.983      196.59224      197.98618      422.09489    
     15000  -79868.976      428.73723     -79440.239      196.55118      197.95391      422.29131    
     15100  -79849.488      429.80208     -79419.686      196.51222      197.92508      422.48772    
     15200  -79834.277      425.92057     -79408.356      196.47908      197.90099      422.68414    
     15300  -79821.565      424.74895     -79396.816      196.44033      197.87243      422.88055    
     15400  -79805.478      426.51561     -79378.963      196.39919      197.84303      423.07697    
     15500  -79777.532      420.61299     -79356.919      196.36561      197.81895      423.27338    
     15600  -79762.75       430.49476     -79332.256      196.32991      197.79492      423.46979    
     15700  -79743.551      429.89421     -79313.657      196.28963      197.76683      423.66621    
     15800  -79725.214      426.889       -79298.325      196.25328      197.7414       423.86262    
     15900  -79712.233      428.13184     -79284.102      196.21988      197.72078      424.05904    
     16000  -79698.555      430.21423     -79268.341      196.18144      197.69465      424.25545    
     16100  -79672.051      419.96886     -79252.082      196.14249      197.66829      424.45187    
     16200  -79657.275      424.91898     -79232.356      196.108        197.64794      424.64828    
     16300  -79634.845      427.67944     -79207.166      196.07366      197.62646      424.8447     
     16400  -79616.497      430.85765     -79185.64       196.03571      197.60249      425.04111    
     16500  -79598.789      428.32724     -79170.462      196.00019      197.58166      425.23753    
     16600  -79580.126      421.04954     -79159.076      195.96803      197.56284      425.43394    
     16700  -79568.287      427.94153     -79140.346      195.93102      197.54067      425.63035    
     16800  -79541.259      423.02107     -79118.238      195.89462      197.51792      425.82677    
     16900  -79525.13       429.11649     -79096.013      195.8637       197.5008       426.02318    
     17000  -79503.611      428.44162     -79075.169      195.83066      197.48293      426.2196     
     17100  -79487.242      432.40686     -79054.835      195.79536      197.46031      426.41601    
     17200  -79468.301      429.67904     -79038.622      195.76273      197.44209      426.61243    
     17300  -79451.479      426.80292     -79024.676      195.73177      197.42537      426.80884    
     17400  -79434.289      428.30732     -79005.982      195.69958      197.40533      427.00526    
     17500  -79405.469      423.87638     -78981.593      195.66799      197.38717      427.20167    
     17600  -79383.564      427.97833     -78955.585      195.63957      197.37109      427.39809    
     17700  -79366.613      430.02936     -78936.583      195.61107      197.35395      427.5945     
     17800  -79347.535      426.68378     -78920.851      195.58098      197.33628      427.79092    
     17900  -79328.952      425.94704     -78903.005      195.55304      197.31872      427.98733    
     18000  -79310.713      426.14189     -78884.572      195.52733      197.30289      428.18374    
     18100  -79285.892      420.14683     -78865.745      195.5003       197.28632      428.38016    
     18200  -79269.329      423.09784     -78846.231      195.47363      197.2681       428.57657    
     18300  -79250.637      427.11073     -78823.527      195.44943      197.25251      428.77299    
     18400  -79229.935      431.2097      -78798.725      195.42634      197.23771      428.9694     
     18500  -79204.092      428.11575     -78775.976      195.403        197.22069      429.16582    
     18600  -79185.413      425.49732     -78759.916      195.37986      197.20451      429.36223    
     18700  -79169.38       422.54831     -78746.832      195.3586       197.18886      429.55865    
     18800  -79149.16       423.73097     -78725.429      195.33845      197.1726       429.75506    
     18900  -79126.633      426.21466     -78700.418      195.31727      197.15724      429.95148    
     19000  -79103.776      426.00177     -78677.774      195.29911      197.14202      430.14789    
     19100  -79081.989      426.72157     -78655.267      195.28135      197.12675      430.3443     
     19200  -79060.969      428.99968     -78631.969      195.26085      197.11041      430.54072    
     19300  -79039.338      433.22756     -78606.111      195.2443       197.09443      430.73713    
     19400  -79018.016      434.89241     -78583.123      195.22865      197.08167      430.93355    
     19500  -78993.98       424.76574     -78569.214      195.21123      197.06488      431.12996    
     19600  -78984.362      430.78246     -78553.579      195.19475      197.04814      431.32638    
     19700  -78959.596      427.8852      -78531.71       195.18021      197.03542      431.52279    
     19800  -78929.355      423.69553     -78505.659      195.16545      197.01887      431.71921    
     19900  -78908.063      429.45547     -78478.607      195.14824      197.00162      431.91562    
     20000  -78887.528      429.30247     -78458.226      195.13524      196.98823      432.11204    
     20100  -78870.258      421.78788     -78448.47       195.12292      196.97324      432.30845    
     20200  -78852.316      425.08156     -78427.234      195.10605      196.95613      432.50486    
     20300  -78826.553      427.06852     -78399.485      195.09279      196.94088      432.70128    
     20400  -78797.446      424.78264     -78372.663      195.08251      196.9282       432.89769    
     20500  -78774.958      425.82144     -78349.137      195.06823      196.91306      433.09411    
     20600  -78755.886      425.13084     -78330.755      195.05373      196.8962       433.29052    
     20700  -78740.601      423.57675     -78317.025      195.04248      196.88245      433.48694    
     20800  -78719.575      425.94857     -78293.626      195.02984      196.86891      433.68335    
     20900  -78692.879      425.80564     -78267.074      195.01683      196.8533       433.87977    
     21000  -78670.296      427.90486     -78242.391      195.00445      196.83975      434.07618    
     21100  -78647.751      427.6485      -78220.103      194.99252      196.82715      434.2726     
     21200  -78621.282      422.64008     -78198.642      194.98007      196.81232      434.46901    
     21300  -78605.444      427.78643     -78177.657      194.96705      196.79915      434.66542    
     21400  -78584.889      424.25887     -78160.63       194.95671      196.78735      434.86184    
     21500  -78563.867      423.8515      -78140.016      194.94489      196.77388      435.05825    
     21600  -78536.849      426.16351     -78110.685      194.93244      196.76173      435.25467    
     21700  -78510.445      427.5449      -78082.9        194.92196      196.74997      435.45108    
     21800  -78487.275      428.16987     -78059.105      194.90986      196.73802      435.6475     
     21900  -78460.614      422.97112     -78037.643      194.89725      196.72624      435.84391    
     22000  -78444.385      422.23208     -78022.153      194.88689      196.71462      436.04033    
     22100  -78421.758      420.24369     -78001.514      194.87436      196.70398      436.23674    
     22200  -78399.998      427.93493     -77972.063      194.8631       196.69363      436.43316    
     22300  -78369.479      424.83564     -77944.643      194.85208      196.68305      436.62957    
     22400  -78347.295      426.76825     -77920.527      194.83942      196.67378      436.82598    
     22500  -78324.555      427.11818     -77897.437      194.82821      196.66338      437.0224     
     22600  -78301.896      427.34993     -77874.546      194.81493      196.65341      437.21881    
     22700  -78278.884      427.59728     -77851.287      194.80239      196.64433      437.41523    
     22800  -78255.83       430.26348     -77825.567      194.7917       196.6354       437.61164    
     22900  -78229.825      429.6177      -77800.208      194.77892      196.62787      437.80806    
     23000  -78202.342      427.22266     -77775.12       194.76491      196.61741      438.00447    
     23100  -78186.694      433.57459     -77753.119      194.75192      196.60865      438.20089    
     23200  -78156.288      420.89447     -77735.394      194.73982      196.60253      438.3973     
     23300  -78138.116      425.20914     -77712.907      194.72499      196.59203      438.59372    
     23400  -78108.656      427.35546     -77681.301      194.7092       196.58257      438.79013    
     23500  -78082.628      428.92647     -77653.701      194.69822      196.57784      438.98655    
     23600  -78059.142      428.94815     -77630.194      194.68477      196.56941      439.18296    
     23700  -78031.91       423.76803     -77608.142      194.66589      196.55896      439.37937    
     23800  -78012.168      422.68819     -77589.48       194.65319      196.552        439.57579    
     23900  -77995.23       425.06079     -77570.169      194.64021      196.54692      439.7722     
     24000  -77964.944      425.58988     -77539.354      194.62295      196.5377       439.96862    
     24100  -77937.746      428.84701     -77508.899      194.60814      196.52908      440.16503    
     24200  -77911.243      426.94084     -77484.302      194.59532      196.52508      440.36145    
     24300  -77889.041      426.81807     -77462.223      194.57968      196.51686      440.55786    
     24400  -77869.925      426.99867     -77442.927      194.56207      196.50658      440.75428    
     24500  -77842.013      420.382       -77421.631      194.5474       196.50031      440.95069    
     24600  -77819.971      429.80914     -77390.161      194.53436      196.49407      441.14711    
     24700  -77785.073      425.704       -77359.369      194.51807      196.48508      441.34352    
     24800  -77762.146      427.46919     -77334.677      194.50242      196.47683      441.53993    
     24900  -77739.904      425.2068      -77314.697      194.48938      196.4703       441.73635    
     25000  -77714.611      419.64397     -77294.967      194.47452      196.46235      441.93276    
     25100  -77688.396      420.75218     -77267.643      194.45765      196.45169      442.12918    
     25200  -77659.387      426.47352     -77232.913      194.44402      196.44399      442.32559    
     25300  -77637.405      429.76276     -77207.642      194.43183      196.43799      442.52201    
     25400  -77611.127      425.5735      -77185.553      194.41731      196.42791      442.71842    
     25500  -77589.465      424.99939     -77164.466      194.402        196.41832      442.91484    
     25600  -77566.701      425.90572     -77140.795      194.39026      196.41046      443.11125    
     25700  -77533.259      425.32334     -77107.936      194.3774       196.40178      443.30767    
     25800  -77505.708      428.02401     -77077.684      194.36217      196.39047      443.50408    
     25900  -77482.248      428.05672     -77054.192      194.35023      196.38022      443.70049    
     26000  -77455.283      421.04477     -77034.238      194.33856      196.37228      443.89691    
     26100  -77431.728      420.4786      -77011.25       194.32521      196.36007      444.09332    
     26200  -77405.218      426.00042     -76979.217      194.31125      196.34758      444.28974    
     26300  -77375.185      429.20174     -76945.983      194.301        196.33907      444.48615    
     26400  -77348.178      425.40481     -76922.773      194.28971      196.32784      444.68257    
     26500  -77330.265      428.46679     -76901.798      194.27423      196.31302      444.87898    
     26600  -77298.762      420.30429     -76878.458      194.26229      196.30098      445.0754     
     26700  -77275.877      426.60347     -76849.274      194.25392      196.29223      445.27181    
     26800  -77240.627      425.84454     -76814.783      194.24059      196.27912      445.46823    
     26900  -77219.979      431.0991      -76788.88       194.22543      196.26229      445.66464    
     27000  -77191.899      423.75524     -76768.144      194.21524      196.25163      445.86105    
     27100  -77170.67       425.75756     -76744.912      194.20524      196.24059      446.05747    
     27200  -77140.403      422.96773     -76717.436      194.18968      196.22336      446.25388    
     27300  -77112.302      422.63126     -76689.671      194.17668      196.20896      446.4503     
     27400  -77089.433      426.74589     -76662.687      194.16868      196.19873      446.64671    
     27500  -77062.815      428.06558     -76634.75       194.15465      196.18285      446.84313    
     27600  -77036.507      430.26615     -76606.241      194.13934      196.16489      447.03954    
     27700  -77005.644      427.51585     -76578.128      194.12967      196.15266      447.23596    
     27800  -76982.064      429.44381     -76552.62       194.1185       196.13934      447.43237    
     27900  -76960.391      428.9809      -76531.41       194.103        196.12056      447.62879    
     28000  -76932.981      424.15935     -76508.821      194.09034      196.10546      447.8252     
     28100  -76904.072      424.44319     -76479.629      194.08073      196.09352      448.02161    
     28200  -76872.769      428.53857     -76444.23       194.06746      196.07743      448.21803    
     28300  -76844.455      426.99733     -76417.458      194.05296      196.06026      448.41444    
     28400  -76818.859      425.37271     -76393.486      194.04072      196.04518      448.61086    
     28500  -76797.274      426.97508     -76370.299      194.02902      196.0311       448.80727    
     28600  -76773.654      427.41894     -76346.235      194.01569      196.01451      449.00369    
     28700  -76746.174      430.80811     -76315.366      194.00149      195.99764      449.2001     
     28800  -76713.428      432.14566     -76281.283      193.99039      195.98408      449.39652    
     28900  -76684.819      432.1724      -76252.647      193.97885      195.9697       449.59293    
     29000  -76656.112      428.59235     -76227.52       193.96278      195.95143      449.78935    
     29100  -76629.569      421.35277     -76208.217      193.94938      195.93573      449.98576    
     29200  -76601.053      419.01449     -76182.038      193.93844      195.92298      450.18218    
     29300  -76574.055      423.875       -76150.18       193.9244       195.90739      450.37859    
     29400  -76546.322      426.88906     -76119.433      193.90793      195.88945      450.575      
     29500  -76517.77       428.28333     -76089.487      193.8952       195.87521      450.77142    
     29600  -76487.419      428.24999     -76059.169      193.8831       195.86253      450.96783    
     29700  -76458.42       431.47132     -76026.949      193.86576      195.84401      451.16425    
     29800  -76429.306      435.18382     -75994.122      193.84886      195.82697      451.36066    
     29900  -76401.99       432.89087     -75969.099      193.83681      195.81493      451.55708    
     30000  -76378.505      428.05693     -75950.448      193.821        195.7997       451.75349    
     30100  -76349.861      425.19634     -75924.664      193.80213      195.78191      451.94991    
     30200  -76323.765      429.39721     -75894.368      193.78704      195.7676       452.14632    
     30300  -76288.757      428.75353     -75860.004      193.77209      195.75462      452.34274    
     30400  -76259.001      429.02112     -75829.98       193.75299      195.73794      452.53915    
     30500  -76229.877      425.1818      -75804.695      193.73341      195.72065      452.73556    
     30600  -76206.311      427.63052     -75778.681      193.71723      195.70755      452.93198    
     30700  -76178.311      426.41807     -75751.893      193.70006      195.69344      453.12839    
     30800  -76147.803      424.07104     -75723.732      193.67867      195.67557      453.32481    
     30900  -76121.709      426.15778     -75695.552      193.65906      195.66         453.52122    
     31000  -76091.789      425.62279     -75666.166      193.64221      195.64739      453.71764    
     31100  -76062.625      427.12465     -75635.5        193.62231      195.63162      453.91405    
     31200  -76030.855      426.28437     -75604.571      193.59921      195.6135       454.11047    
     31300  -76006.551      430.55422     -75575.997      193.58025      195.59892      454.30688    
     31400  -75980.183      426.96074     -75553.222      193.56304      195.58721      454.5033     
     31500  -75954.195      424.33059     -75529.864      193.5416       195.57025      454.69971    
     31600  -75924.775      426.12229     -75498.652      193.5182       195.55241      454.89612    
     31700  -75887.857      424.85897     -75462.998      193.50017      195.53937      455.09254    
     31800  -75858.908      425.27726     -75433.63       193.48193      195.52688      455.28895    
     31900  -75833.59       426.71499     -75406.875      193.45755      195.5087       455.48537    
     32000  -75811.438      430.41004     -75381.028      193.43579      195.49179      455.68178    
     32100  -75777.661      420.07194     -75357.589      193.41929      195.48119      455.8782     
     32200  -75753.848      423.69227     -75330.156      193.398        195.46545      456.07461    
     32300  -75720.921      428.6984      -75292.223      193.37332      195.44588      456.27103    
     32400  -75688.484      428.81906     -75259.665      193.35465      195.43256      456.46744    
     32500  -75656.087      426.23022     -75229.857      193.33584      195.41907      456.66386    
     32600  -75627.265      425.64182     -75201.623      193.31201      195.40017      456.86027    
     32700  -75604.856      427.66444     -75177.191      193.28941      195.38275      457.05668    
     32800  -75573.008      420.78237     -75152.225      193.27108      195.36952      457.2531     
     32900  -75542.43       424.25841     -75118.172      193.25063      195.35385      457.44951    
     33000  -75513.984      431.31351     -75082.67       193.22663      195.3344       457.64593    
     33100  -75481.613      428.9733      -75052.639      193.20493      195.31695      457.84234    
     33200  -75446.788      422.54411     -75024.244      193.1859       195.30268      458.03876    
     33300  -75425.688      428.30276     -74997.385      193.16458      195.28489      458.23517    
     33400  -75395.991      424.13464     -74971.856      193.1409       195.26529      458.43159    
     33500  -75364.958      422.28861     -74942.669      193.12011      195.24813      458.628      
     33600  -75334.793      428.85156     -74905.942      193.09978      195.2312       458.82442    
     33700  -75301.083      428.16194     -74872.921      193.07652      195.21094      459.02083    
     33800  -75271.945      427.246       -74844.699      193.05282      195.18979      459.21724    
     33900  -75249.98       430.20756     -74819.772      193.03213      195.17202      459.41366    
     34000  -75217.572      419.45526     -74798.117      193.01094      195.1534       459.61007    
     34100  -75189.603      420.89341     -74768.71       192.98648      195.13109      459.80649    
     34200  -75156.473      428.59802     -74727.875      192.96511      195.11059      460.0029     
     34300  -75121.88       426.5288      -74695.351      192.94625      195.09358      460.19932    
     34400  -75093.576      429.21126     -74664.364      192.9239       195.07153      460.39573    
     34500  -75060.98       423.78768     -74637.192      192.89938      195.04726      460.59215    
     34600  -75034.775      421.89951     -74612.876      192.87911      195.02718      460.78856    
     34700  -75009.912      424.43079     -74585.481      192.86037      195.00779      460.98498    
     34800  -74973.893      425.59682     -74548.296      192.83779      194.9846       461.18139    
     34900  -74942.68       429.04564     -74513.634      192.81559      194.96146      461.37781    
     35000  -74916.713      431.05883     -74485.654      192.79716      194.94126      461.57422    
     35100  -74887.635      427.17997     -74460.455      192.77621      194.91919      461.77063    
     35200  -74857.577      422.3461      -74435.231      192.75404      194.89374      461.96705    
     35300  -74833.475      423.46682     -74410.008      192.73366      194.87168      462.16346    
     35400  -74799.234      422.74941     -74376.484      192.71545      194.85062      462.35988    
     35500  -74765.64       427.96451     -74337.675      192.694        194.82607      462.55629    
     35600  -74730.449      427.2929      -74303.156      192.67225      194.80177      462.75271    
     35700  -74702.431      430.59948     -74271.832      192.65517      194.78046      462.94912    
     35800  -74672.06       429.22482     -74242.835      192.63495      194.75765      463.14554    
     35900  -74646.046      428.60147     -74217.445      192.61325      194.73182      463.34195    
     36000  -74612.119      421.57094     -74190.548      192.59204      194.70722      463.53837    
     36100  -74580.284      426.60436     -74153.679      192.57328      194.68497      463.73478    
     36200  -74547.604      429.6547      -74117.95       192.55411      194.66198      463.93119    
     36300  -74514.421      427.20694     -74087.214      192.53168      194.63631      464.12761    
     36400  -74486.498      427.86684     -74058.631      192.51039      194.61142      464.32402    
     36500  -74453.876      421.59558     -74032.281      192.49131      194.58906      464.52044    
     36600  -74431.492      425.74138     -74005.75       192.46998      194.56467      464.71685    
     36700  -74394.649      424.78132     -73969.868      192.44626      194.53752      464.91327    
     36800  -74361.266      428.12743     -73933.138      192.42542      194.51429      465.10968    
     36900  -74329.854      427.87754     -73901.977      192.40597      194.49146      465.3061     
     37000  -74299.552      426.60668     -73872.946      192.38191      194.46575      465.50251    
     37100  -74270.814      422.91778     -73847.896      192.35792      194.4395       465.69893    
     37200  -74241.57       418.50379     -73823.067      192.33743      194.41785      465.89534    
     37300  -74209.729      422.61871     -73787.11       192.31514      194.39402      466.09175    
     37400  -74176.246      424.9655      -73751.281      192.28963      194.36722      466.28817    
     37500  -74148.856      430.60411     -73718.252      192.26714      194.34435      466.48458    
     37600  -74113.123      426.28763     -73686.835      192.24672      194.32322      466.681      
     37700  -74084.549      428.33368     -73656.215      192.22121      194.29761      466.87741    
     37800  -74054.787      427.39451     -73627.392      192.19527      194.27198      467.07383    
     37900  -74027.703      426.44622     -73601.257      192.17425      194.25121      467.27024    
     38000  -73995.24       424.12746     -73571.112      192.15042      194.22854      467.46666    
     38100  -73960.012      427.61525     -73532.397      192.12351      194.20237      467.66307    
     38200  -73925.265      427.40687     -73497.858      192.10004      194.18088      467.85949    
     38300  -73899.486      430.79713     -73468.689      192.07921      194.16136      468.0559     
     38400  -73866.877      425.4648      -73441.412      192.05332      194.13801      468.25231    
     38500  -73835.956      419.59132     -73416.364      192.02571      194.113        468.44873    
     38600  -73811.538      421.03059     -73390.508      192.00317      194.09251      468.64514    
     38700  -73773.539      422.17984     -73351.359      191.98102      194.07364      468.84156    
     38800  -73739.93       426.00028     -73313.93       191.95558      194.05048      469.03797    
     38900  -73707.918      428.95766     -73278.96       191.92827      194.027        469.23439    
     39000  -73672.464      426.90046     -73245.563      191.90562      194.00713      469.4308     
     39100  -73641.187      427.31503     -73213.872      191.88287      193.98851      469.62722    
     39200  -73612.184      423.9837      -73188.2        191.85581      193.96603      469.82363    
     39300  -73587.152      425.15759     -73161.994      191.82819      193.9424       470.02005    
     39400  -73552.609      425.48222     -73127.127      191.80477      193.92363      470.21646    
     39500  -73517.823      428.58189     -73089.241      191.78216      193.90557      470.41287    
     39600  -73484.211      427.14642     -73057.065      191.75438      193.88347      470.60929    
     39700  -73451.621      425.26322     -73026.358      191.72632      193.86039      470.8057     
     39800  -73426.633      427.57426     -72999.059      191.70344      193.84352      471.00212    
     39900  -73391.281      419.35575     -72971.925      191.67857      193.82412      471.19853    
     40000  -73364.709      427.32083     -72937.388      191.64824      193.79935      471.39495    
     40100  -73324.629      427.15409     -72897.475      191.62171      193.77922      471.59136    
     40200  -73294.441      429.54564     -72864.896      191.60012      193.76286      471.78778    
     40300  -73263.626      426.55444     -72837.072      191.57298      193.74175      471.98419    
     40400  -73234.85       423.90431     -72810.946      191.54268      193.71688      472.18061    
     40500  -73205.783      424.02001     -72781.763      191.51811      193.69835      472.37702    
     40600  -73167.753      424.10629     -72743.647      191.49615      193.68229      472.57344    
     40700  -73137.853      432.11294     -72705.74       191.46747      193.65879      472.76985    
     40800  -73101.643      427.24633     -72674.397      191.43792      193.6345       472.96626    
     40900  -73077.84       429.08384     -72648.756      191.41559      193.61732      473.16268    
     41000  -73044.493      423.98035     -72620.513      191.39354      193.60008      473.35909    
     41100  -73010.363      423.72723     -72586.636      191.36576      193.57654      473.55551    
     41200  -72975.471      427.7679      -72547.704      191.33919      193.55371      473.75192    
     41300  -72942.11       430.64653     -72511.464      191.31823      193.53732      473.94834    
     41400  -72910.784      428.43548     -72482.349      191.29632      193.51764      474.14475    
     41500  -72880.479      424.97152     -72455.507      191.26776      193.49272      474.34117    
     41600  -72850.427      423.22254     -72427.204      191.24338      193.47037      474.53758    
     41700  -72817.598      423.082       -72394.516      191.22464      193.45427      474.734      
     41800  -72786.033      431.99933     -72354.034      191.20276      193.43441      474.93041    
     41900  -72750.941      430.79916     -72320.142      191.17702      193.40959      475.12682    
     42000  -72720.453      428.87148     -72291.582      191.15476      193.3887       475.32324    
     42100  -72692.078      428.53417     -72263.544      191.13739      193.37184      475.51965    
     42200  -72655.854      423.9474      -72231.907      191.11548      193.35083      475.71607    
     42300  -72627.218      429.97684     -72197.241      191.09003      193.32462      475.91248    
     42400  -72590.633      426.47297     -72164.16       191.07047      193.30437      476.1089     
     42500  -72560.085      428.72048     -72131.365      191.05423      193.28812      476.30531    
     42600  -72526.21       428.59987     -72097.61       191.03305      193.26537      476.50173    
     42700  -72492.467      429.87242     -72062.595      191.00855      193.23965      476.69814    
     42800  -72460.787      432.77581     -72028.011      190.99105      193.22043      476.89456    
     42900  -72427.557      427.62822     -71999.929      190.97582      193.20314      477.09097    
     43000  -72400.777      426.7536      -71974.023      190.95209      193.1773       477.28738    
     43100  -72366.009      424.26158     -71941.748      190.9287       193.15087      477.4838     
     43200  -72333.355      428.85571     -71904.499      190.91381      193.13444      477.68021    
     43300  -72290.722      426.18707     -71864.535      190.89789      193.11516      477.87663    
     43400  -72264.815      432.51155     -71832.303      190.87291      193.08726      478.07304    
     43500  -72229.041      425.08593     -71803.955      190.85192      193.06364      478.26946    
     43600  -72200.692      423.9638      -71776.728      190.83847      193.04609      478.46587    
     43700  -72171.575      425.24849     -71746.326      190.81967      193.02486      478.66229    
     43800  -72135.534      423.30534     -71712.229      190.79679      192.99721      478.8587     
     43900  -72100.331      428.83669     -71671.495      190.7785       192.97622      479.05512    
     44000  -72071.376      433.34196     -71638.034      190.76557      192.95904      479.25153    
     44100  -72037.632      425.32752     -71612.304      190.74629      192.936        479.44794    
     44200  -72010.086      427.30441     -71582.782      190.72423      192.91054      479.64436    
     44300  -71981.276      430.94154     -71550.335      190.70867      192.89021      479.84077    
     44400  -71936.292      420.07139     -71516.221      190.69379      192.87278      480.03719    
     44500  -71908.644      429.04994     -71479.594      190.67532      192.84955      480.2336     
     44600  -71878.063      435.74299     -71442.32       190.65492      192.82621      480.43002    
     44700  -71845.236      431.75228     -71413.483      190.63998      192.8066       480.62643    
     44800  -71812.532      423.97763     -71388.554      190.62545      192.78831      480.82285    
     44900  -71784.63       429.37697     -71355.253      190.60685      192.7664       481.01926    
     45000  -71749.328      430.30831     -71319.02       190.58922      192.74453      481.21568    
     45100  -71713.675      432.15024     -71281.525      190.57466      192.72719      481.41209    
     45200  -71674.977      430.12269     -71244.855      190.56016      192.70875      481.6085     
     45300  -71646.149      432.01941     -71214.13       190.54142      192.68788      481.80492    
     45400  -71618.12       428.36166     -71189.759      190.52438      192.66823      482.00133    
     45500  -71581.1        421.24851     -71159.852      190.51069      192.65193      482.19775    
     45600  -71552.221      427.22106     -71125          190.49375      192.63381      482.39416    
     45700  -71514.351      428.64531     -71085.706      190.47483      192.61235      482.59058    
     45800  -71480.225      431.64842     -71048.577      190.45732      192.59446      482.78699    
     45900  -71445.101      425.84808     -71019.253      190.44284      192.57868      482.98341    
     46000  -71419.569      424.14624     -70995.423      190.42526      192.56054      483.17982    
     46100  -71385.281      424.24007     -70961.041      190.4053       192.5411       483.37624    
     46200  -71346.761      423.3528      -70923.408      190.38868      192.5241       483.57265    
     46300  -71310.448      424.30327     -70886.144      190.37227      192.50925      483.76907    
     46400  -71282.52       428.70777     -70853.812      190.3536       192.49118      483.96548    
     46500  -71257.832      428.17127     -70829.661      190.33413      192.47354      484.16189    
     46600  -71219.602      421.6238      -70797.978      190.31659      192.45819      484.35831    
     46700  -71188.737      427.84277     -70760.894      190.29985      192.44292      484.55472    
     46800  -71151.473      427.78314     -70723.69       190.28054      192.42687      484.75114    
     46900  -71122.504      431.98386     -70690.52       190.26119      192.40966      484.94755    
     47000  -71088.245      421.25193     -70666.993      190.24399      192.39601      485.14397    
     47100  -71060.764      425.45433     -70635.309      190.22614      192.38134      485.34038    
     47200  -71025.015      427.65794     -70597.357      190.20638      192.36492      485.5368     
     47300  -70984.668      426.08863     -70558.579      190.18749      192.3498       485.73321    
     47400  -70952.228      427.65804     -70524.57       190.1707       192.33628      485.92963    
     47500  -70924.393      429.0508      -70495.342      190.15238      192.3231       486.12604    
     47600  -70897.75       428.09462     -70469.655      190.13327      192.30685      486.32245    
     47700  -70861.251      424.10204     -70437.149      190.11478      192.29326      486.51887    
     47800  -70824.253      424.41859     -70399.834      190.09914      192.2807       486.71528    
     47900  -70787.478      426.31574     -70361.163      190.08021      192.26641      486.9117     
     48000  -70757.151      430.50469     -70326.646      190.0606       192.25123      487.10811    
     48100  -70724.001      425.26596     -70298.735      190.04482      192.23876      487.30453    
     48200  -70690.993      420.93157     -70270.062      190.02862      192.22815      487.50094    
     48300  -70661.761      426.89747     -70234.863      190.01091      192.21279      487.69736    
     48400  -70627.057      428.44006     -70198.617      189.99178      192.19977      487.89377    
     48500  -70593.083      429.47942     -70163.603      189.9781       192.18913      488.09019    
     48600  -70555.737      425.88531     -70129.852      189.96165      192.17734      488.2866     
     48700  -70523.048      426.74677     -70096.301      189.94103      192.16045      488.48301    
     48800  -70489.494      426.68062     -70062.814      189.9237       192.14681      488.67943    
     48900  -70457.676      428.15789     -70029.519      189.90985      192.13802      488.87584    
     49000  -70422.924      427.33416     -69995.589      189.89246      192.12372      489.07226    
     49100  -70389.839      428.27286     -69961.566      189.87144      192.10789      489.26867    
     49200  -70356.705      428.93816     -69927.767      189.8561       192.09591      489.46509    
     49300  -70320.645      422.61383     -69898.031      189.84174      192.0856       489.6615     
     49400  -70294.287      425.01086     -69869.276      189.823        192.07057      489.85792    
     49500  -70257.854      423.78992     -69834.064      189.804        192.05526      490.05433    
     49600  -70220.999      429.22032     -69791.779      189.78897      192.04457      490.25075    
     49700  -70186.088      429.31367     -69756.775      189.77401      192.03215      490.44716    
     49800  -70156.412      430.0486      -69726.363      189.75479      192.0169       490.64357    
     49900  -70124.199      427.56175     -69696.637      189.73872      192.00304      490.83999    
     50000  -70094.601      430.65959     -69663.941      189.72458      191.99182      491.0364     
     50100  -70058.293      426.96607     -69631.327      189.70771      191.97752      491.23282    
     50200  -70022.172      420.74698     -69601.425      189.68948      191.96123      491.42923    
     50300  -69993.014      418.69674     -69574.317      189.67423      191.94761      491.62565    
     50400  -69959.567      422.14167     -69537.425      189.66094      191.93617      491.82206    
     50500  -69921.63       425.9747      -69495.655      189.64515      191.92119      492.01848    
     50600  -69892.036      432.02518     -69460.011      189.62698      191.90401      492.21489    
     50700  -69855.842      428.93457     -69426.908      189.61329      191.89052      492.41131    
     50800  -69822.242      423.72125     -69398.521      189.60269      191.87994      492.60772    
     50900  -69792.395      425.03095     -69367.364      189.58725      191.8642       492.80414    
     51000  -69752.851      421.28752     -69331.563      189.57106      191.84688      493.00055    
     51100  -69716.833      431.51142     -69285.321      189.55865      191.83406      493.19696    
     51200  -69685.861      434.39428     -69251.467      189.54728      191.82104      493.39338    
     51300  -69656.753      432.74749     -69224.006      189.53231      191.80449      493.58979    
     51400  -69617.796      423.64542     -69194.151      189.51873      191.78839      493.78621    
     51500  -69590.019      428.56456     -69161.454      189.50778      191.77551      493.98262    
     51600  -69554.233      427.35771     -69126.875      189.49643      191.76102      494.17904    
     51700  -69518.481      429.53791     -69088.943      189.48138      191.74372      494.37545    
     51800  -69482.584      433.17154     -69049.412      189.46823      191.72757      494.57187    
     51900  -69444.49       427.86992     -69016.62       189.45787      191.71415      494.76828    
     52000  -69420.674      430.91603     -68989.758      189.44565      191.69904      494.9647     
     52100  -69379.29       422.33787     -68956.952      189.43179      191.68163      495.16111    
     52200  -69346.925      425.21469     -68921.71       189.41883      191.66593      495.35752    
     52300  -69314.313      430.10854     -68884.204      189.40766      191.65183      495.55394    
     52400  -69278.181      432.79123     -68845.39       189.39631      191.63647      495.75035    
     52500  -69245.854      431.59828     -68814.256      189.38286      191.62022      495.94677    
     52600  -69211.397      424.92311     -68786.474      189.36939      191.60272      496.14318    
     52700  -69180.154      426.82206     -68753.332      189.35753      191.58819      496.3396     
     52800  -69146.566      427.01664     -68719.55       189.34643      191.57281      496.53601    
     52900  -69115.44       427.00934     -68688.431      189.33276      191.55565      496.73243    
     53000  -69077.765      418.19827     -68659.566      189.31915      191.53932      496.92884    
     53100  -69045.516      421.98593     -68623.53       189.30764      191.52382      497.12526    
     53200  -69007.261      428.30514     -68578.956      189.29458      191.5088       497.32167    
     53300  -68970.606      428.27181     -68542.334      189.28104      191.49116      497.51808    
     53400  -68938.232      426.09259     -68512.14       189.267        191.47502      497.7145     
     53500  -68911.545      429.40924     -68482.136      189.25528      191.45963      497.91091    
     53600  -68878.086      429.28951     -68448.796      189.24334      191.44473      498.10733    
     53700  -68842.316      427.59426     -68414.722      189.22967      191.42785      498.30374    
     53800  -68807.106      426.17577     -68380.93       189.21666      191.41127      498.50016    
     53900  -68774.42       422.91868     -68351.501      189.20449      191.39703      498.69657    
     54000  -68741.269      424.00021     -68317.269      189.19312      191.38223      498.89299    
     54100  -68701.838      424.43487     -68277.403      189.17916      191.36599      499.0894     
     54200  -68666.405      431.24822     -68235.157      189.16562      191.34987      499.28582    
     54300  -68628.959      428.17326     -68200.785      189.15466      191.33651      499.48223    
     54400  -68598.339      425.70829     -68172.631      189.1434       191.32318      499.67864    
     54500  -68570.28       431.23347     -68139.047      189.12896      191.30618      499.87506    
     54600  -68532.25       427.32641     -68104.924      189.11418      191.28932      500.07147    
     54700  -68497.54       425.79679     -68071.743      189.1034       191.27732      500.26789    
     54800  -68465.293      425.99455     -68039.299      189.09177      191.26348      500.4643     
     54900  -68432.843      425.03979     -68007.803      189.07462      191.24569      500.66072    
     55000  -68396.51       424.84095     -67971.669      189.06055      191.22996      500.85713    
     55100  -68357.285      429.40469     -67927.881      189.05065      191.21969      501.05355    
     55200  -68321.822      432.20746     -67889.614      189.037        191.20531      501.24996    
     55300  -68287.157      427.08719     -67860.069      189.019        191.1872       501.44638    
     55400  -68255.458      427.45351     -67828.004      189.0051       191.17416      501.64279    
     55500  -68223.627      429.50338     -67794.124      188.99406      191.16227      501.8392     
     55600  -68186.866      424.95468     -67761.911      188.97754      191.14777      502.03562    
     55700  -68156.007      426.67599     -67729.331      188.95967      191.12995      502.23203    
     55800  -68121.137      427.55165     -67693.585      188.94513      191.11701      502.42845    
     55900  -68084.276      427.16474     -67657.111      188.93329      191.10664      502.62486    
     56000  -68049.886      427.95197     -67621.934      188.91689      191.09118      502.82128    
     56100  -68014.324      425.38596     -67588.938      188.89693      191.07474      503.01769    
     56200  -67981.7        425.25517     -67556.445      188.88202      191.06086      503.21411    
     56300  -67944.907      421.81104     -67523.096      188.86744      191.04962      503.41052    
     56400  -67915.625      422.64053     -67492.984      188.85107      191.03464      503.60694    
     56500  -67881.056      420.98092     -67460.075      188.83241      191.01926      503.80335    
     56600  -67843.853      425.42521     -67418.427      188.81641      191.00522      503.99977    
     56700  -67806.057      428.07693     -67377.98       188.80202      190.9932       504.19618    
     56800  -67772.187      429.36293     -67342.824      188.78567      190.98019      504.39259    
     56900  -67738.234      428.12735     -67310.107      188.76768      190.96408      504.58901    
     57000  -67706.311      429.49107     -67276.82       188.75096      190.95103      504.78542    
     57100  -67670.143      428.50603     -67241.637      188.73689      190.93891      504.98184    
     57200  -67634.988      428.59795     -67206.39       188.7198       190.92563      505.17825    
     57300  -67597.431      426.2397      -67171.191      188.70229      190.91042      505.37467    
     57400  -67561.858      426.33419     -67135.524      188.68662      190.89804      505.57108    
     57500  -67531.035      431.10053     -67099.934      188.67265      190.88588      505.7675     
     57600  -67495.587      429.30846     -67066.279      188.6553       190.87161      505.96391    
     57700  -67461.14       428.87074     -67032.27       188.63756      190.85614      506.16033    
     57800  -67427.43       430.86067     -66996.569      188.62169      190.84321      506.35674    
     57900  -67391.509      431.96485     -66959.544      188.60647      190.83084      506.55315    
     58000  -67351.68       428.47567     -66923.204      188.58855      190.81577      506.74957    
     58100  -67315.722      427.43079     -66888.292      188.57024      190.80051      506.94598    
     58200  -67282.9        427.16075     -66855.739      188.55544      190.78834      507.1424     
     58300  -67251.219      431.24072     -66819.979      188.53893      190.77579      507.33881    
     58400  -67210.557      427.3259      -66783.231      188.52062      190.75909      507.53523    
     58500  -67172.14       423.98517     -66748.154      188.50367      190.74583      507.73164    
     58600  -67144.116      428.4391      -66715.677      188.48779      190.73289      507.92806    
     58700  -67106.438      425.83786     -66680.6        188.47091      190.71837      508.12447    
     58800  -67072.837      429.92669     -66642.911      188.45168      190.7027       508.32089    
     58900  -67032.605      425.67309     -66606.932      188.43372      190.68667      508.5173     
     59000  -67000.619      426.65883     -66573.96       188.41746      190.67341      508.71371    
     59100  -66962.752      422.50562     -66540.246      188.40137      190.65966      508.91013    
     59200  -66929.322      427.45602     -66501.865      188.38184      190.64236      509.10654    
     59300  -66892.941      428.81911     -66464.122      188.36329      190.62585      509.30296    
     59400  -66860.86       430.73311     -66430.127      188.3476       190.61182      509.49937    
     59500  -66826.137      427.17465     -66398.963      188.33106      190.5973       509.69579    
     59600  -66789.948      429.11714     -66360.83       188.31225      190.57986      509.8922     
     59700  -66749.935      428.34211     -66321.593      188.29464      190.56314      510.08862    
     59800  -66715.98       428.33356     -66287.646      188.27869      190.54867      510.28503    
     59900  -66684.42       429.39431     -66255.026      188.26348      190.53353      510.48145    
     60000  -66642.885      425.37708     -66217.508      188.24615      190.51759      510.67786    
     60100  -66608.317      428.98259     -66179.334      188.2288       190.49988      510.87427    
     60200  -66578.608      433.25573     -66145.353      188.21284      190.4847       511.07069    
     60300  -66539.84       427.09929     -66112.74       188.19782      190.46902      511.2671     
     60400  -66496.997      423.62361     -66073.373      188.18072      190.4518       511.46352    
     60500  -66461.934      428.67006     -66033.264      188.16393      190.4341       511.65993    
     60600  -66425.631      429.82053     -65995.81       188.14751      190.41666      511.85635    
     60700  -66392.255      427.25833     -65964.997      188.13155      190.40076      512.05276    
     60800  -66356.558      430.99802     -65925.56       188.11643      190.38386      512.24918    
     60900  -66317.661      431.66168     -65886          188.09958      190.36644      512.44559    
     61000  -66275.983      425.02061     -65850.962      188.08311      190.34889      512.64201    
     61100  -66244.319      427.99643     -65816.322      188.0675       190.33159      512.83842    
     61200  -66204.578      427.4593      -65777.119      188.05192      190.31525      513.03483    
     61300  -66170.769      433.07468     -65737.695      188.03483      190.29633      513.23125    
     61400  -66128.875      427.23613     -65701.638      188.01791      190.27742      513.42766    
     61500  -66087.836      422.83949     -65664.997      188.002        190.26065      513.62408    
     61600  -66054.495      428.31396     -65626.181      187.98569      190.24135      513.82049    
     61700  -66021.446      431.45264     -65589.994      187.96775      190.22269      514.01691    
     61800  -65985.072      431.95765     -65553.114      187.95328      190.20547      514.21332    
     61900  -65944.969      429.92163     -65515.047      187.93619      190.18659      514.40974    
     62000  -65904.329      428.4127      -65475.916      187.91796      190.16664      514.60615    
     62100  -65868.554      429.86322     -65438.691      187.90216      190.14781      514.80257    
     62200  -65832.43       432.01192     -65400.418      187.885        190.13004      514.99898    
     62300  -65792.571      429.50482     -65363.066      187.86899      190.11085      515.1954     
     62400  -65751.88       426.23806     -65325.642      187.85116      190.09098      515.39181    
     62500  -65720.898      432.64453     -65288.253      187.83273      190.07099      515.58822    
     62600  -65682.479      433.03941     -65249.44       187.81767      190.05205      515.78464    
     62700  -65637.665      426.22736     -65211.437      187.80088      190.03416      515.98105    
     62800  -65600.297      427.9161      -65172.381      187.78334      190.01395      516.17747    
     62900  -65564.701      430.07954     -65134.621      187.76773      189.99471      516.37388    
     63000  -65526.328      430.04427     -65096.284      187.75096      189.97703      516.5703     
     63100  -65485.935      427.82053     -65058.114      187.73495      189.9565       516.76671    
     63200  -65450.479      430.97391     -65019.505      187.71734      189.93755      516.96313    
     63300  -65410.508      429.61399     -64980.894      187.70103      189.91829      517.15954    
     63400  -65370.261      428.05125     -64942.21       187.68501      189.89916      517.35596    
     63500  -65330.726      429.31868     -64901.407      187.66681      189.87961      517.55237    
     63600  -65288.113      427.26649     -64860.846      187.65053      189.85969      517.74878    
     63700  -65248.153      427.3922      -64820.761      187.63385      189.8406       517.9452     
     63800  -65210.262      429.7088      -64780.553      187.61572      189.82081      518.14161    
     63900  -65173.324      431.92675     -64741.397      187.59966      189.8016       518.33803    
     64000  -65130.749      429.75485     -64700.994      187.58225      189.78337      518.53444    
     64100  -65089.232      427.43808     -64661.794      187.56478      189.76332      518.73086    
     64200  -65049.77       428.29937     -64621.471      187.5457       189.74247      518.92727    
     64300  -65012.846      430.75772     -64582.089      187.52829      189.72393      519.12369    
     64400  -64974.622      432.14983     -64542.472      187.51284      189.70674      519.3201     
     64500  -64931.528      430.02882     -64501.499      187.49366      189.68691      519.51652    
     64600  -64891.03       431.14122     -64459.889      187.47319      189.66522      519.71293    
     64700  -64849.577      430.78546     -64418.792      187.45626      189.64757      519.90934    
     64800  -64806.215      428.20562     -64378.01       187.43975      189.63044      520.10576    
     64900  -64766.344      429.50612     -64336.837      187.419        189.6088       520.30217    
     65000  -64720.185      424.47061     -64295.715      187.39893      189.5889       520.49859    
     65100  -64684.9        430.11161     -64254.788      187.38282      189.57251      520.695      
     65200  -64644.867      431.4864      -64213.38       187.36419      189.55322      520.89142    
     65300  -64600.975      429.02683     -64171.948      187.34283      189.53272      521.08783    
     65400  -64557.509      427.19577     -64130.313      187.32525      189.51436      521.28425    
     65500  -64523.438      434.57265     -64088.866      187.30792      189.49754      521.48066    
     65600  -64474.249      428.62969     -64045.62       187.28815      189.47844      521.67708    
     65700  -64427.922      425.15609     -64002.766      187.26919      189.45866      521.87349    
     65800  -64388.61       429.02072     -63959.59       187.25023      189.44104      522.0699     
     65900  -64347.799      430.96513     -63916.834      187.23243      189.4233       522.26632    
     66000  -64302.295      428.71056     -63873.584      187.214        189.4045       522.46273    
     66100  -64262.588      431.87055     -63830.717      187.19364      189.3856       522.65915    
     66200  -64216.296      429.14552     -63787.15       187.17561      189.36846      522.85556    
     66300  -64165.602      423.68996     -63741.912      187.15919      189.35152      523.05198    
     66400  -64131.212      432.52126     -63698.691      187.13843      189.33297      523.24839    
     66500  -64089.675      433.75952     -63655.916      187.11941      189.31412      523.44481    
     66600  -64042.868      431.46453     -63611.404      187.10222      189.29818      523.64122    
     66700  -63995.061      428.30384     -63566.757      187.08346      189.28109      523.83764    
     66800  -63955.447      433.46193     -63521.985      187.06332      189.26141      524.03405    
     66900  -63904.919      426.64982     -63478.269      187.04519      189.24535      524.23046    
     67000  -63866.257      432.33823     -63433.919      187.02686      189.2289       524.42688    
     67100  -63817.811      428.90723     -63388.904      187.00688      189.20985      524.62329    
     67200  -63780.665      437.11914     -63343.546      186.98772      189.19351      524.81971    
     67300  -63729.298      431.7546      -63297.544      186.97137      189.17858      525.01612    
     67400  -63679.146      428.50426     -63250.642      186.95029      189.15941      525.21254    
     67500  -63635.872      432.63786     -63203.234      186.92955      189.14191      525.40895    
     67600  -63591.505      434.53295     -63156.972      186.91412      189.12738      525.60537    
     67700  -63542.38       431.20597     -63111.174      186.89529      189.11066      525.80178    
     67800  -63495.781      429.5759      -63066.205      186.87428      189.09293      525.9982     
     67900  -63455.233      433.94363     -63021.289      186.8575       189.07682      526.19461    
     68000  -63407.341      432.68702     -62974.654      186.83959      189.06216      526.39103    
     68100  -63359.025      429.85344     -62929.171      186.82117      189.0453       526.58744    
     68200  -63314.337      432.20431     -62882.132      186.80278      189.02848      526.78385    
     68300  -63262.216      428.81107     -62833.405      186.78489      189.01325      526.98027    
     68400  -63213.926      428.63252     -62785.293      186.7682       188.99768      527.17668    
     68500  -63168.745      431.71949     -62737.025      186.75108      188.9821       527.3731     
     68600  -63122.141      433.61407     -62688.527      186.73333      188.96613      527.56951    
     68700  -63068.496      428.19864     -62640.297      186.71609      188.94999      527.76593    
     68800  -63023.469      430.60986     -62592.859      186.70007      188.93538      527.96234    
     68900  -62974.107      430.83171     -62543.275      186.68414      188.92065      528.15876    
     69000  -62928.107      435.97393     -62492.133      186.66667      188.90464      528.35517    
     69100  -62874.849      431.57642     -62443.273      186.65082      188.8899       528.55159    
     69200  -62830.246      435.82981     -62394.417      186.63541      188.8758       528.748      
     69300  -62778.001      433.69523     -62344.306      186.61916      188.86021      528.94441    
     69400  -62727.704      433.17874     -62294.526      186.6038       188.84581      529.14083    
     69500  -62670.599      425.09903     -62245.5        186.58923      188.83221      529.33724    
     69600  -62632.975      437.72842     -62195.246      186.57355      188.81727      529.53366    
     69700  -62581.857      436.43839     -62145.418      186.55769      188.80216      529.73007    
     69800  -62527.769      433.23653     -62094.533      186.54357      188.78861      529.92649    
     69900  -62477.071      434.41154     -62042.659      186.52944      188.7752       530.1229     
     70000  -62423.878      433.84947     -61990.028      186.51338      188.75957      530.31932    
     70100  -62372.588      434.42868     -61938.159      186.49888      188.74523      530.51573    
     70200  -62322.4        436.55657     -61885.843      186.48651      188.73355      530.71215    
     70300  -62270.115      436.79066     -61833.324      186.472        188.71896      530.90856    
     70400  -62217.472      434.33039     -61783.142      186.45711      188.70411      531.10497    
     70500  -62167.22       435.8396      -61731.38       186.4448       188.69166      531.30139    
     70600  -62115.778      435.78339     -61679.995      186.4327       188.67925      531.4978     
     70700  -62065.449      436.14987     -61629.299      186.41826      188.66456      531.69422    
     70800  -62008.549      431.99238     -61576.557      186.40565      188.65138      531.89063    
     70900  -61961.617      438.75057     -61522.866      186.39427      188.63977      532.08705    
     71000  -61902.494      434.14771     -61468.346      186.38148      188.62597      532.28346    
     71100  -61850.506      435.09227     -61415.414      186.36865      188.61223      532.47988    
     71200  -61794.848      434.99581     -61359.852      186.358        188.60095      532.67629    
     71300  -61746.683      439.05414     -61307.629      186.34677      188.58822      532.87271    
     71400  -61689.045      436.25227     -61252.793      186.33378      188.57435      533.06912    
     71500  -61637.187      436.90826     -61200.278      186.32349      188.56281      533.26553    
     71600  -61586.066      441.51229     -61144.554      186.31431      188.55195      533.46195    
     71700  -61525.657      435.92445     -61089.732      186.30166      188.53849      533.65836    
     71800  -61475.866      441.60437     -61034.261      186.29011      188.52489      533.85478    
     71900  -61416.463      440.46482     -60975.998      186.28183      188.51556      534.05119    
     72000  -61360.496      438.41085     -60922.085      186.2722       188.50473      534.24761    
     72100  -61312.274      444.40284     -60867.871      186.25959      188.48995      534.44402    
     72200  -61259.109      447.35637     -60811.752      186.24915      188.47884      534.64044    
     72300  -61198.311      446.34452     -60751.967      186.24187      188.4698       534.83685    
     72400  -61140.321      442.51962     -60697.801      186.23091      188.45706      535.03327    
     72500  -61086.171      447.3725      -60638.799      186.21888      188.4441       535.22968    
     72600  -61028.531      447.94371     -60580.587      186.21073      188.43402      535.42609    
     72700  -60966.191      443.90625     -60522.284      186.20197      188.42386      535.62251    
     72800  -60908.291      443.90109     -60464.39       186.19048      188.41135      535.81892    
     72900  -60851.607      447.17067     -60404.436      186.18075      188.39979      536.01534    
     73000  -60802.394      453.33807     -60349.056      186.17266      188.39053      536.21175    
     73100  -60737.543      448.57864     -60288.964      186.16279      188.3794       536.40817    
     73200  -60681.776      450.87531     -60230.901      186.15232      188.36721      536.60458    
     73300  -60624.414      451.14194     -60173.272      186.14383      188.35776      536.801      
     73400  -60562.505      450.2505      -60112.254      186.13551      188.34778      536.99741    
     73500  -60507.964      453.19471     -60054.769      186.1254       188.33613      537.19383    
     73600  -60443.081      449.38163     -59993.699      186.11558      188.32525      537.39024    
     73700  -60391.813      454.50671     -59937.307      186.10774      188.31572      537.58666    
     73800  -60326.764      454.26464     -59872.499      186.09895      188.3056       537.78307    
     73900  -60272.936      457.00263     -59815.934      186.08872      188.29429      537.97948    
     74000  -60213.621      462.21367     -59751.408      186.08006      188.28382      538.1759     
     74100  -60150.463      461.445       -59689.018      186.07136      188.2745       538.37231    
     74200  -60089.337      464.86849     -59624.468      186.06233      188.2635       538.56873    
     74300  -60026.252      465.02495     -59561.227      186.05267      188.25291      538.76514    
     74400  -59961.726      462.25041     -59499.475      186.0439       188.24336      538.96156    
     74500  -59900.997      463.64515     -59437.351      186.03529      188.23294      539.15797    
     74600  -59847.053      466.85989     -59380.193      186.0255       188.22272      539.35439    
     74700  -59785.978      466.52843     -59319.45       186.0163       188.21227      539.5508     
     74800  -59717.024      464.37919     -59252.645      186.00733      188.20213      539.74722    
     74900  -59656.779      469.89579     -59186.883      185.9976       188.19215      539.94363    
     75000  -59595.062      470.24176     -59124.821      185.98812      188.18107      540.14004    
     75100  -59536.692      475.44405     -59061.248      185.97829      188.17094      540.33646    
     75200  -59473.202      480.05106     -58993.151      185.96925      188.16121      540.53287    
     75300  -59398.054      474.0203      -58924.033      185.95966      188.15019      540.72929    
     75400  -59345.984      482.71306     -58863.271      185.94864      188.1393       540.9257     
     75500  -59279.511      486.82617     -58792.685      185.93951      188.12895      541.12212    
     75600  -59221.51       492.62217     -58728.888      185.93033      188.11915      541.31853    
     75700  -59144.071      483.46958     -58660.601      185.91936      188.10807      541.51495    
     75800  -59079.847      491.58603     -58588.261      185.90914      188.09654      541.71136    
     75900  -59012.942      495.46803     -58517.474      185.89934      188.0868       541.90778    
     76000  -58946.6        493.89865     -58452.701      185.88925      188.07607      542.10419    
     76100  -58882.072      500.41448     -58381.657      185.87828      188.06432      542.3006     
     76200  -58811.005      500.14073     -58310.864      185.86726      188.05349      542.49702    
     76300  -58743.737      502.85132     -58240.886      185.85729      188.04254      542.69343    
     76400  -58675.437      502.55833     -58172.879      185.846        188.03133      542.88985    
     76500  -58610.492      513.02431     -58097.468      185.8346       188.01971      543.08626    
     76600  -58546.983      519.54898     -58027.434      185.82417      188.00851      543.28268    
     76700  -58472.637      515.73236     -57956.905      185.81276      187.9974       543.47909    
     76800  -58405.136      519.00787     -57886.128      185.80115      187.98505      543.67551    
     76900  -58335.381      523.17168     -57812.21       185.78942      187.97346      543.87192    
     77000  -58272.435      525.90052     -57746.535      185.77818      187.96197      544.06834    
     77100  -58205.469      525.43679     -57680.032      185.76623      187.94966      544.26475    
     77200  -58130.943      535.17708     -57595.766      185.75363      187.93725      544.46116    
     77300  -58052.818      530.43565     -57522.382      185.7416       187.92479      544.65758    
     77400  -57985.564      531.65864     -57453.905      185.72935      187.91259      544.85399    
     77500  -57912.673      542.1556      -57370.518      185.71658      187.89985      545.05041    
     77600  -57851.885      553.26707     -57298.618      185.70354      187.88665      545.24682    
     77700  -57787.067      554.82053     -57232.246      185.69069      187.87396      545.44324    
     77800  -57704.381      546.70458     -57157.676      185.67779      187.86088      545.63965    
     77900  -57626.858      548.31129     -57078.546      185.66395      187.8471       545.83607    
     78000  -57583.717      585.7968      -56997.92       185.65017      187.83345      546.03248    
     78100  -57672.624      736.64515     -56935.979      185.63687      187.82028      546.2289     
     78200  -58619.244      1475.5528     -57143.691      185.62625      187.81323      546.42531    
     78300  -60664.089      2493.8805     -58170.208      185.63055      187.82238      546.62172    
     78400  -63476.534      3071.2456     -60405.288      185.65715      187.85634      546.81814    
     78500  -66385.398      3060.2705     -63325.127      185.69494      187.90901      547.01455    
     78600  -69080.103      2763.3111     -66316.792      185.72784      187.95598      547.21097    
     78700  -71387.751      2383.4497     -69004.301      185.77079      188.01021      547.40738    
     78800  -73261.982      2031.5109     -71230.471      185.84053      188.09551      547.6038     
     78900  -74578.006      1573.9753     -73004.031      185.93236      188.19633      547.80021    
     79000  -75362.561      1191.7916     -74170.77       186.0225       188.29819      547.99663    
     79100  -76092.92       1048.6909     -75044.229      186.08449      188.37864      548.19304    
     79200  -76766.658      971.51188     -75795.146      186.1342       188.44916      548.38946    
     79300  -77388.128      910.67877     -76477.449      186.18698      188.52514      548.58587    
     79400  -77946.447      850.82936     -77095.617      186.23686      188.60003      548.78229    
     79500  -78450.96       800.06739     -77650.893      186.28013      188.66817      548.9787     
     79600  -78924.31       766.33727     -78157.973      186.3279       188.74015      549.17511    
     79700  -79316.901      698.05302     -78618.848      186.37996      188.81488      549.37153    
     79800  -79609.884      616.08532     -78993.799      186.43181      188.88854      549.56794    
     79900  -79821.117      536.67141     -79284.445      186.48586      188.96439      549.76436    
     80000  -79957.755      465.02201     -79492.733      186.54278      189.04232      549.96077    
     80100  -80026.803      406.16905     -79620.634      186.60104      189.12071      550.15719    
     80200  -80029.377      365.23233     -79664.145      186.66006      189.20058      550.3536     
     80300  -79984.236      367.88663     -79616.349      186.71084      189.27033      550.55002    
     80400  -79882.005      378.69181     -79503.313      186.75331      189.33022      550.74643    
     80500  -79744.77       365.17912     -79379.591      186.80062      189.39262      550.94285    
     80600  -79683.469      433.92076     -79249.549      186.83984      189.44276      551.13926    
     80700  -79688.745      514.71962     -79174.025      186.86128      189.47058      551.33567    
     80800  -79682.724      431.96887     -79250.755      186.87766      189.49321      551.53209    
     80900  -79692.246      379.80303     -79312.443      186.9096       189.53586      551.7285     
     81000  -79698.907      405.24372     -79293.663      186.96071      189.5916       551.92492    
     81100  -79704.379      465.91182     -79238.467      186.991        189.63157      552.12133    
     81200  -79706.227      459.28539     -79246.942      187.01271      189.66784      552.31775    
     81300  -79732.719      417.81346     -79314.905      187.04313      189.71097      552.51416    
     81400  -79742.285      385.78608     -79356.499      187.07433      189.75426      552.71058    
     81500  -79744.46       411.1439      -79333.316      187.10471      189.7927       552.90699    
     81600  -79746.379      457.12735     -79289.252      187.12737      189.82374      553.10341    
     81700  -79747.353      447.75929     -79299.594      187.15388      189.85095      553.29982    
     81800  -79768.597      418.76693     -79349.83       187.18813      189.88979      553.49623    
     81900  -79795.997      410.66862     -79385.328      187.22344      189.93343      553.69265    
     82000  -79802.863      415.3091      -79387.554      187.25806      189.9761       553.88906    
     82100  -79785.862      427.26118     -79358.601      187.29306      190.0141       554.08548    
     82200  -79774.216      445.38101     -79328.835      187.32828      190.04902      554.28189    
     82300  -79764.56       427.09907     -79337.461      187.36458      190.08148      554.47831    
     82400  -79774.666      418.97631     -79355.69       187.3947       190.10149      554.67472    
     82500  -79770.287      416.73495     -79353.552      187.42502      190.12607      554.87114    
     82600  -79765.987      431.88474     -79334.102      187.45187      190.15742      555.06755    
     82700  -79762.136      436.47481     -79325.661      187.48101      190.18282      555.26397    
     82800  -79767.081      433.47467     -79333.607      187.51771      190.21087      555.46038    
     82900  -79771.705      422.32449     -79349.381      187.56175      190.24566      555.65679    
     83000  -79774.086      417.61821     -79356.468      187.60346      190.27497      555.85321    
     83100  -79774.469      419.65707     -79354.812      187.64152      190.30124      556.04962    
     83200  -79771.358      428.78612     -79342.572      187.68187      190.3223       556.24604    
     83300  -79768.939      441.06072     -79327.878      187.7193       190.3494       556.44245    
     83400  -79756.155      427.63296     -79328.522      187.74964      190.37705      556.63887    
     83500  -79771.161      431.56857     -79339.592      187.77617      190.4003       556.83528    
     83600  -79780.098      425.85519     -79354.243      187.80301      190.43224      557.0317     
     83700  -79784.406      422.41473     -79361.992      187.82997      190.46312      557.22811    
     83800  -79791.706      428.85733     -79362.849      187.84638      190.4925       557.42453    
     83900  -79796.305      433.83201     -79362.473      187.86577      190.52578      557.62094    
     84000  -79797.084      426.78329     -79370.301      187.88403      190.56059      557.81735    
     84100  -79793.262      416.03751     -79377.224      187.90145      190.58666      558.01377    
     84200  -79796.62       426.61201     -79370.008      187.92749      190.61014      558.21018    
     84300  -79799.335      435.57276     -79363.763      187.95629      190.63345      558.4066     
     84400  -79808.022      430.11834     -79377.903      187.97804      190.65172      558.60301    
     84500  -79818.778      419.08758     -79399.691      187.99764      190.67078      558.79943    
     84600  -79826.558      420.28793     -79406.27       188.01483      190.68729      558.99584    
     84700  -79819.508      425.67236     -79393.835      188.02431      190.69889      559.19226    
     84800  -79814.223      434.06321     -79380.16       188.03032      190.70834      559.38867    
     84900  -79814.859      437.14018     -79377.719      188.04321      190.72451      559.58509    
     85000  -79811.938      429.01121     -79382.927      188.04902      190.7386       559.7815     
     85100  -79811.451      423.77793     -79387.673      188.05153      190.75699      559.97792    
     85200  -79812.746      428.78544     -79383.961      188.05106      190.77564      560.17433    
     85300  -79812.063      431.95504     -79380.108      188.04746      190.79549      560.37074    
     85400  -79804.868      422.58209     -79382.286      188.04889      190.81913      560.56716    
     85500  -79810.909      427.4529      -79383.456      188.04427      190.83634      560.76357    
     85600  -79810.253      424.4963      -79385.756      188.04349      190.85119      560.95999    
     85700  -79813.791      425.16601     -79388.625      188.03935      190.86823      561.1564     
     85800  -79823.524      432.52972     -79390.995      188.03286      190.88203      561.35282    
     85900  -79820.232      427.56161     -79392.67       188.02473      190.89321      561.54923    
     86000  -79823.58       429.99461     -79393.586      188.02151      190.90655      561.74565    
     86100  -79815.31       420.04715     -79395.263      188.01098      190.91865      561.94206    
     86200  -79824.488      431.7485      -79392.739      188.00223      190.92594      562.13848    
     86300  -79815.383      423.02056     -79392.362      188.00121      190.94269      562.33489    
     86400  -79823.187      430.58635     -79392.601      187.9976       190.96223      562.5313     
     86500  -79819.5        423.15504     -79396.345      187.9845       190.97246      562.72772    
     86600  -79823.83       425.46651     -79398.363      187.97687      190.98917      562.92413    
     86700  -79821.144      424.55475     -79396.59       187.97201      191.01158      563.12055    
     86800  -79821.015      428.50882     -79392.506      187.96342      191.02669      563.31696    
     86900  -79817.034      425.01685     -79392.017      187.95865      191.04587      563.51338    
     87000  -79815.081      421.85588     -79393.225      187.95605      191.06686      563.70979    
     87100  -79819.193      423.52857     -79395.664      187.95313      191.08326      563.90621    
     87200  -79823.767      428.93797     -79394.829      187.94876      191.09616      564.10262    
     87300  -79815.545      421.19201     -79394.353      187.94878      191.1171       564.29904    
     87400  -79817.029      425.87551     -79391.153      187.9448       191.13314      564.49545    
     87500  -79816.668      427.61592     -79389.052      187.94384      191.1412       564.69186    
     87600  -79821.003      433.5923      -79387.411      187.95027      191.15699      564.88828    
     87700  -79822.004      430.17439     -79391.83       187.95759      191.17285      565.08469    
     87800  -79823.841      420.90277     -79402.938      187.96146      191.17761      565.28111    
     87900  -79832.447      420.8244      -79411.622      187.97411      191.18664      565.47752    
     88000  -79827.925      421.25167     -79406.673      187.98872      191.19945      565.67394    
     88100  -79831.813      437.00993     -79394.803      188.00128      191.20628      565.87035    
     88200  -79823.578      429.16251     -79394.416      188.02098      191.21707      566.06677    
     88300  -79825.484      423.41017     -79402.074      188.0427       191.22833      566.26318    
     88400  -79833.253      424.38689     -79408.866      188.0572       191.23268      566.4596     
     88500  -79831.255      424.22479     -79407.03       188.07779      191.23816      566.65601    
     88600  -79823.405      429.15083     -79394.254      188.10394      191.25065      566.85242    
     88700  -79824.295      439.73969     -79384.555      188.12707      191.25742      567.04884    
     88800  -79818.179      431.21593     -79386.963      188.15116      191.26109      567.24525    
     88900  -79823.437      423.80037     -79399.637      188.17801      191.26725      567.44167    
     89000  -79820.437      417.4796      -79402.958      188.19767      191.26871      567.63808    
     89100  -79813.906      424.73081     -79389.175      188.213        191.26747      567.8345     
     89200  -79800.727      432.54908     -79368.178      188.23062      191.27077      568.03091    
     89300  -79788.811      432.25642     -79356.555      188.24543      191.27118      568.22733    
     89400  -79793.184      430.68537     -79362.498      188.25814      191.26412      568.42374    
     89500  -79799.8        420.73413     -79379.066      188.27397      191.26146      568.62016    
     89600  -79803.054      416.08783     -79386.966      188.28709      191.26241      568.81657    
     89700  -79801.162      423.59074     -79377.572      188.2917       191.25738      569.01298    
     89800  -79796.204      434.88597     -79361.318      188.29658      191.25518      569.2094     
     89900  -79790.648      436.77954     -79353.868      188.30217      191.25281      569.40581    
     90000  -79790.406      426.72198     -79363.684      188.29708      191.2461       569.60223    
     90100  -79801.342      424.80549     -79376.536      188.29232      191.24328      569.79864    
     90200  -79798.849      417.51998     -79381.329      188.29209      191.24436      569.99506    
     90300  -79799.244      425.05023     -79374.194      188.28622      191.23894      570.19147    
     90400  -79793.653      427.20919     -79366.444      188.27486      191.23095      570.38789    
     90500  -79791.056      428.85356     -79362.202      188.2608       191.22184      570.5843     
     90600  -79794.278      429.79631     -79364.481      188.25061      191.21753      570.78072    
     90700  -79795.665      425.27106     -79370.394      188.24119      191.21488      570.97713    
     90800  -79803.077      427.37845     -79375.698      188.23055      191.20839      571.17355    
     90900  -79801.034      426.1021      -79374.932      188.22155      191.20052      571.36996    
     91000  -79796.873      428.22059     -79368.652      188.21333      191.19068      571.56637    
     91100  -79793.469      429.46669     -79364.002      188.20101      191.17553      571.76279    
     91200  -79792.778      428.12963     -79364.648      188.18975      191.16108      571.9592     
     91300  -79790.932      425.739       -79365.193      188.18421      191.15073      572.15562    
     91400  -79792.472      425.0354      -79367.437      188.17924      191.14103      572.35203    
     91500  -79794.834      424.89998     -79369.934      188.17382      191.12641      572.54845    
     91600  -79793.546      423.45007     -79370.096      188.16771      191.11122      572.74486    
     91700  -79794.89       425.35688     -79369.533      188.16216      191.10433      572.94128    
     91800  -79795.45       426.02705     -79369.423      188.15527      191.09707      573.13769    
     91900  -79798.21       428.91624     -79369.293      188.14714      191.08416      573.33411    
     92000  -79801.875      430.00806     -79371.867      188.14129      191.07516      573.53052    
     92100  -79801.238      423.50475     -79377.733      188.13435      191.06497      573.72693    
     92200  -79806.483      427.2262      -79379.256      188.11752      191.04437      573.92335    
     92300  -79800.029      425.95963     -79374.069      188.10403      191.02683      574.11976    
     92400  -79796.826      429.89751     -79366.929      188.0994       191.01522      574.31618    
     92500  -79793.3        428.59494     -79364.705      188.09288      190.99983      574.51259    
     92600  -79795.873      425.4613      -79370.412      188.0879       190.97997      574.70901    
     92700  -79803.311      427.0838      -79376.227      188.08838      190.96438      574.90542    
     92800  -79800.233      426.29523     -79373.938      188.08023      190.94676      575.10184    
     92900  -79786.121      422.22439     -79363.896      188.06517      190.9258       575.29825    
     93000  -79786.796      432.7122      -79354.083      188.05721      190.9045       575.49467    
     93100  -79792.31       439.60735     -79352.703      188.05595      190.88555      575.69108    
     93200  -79790.648      428.11931     -79362.528      188.05389      190.86408      575.88749    
     93300  -79797.448      423.40062     -79374.047      188.05553      190.8415       576.08391    
     93400  -79795.878      419.8223      -79376.055      188.05764      190.82175      576.28032    
     93500  -79795.13       427.53998     -79367.59       188.05465      190.80226      576.47674    
     93600  -79788.292      432.22434     -79356.068      188.0483       190.78257      576.67315    
     93700  -79779.52       432.33891     -79347.181      188.04453      190.76683      576.86957    
     93800  -79779.133      431.74072     -79347.392      188.04226      190.74576      577.06598    
     93900  -79780.81       427.25571     -79353.554      188.04361      190.72388      577.2624     
     94000  -79783.698      425.20857     -79358.489      188.0496       190.70469      577.45881    
     94100  -79780.144      425.05704     -79355.087      188.04501      190.68379      577.65523    
     94200  -79777.51       428.25803     -79349.252      188.04121      190.66291      577.85164    
     94300  -79775.961      430.88728     -79345.074      188.0459       190.64535      578.04805    
     94400  -79777.749      431.90501     -79345.844      188.05078      190.61943      578.24447    
     94500  -79774.731      425.1703      -79349.561      188.05359      190.59368      578.44088    
     94600  -79782.604      429.18135     -79353.423      188.0556       190.57285      578.6373     
     94700  -79781.037      424.63481     -79356.402      188.05324      190.54882      578.83371    
     94800  -79786.061      429.87667     -79356.185      188.04733      190.52393      579.03013    
     94900  -79782.423      427.88212     -79354.541      188.04894      190.50771      579.22654    
     95000  -79780.735      429.23486     -79351.5        188.04963      190.48828      579.42296    
     95100  -79781.371      429.49081     -79351.88       188.04612      190.46594      579.61937    
     95200  -79781.516      430.12116     -79351.395      188.04018      190.44466      579.81579    
     95300  -79784.218      432.09742     -79352.121      188.03193      190.42436      580.0122     
     95400  -79774.921      418.98395     -79355.937      188.01993      190.40343      580.20861    
     95500  -79780.621      429.08992     -79351.531      188.01064      190.38538      580.40503    
     95600  -79776.064      428.55792     -79347.506      188.00802      190.37596      580.60144    
     95700  -79777.995      431.93344     -79346.061      187.99773      190.36557      580.79786    
     95800  -79773.242      422.69365     -79350.549      187.98442      190.35243      580.99427    
     95900  -79782.997      426.59168     -79356.405      187.9744       190.34414      581.19069    
     96000  -79784.785      425.88174     -79358.903      187.96438      190.33621      581.3871     
     96100  -79780.211      423.29952     -79356.912      187.9529       190.3289       581.58352    
     96200  -79781.023      429.77758     -79351.246      187.9414       190.31746      581.77993    
     96300  -79781.841      432.37145     -79349.47       187.93505      190.31208      581.97635    
     96400  -79782.335      429.91791     -79352.417      187.92727      190.30987      582.17276    
     96500  -79787.872      427.2275      -79360.645      187.91776      190.30003      582.36918    
     96600  -79798.06       427.11306     -79370.947      187.91516      190.29683      582.56559    
     96700  -79798.003      421.46845     -79376.535      187.91117      190.29532      582.762      
     96800  -79793.879      421.47226     -79372.407      187.89672      190.28641      582.95842    
     96900  -79793.199      429.51279     -79363.687      187.88913      190.28676      583.15483    
     97000  -79790.559      430.07541     -79360.483      187.88502      190.29194      583.35125    
     97100  -79796.707      428.29116     -79368.416      187.87706      190.28804      583.54766    
     97200  -79801.138      420.28722     -79380.851      187.8714       190.28556      583.74408    
     97300  -79806.246      421.58431     -79384.662      187.86895      190.29184      583.94049    
     97400  -79811.111      429.77843     -79381.333      187.85816      190.29327      584.13691    
     97500  -79806.055      428.78275     -79377.272      187.84184      190.29167      584.33332    
     97600  -79811.241      432.72997     -79378.511      187.83699      190.29661      584.52974    
     97700  -79813.408      427.53575     -79385.872      187.83914      190.30047      584.72615    
     97800  -79814.438      420.44297     -79393.995      187.83487      190.29456      584.92256    
     97900  -79819.949      423.38531     -79396.563      187.83566      190.29306      585.11898    
     98000  -79820.628      426.24494     -79394.383      187.84151      190.29279      585.31539    
     98100  -79822.206      432.06546     -79390.141      187.83761      190.28432      585.51181    
     98200  -79823.415      434.38994     -79389.025      187.83548      190.27802      585.70822    
     98300  -79822.271      430.73235     -79391.538      187.84425      190.27697      585.90464    
     98400  -79819.269      425.76539     -79393.504      187.85256      190.27242      586.10105    
     98500  -79814.707      421.96149     -79392.745      187.85819      190.26384      586.29747    
     98600  -79807.315      418.71329     -79388.601      187.87217      190.26037      586.49388    
     98700  -79810.97       427.05849     -79383.912      187.88379      190.25254      586.6903     
     98800  -79815.854      432.37947     -79383.475      187.88853      190.24014      586.88671    
     98900  -79809.599      424.52859     -79385.07       187.89211      190.22903      587.08312    
     99000  -79816.381      428.11641     -79388.265      187.9053       190.22427      587.27954    
     99100  -79814.149      423.78323     -79390.366      187.9182       190.2139       587.47595    
     99200  -79818.23       428.63802     -79389.592      187.93216      190.2007       587.67237    
     99300  -79810.769      423.00013     -79387.769      187.94936      190.19431      587.86878    
     99400  -79816.888      430.99489     -79385.893      187.96223      190.18891      588.0652     
     99500  -79808.643      424.48168     -79384.161      187.96646      190.17854      588.26161    
     99600  -79813.779      427.91748     -79385.861      187.97664      190.17159      588.45803    
     99700  -79810.237      422.17175     -79388.066      187.98804      190.16549      588.65444    
     99800  -79816.877      428.9727      -79387.904      187.99507      190.15824      588.85086    
     99900  -79809.17       424.46201     -79384.708      188.00118      190.15403      589.04727    
    100000  -79810.138      428.30295     -79381.835      188.00761      190.15154      589.24368    
Loop time of 5232.33 on 12 procs for 100000 steps with 11016 atoms

Performance: 1.651 ns/day, 14.534 hours/ns, 19.112 timesteps/s, 210.537 katom-step/s
76.1% CPU use with 12 MPI tasks x 1 OpenMP threads

MPI task timing breakdown:
Section |  min time  |  avg time  |  max time  |%varavg| %total
---------------------------------------------------------------
Pair    | 1509.9     | 1709.8     | 1886.4     | 252.2 | 32.68
Neigh   | 6.6183     | 9.3387     | 11.98      |  42.7 |  0.18
Comm    | 1203.2     | 1375.3     | 1560.9     | 282.6 | 26.28
Output  | 4.9149     | 5.1472     | 5.4461     |   7.6 |  0.10
Modify  | 1949.8     | 1996.2     | 2043       |  57.1 | 38.15
Other   |            | 136.6      |            |       |  2.61

Nlocal:            918 ave        1223 max         420 min
Histogram: 1 0 0 1 2 3 0 0 2 3
Nghost:        2808.25 ave        3947 max        2092 min
Histogram: 4 3 1 0 0 0 0 0 0 4
Neighs:              0 ave           0 max           0 min
Histogram: 12 0 0 0 0 0 0 0 0 0

Total # of neighbors = 0
Ave neighs/atom = 0
Neighbor list builds = 603
Dangerous builds = 0
Total wall time: 1:27:13
