LAMMPS (2 Aug 2023 - Update 3)
OMP_NUM_THREADS environment is not set. Defaulting to 1 thread. (src/comm.cpp:98)
  using 1 OpenMP thread(s) per MPI task

# 1------general---------------
units                             metal      #单位为lammps 中的metel 类型
dimension                    3          #模拟的维度 三维
boundary                    p p p      #周期边界条件
atom_style                  atomic   #原子类型自动
atom_modify              map array sort 100 2.0
neighbor                    3.0 bin
neigh_modify            every 1 delay 0 check yes
#2 -----global variable-------定义全局变量，方便统一修改；
variable temperature equal 300
variable tstep equal 0.001
variable pressure equal 0
variable thermalstep equal 100
variable dumpstep equal 1000
variable relaxtime equal 0
variable totaltime equal 100000
variable deformrate equal 5e-3
#3 -------model------------
#box tilt large
read_data     1.lmp
Reading data file ...
  orthogonal box = (-100 -100 -2.1416495) to (100 100 39.081159)
  4 by 3 by 1 MPI processor grid
  reading atoms ...
  1620 atoms
  read_data CPU = 0.448 seconds
group SR type 2 3
600 atoms in group SR
delete_atoms group SR
Deleted 600 atoms, new total = 1020
replicate 1 1 5
Replication is creating a 1x1x5 = 5 times larger system...
  orthogonal box = (-100 -100 -2.1416495) to (100 100 203.9724)
  2 by 2 by 3 MPI processor grid
  5100 atoms
  replicate CPU = 0.340 seconds
write_data h.data
System init for write_data ...
WARNING: Communication cutoff is 0.0. No ghost atoms will be generated. Atoms may get lost. (src/comm_brick.cpp:210)
pair_style hybrid airebo 3.0 airebo 3.0 airebo 3.0 lj/cut 10
pair_coeff * * airebo 1 CH.airebo C NULL NULL
Reading airebo potential file CH.airebo with DATE: 2011-10-25
pair_coeff * * airebo 2 CH.airebo NULL C NULL
Reading airebo potential file CH.airebo with DATE: 2011-10-25
pair_coeff * * airebo 3 CH.airebo NULL NULL C
Reading airebo potential file CH.airebo with DATE: 2011-10-25
pair_coeff 1 2 lj/cut 0.00456 3.431
pair_coeff 1 3 lj/cut 0.00456 3.431
pair_coeff 2 3 lj/cut 0.00456 3.431

# 5------minimize -----------
min_style      sd
minimize       1.0e-4 1.0e-6 100 1000
Neighbor list info ...
  update: every = 1 steps, delay = 0 steps, check = yes
  max neighbors/atom: 2000, page size: 100000
  master list distance cutoff = 13.2
  ghost atom cutoff = 13.2
  binsize = 6.6, bins = 31 31 32
  6 neighbor lists, perpetual/occasional/extra = 6 0 0
  (1) pair airebo, perpetual, skip from (5)
      attributes: full, newton on, ghost
      pair build: skip/ghost
      stencil: none
      bin: none
  (2) pair airebo, perpetual, skip from (5)
      attributes: full, newton on, ghost
      pair build: skip/ghost
      stencil: none
      bin: none
  (3) pair airebo, perpetual, skip from (5)
      attributes: full, newton on, ghost
      pair build: skip/ghost
      stencil: none
      bin: none
  (4) pair lj/cut, perpetual, skip from (6)
      attributes: half, newton on, cut 13
      pair build: skip
      stencil: none
      bin: none
  (5) neighbor class addition, perpetual
      attributes: full, newton on, ghost
      pair build: full/bin/ghost
      stencil: full/ghost/bin/3d
      bin: standard
  (6) neighbor class addition, perpetual
      attributes: half, newton on, cut 13
      pair build: half/bin/atomonly/newton
      stencil: half/bin/3d
      bin: standard
Per MPI rank memory allocation (min/avg/max) = 10.79 | 10.79 | 10.79 Mbytes
   Step          Temp          E_pair         E_mol          TotEng         Press     
         0   0             -37813.118      0             -37813.118     -58.353665    
         1   0             -37813.161      0             -37813.161     -58.244675    
Loop time of 0.683995 on 12 procs for 1 steps with 5100 atoms

38.0% CPU use with 12 MPI tasks x 1 OpenMP threads

Minimization stats:
  Stopping criterion = energy tolerance
  Energy initial, next-to-last, final = 
     -37813.1181338259  -37813.1181338259  -37813.1607799516
  Force two-norm initial, final = 3.3012032 0.64425198
  Force max component initial, final = 0.046231127 0.0090219153
  Final line search alpha, max atom move = 1 0.0090219153
  Iterations, force evaluations = 1 2

MPI task timing breakdown:
Section |  min time  |  avg time  |  max time  |%varavg| %total
---------------------------------------------------------------
Pair    | 0.016426   | 0.03112    | 0.051253   |   4.6 |  4.55
Neigh   | 0          | 0          | 0          |   0.0 |  0.00
Comm    | 0.16362    | 0.2039     | 0.23284    |   5.2 | 29.81
Output  | 0          | 0          | 0          |   0.0 |  0.00
Modify  | 0          | 0          | 0          |   0.0 |  0.00
Other   |            | 0.449      |            |       | 65.64

Nlocal:            425 ave         456 max         392 min
Histogram: 1 2 0 0 2 4 0 0 1 2
Nghost:           1925 ave        1971 max        1884 min
Histogram: 2 0 0 3 2 0 3 1 0 1
Neighs:              0 ave           0 max           0 min
Histogram: 12 0 0 0 0 0 0 0 0 0

Total # of neighbors = 0
Ave neighs/atom = 0
Neighbor list builds = 0
Dangerous builds = 0
#6----define computes------
variable nums equal count(all) #计算原子数目
variable toval equal 20.535*20.0413*lz #计算系统总体积，单层石墨烯厚度为0.335nm
variable vol equal ${toval} #体系的初始体积
variable vol equal 84825.8426755513 
variable vatom equal v_vol/v_nums #单个原子体积
compute 1 all stress/atom NULL #计算体系中单原子应力
compute xalls all reduce sum c_1[1]
variable xstress equal (c_xalls)/(v_toval*10000)
compute yalls all reduce sum c_1[2]
variable ystress equal (c_yalls)/(v_toval*10000)
compute zalls all reduce sum c_1[3]
variable zstress equal (c_zalls)/(v_toval*10000)
#7---------relaxation-------------------------
timestep ${tstep}
timestep 0.001
velocity all create ${temperature} 231743 units box dist gaussian
velocity all create 300 231743 units box dist gaussian
dump   1 all atom 100 all-cy.lammpstrj
#fix    1 all npt temp 300 300  0.1 aniso 0 0 10 drag 1  #三个方向独立控压
fix  1 all npt temp ${temperature} ${temperature} 0.1 x ${pressure} ${pressure} 10 y ${pressure} ${pressure} 10
fix  1 all npt temp 300 ${temperature} 0.1 x ${pressure} ${pressure} 10 y ${pressure} ${pressure} 10
fix  1 all npt temp 300 300 0.1 x ${pressure} ${pressure} 10 y ${pressure} ${pressure} 10
fix  1 all npt temp 300 300 0.1 x 0 ${pressure} 10 y ${pressure} ${pressure} 10
fix  1 all npt temp 300 300 0.1 x 0 0 10 y ${pressure} ${pressure} 10
fix  1 all npt temp 300 300 0.1 x 0 0 10 y 0 ${pressure} 10
fix  1 all npt temp 300 300 0.1 x 0 0 10 y 0 0 10
compute  2 all pe/atom
compute  pe all reduce sum c_2
variable PE equal "c_pe"
fix    pe all print 100 "${PE} " file PE.txt screen no
thermo  ${thermalstep}
thermo  100
#thermo_style  custom step pe ke etotal lx ly lz
run   ${relaxtime}
run   0
Per MPI rank memory allocation (min/avg/max) = 11.41 | 11.41 | 11.41 Mbytes
   Step          Temp          E_pair         E_mol          TotEng         Press          Volume    
         1   300           -37813.161      0             -37615.432     -32.628019      8244561.8    
Loop time of 0.0409986 on 12 procs for 0 steps with 5100 atoms

35.0% CPU use with 12 MPI tasks x 1 OpenMP threads

MPI task timing breakdown:
Section |  min time  |  avg time  |  max time  |%varavg| %total
---------------------------------------------------------------
Pair    | 0          | 0          | 0          |   0.0 |  0.00
Neigh   | 0          | 0          | 0          |   0.0 |  0.00
Comm    | 0          | 0          | 0          |   0.0 |  0.00
Output  | 0          | 0          | 0          |   0.0 |  0.00
Modify  | 0          | 0          | 0          |   0.0 |  0.00
Other   |            | 0.041      |            |       |100.00

Nlocal:            425 ave         456 max         392 min
Histogram: 2 4 0 0 0 0 0 0 2 4
Nghost:           1925 ave        1971 max        1884 min
Histogram: 4 0 0 2 0 0 2 2 0 2
Neighs:              0 ave           0 max           0 min
Histogram: 12 0 0 0 0 0 0 0 0 0

Total # of neighbors = 0
Ave neighs/atom = 0
Neighbor list builds = 0
Dangerous builds = 0
#8 -------tension-----------------------------
unfix  1
undump  1
unfix  pe
reset_timestep 0
fix avestress all ave/atom 1 ${dumpstep} ${dumpstep} c_1[1] c_1[2] c_1[3] c_1[4] c_1[5] c_1[6]
fix avestress all ave/atom 1 1000 ${dumpstep} c_1[1] c_1[2] c_1[3] c_1[4] c_1[5] c_1[6]
fix avestress all ave/atom 1 1000 1000 c_1[1] c_1[2] c_1[3] c_1[4] c_1[5] c_1[6]

#-----calculation of strain and Cumulative compression--------
variable                tmp equal "lz"
variable                L0 equal ${tmp}
variable                L0 equal 206.114045
variable                strain equal "(lz - v_L0)/v_L0"
variable                Cumulativels equal "(lz - v_L0)/10"
fix Step all print 100 "${strain} ${Cumulativels} ${zstress}" file grapoten.txt screen no

dump 2 all custom ${dumpstep} tension.xyz type x y z f_avestress[1] f_avestress[2] f_avestress[3] f_avestress[4] f_avestress[5] f_avestress[6]
dump 2 all custom 1000 tension.xyz type x y z f_avestress[1] f_avestress[2] f_avestress[3] f_avestress[4] f_avestress[5] f_avestress[6]

fix  1 all npt temp ${temperature} ${temperature} 0.1 y ${pressure} ${pressure} 10 x ${pressure} ${pressure} 10
fix  1 all npt temp 300 ${temperature} 0.1 y ${pressure} ${pressure} 10 x ${pressure} ${pressure} 10
fix  1 all npt temp 300 300 0.1 y ${pressure} ${pressure} 10 x ${pressure} ${pressure} 10
fix  1 all npt temp 300 300 0.1 y 0 ${pressure} 10 x ${pressure} ${pressure} 10
fix  1 all npt temp 300 300 0.1 y 0 0 10 x ${pressure} ${pressure} 10
fix  1 all npt temp 300 300 0.1 y 0 0 10 x 0 ${pressure} 10
fix  1 all npt temp 300 300 0.1 y 0 0 10 x 0 0 10

thermo_style custom step pe ke etotal lx ly lz
fix   2 all deform 1 z erate ${deformrate} remap x units box
fix   2 all deform 1 z erate 0.005 remap x units box
fix   3 all ave/time 2 500 1000 v_xstress v_ystress v_zstress file pressure.out
run   ${totaltime}
run   100000
WARNING: Dump 2 includes no atom IDs and is not sorted by ID. This may complicate post-processing tasks or visualization (src/dump.cpp:221)
Per MPI rank memory allocation (min/avg/max) = 12.91 | 12.91 | 12.91 Mbytes
   Step         PotEng         KinEng         TotEng           Lx             Ly             Lz      
         0  -37813.161      197.72924     -37615.432      200            200            206.11404    
       100  -37695.916      96.691523     -37599.224      199.99192      199.98976      206.2171     
       200  -37697.371      121.0977      -37576.273      199.98501      199.98132      206.32016    
       300  -37679.632      130.80003     -37548.832      199.99437      199.98853      206.42322    
       400  -37668.147      149.34854     -37518.799      199.98583      199.97692      206.52627    
       500  -37649.678      162.03327     -37487.645      199.97969      199.96715      206.62933    
       600  -37636.179      178.98428     -37457.195      199.98949      199.97379      206.73239    
       700  -37625.975      195.93787     -37430.038      199.98102      199.96047      206.83544    
       800  -37609.974      199.93648     -37410.038      199.97493      199.94859      206.9385     
       900  -37606.463      204.42994     -37402.033      199.98647      199.95521      207.04156    
      1000  -37610.251      201.62517     -37408.626      199.97868      199.9403       207.14462    
      1100  -37614.817      194.28033     -37420.537      199.97206      199.92462      207.24767    
      1200  -37616.239      190.33695     -37425.902      199.98422      199.92824      207.35073    
      1300  -37617.999      198.03188     -37419.967      199.97618      199.91116      207.45379    
      1400  -37608.559      199.68014     -37408.879      199.97224      199.89604      207.55684    
      1500  -37605.336      203.59828     -37401.738      199.98515      199.89669      207.6599     
      1600  -37604.062      200.45091     -37403.611      199.97963      199.87807      207.76296    
      1700  -37611.626      199.82126     -37411.805      199.97511      199.85986      207.86601    
      1800  -37611.146      194.46533     -37416.68       199.98762      199.85721      207.96907    
      1900  -37607.888      194.84086     -37413.047      199.9848       199.8367       208.07213    
      2000  -37599.719      196.18633     -37403.532      199.9826       199.81744      208.17519    
      2100  -37597.508      201.76082     -37395.747      199.99423      199.81236      208.27824    
      2200  -37594.064      198.84028     -37395.224      199.99238      199.79064      208.3813     
      2300  -37600.318      199.05744     -37401.26       199.99134      199.76923      208.48436    
      2400  -37598.588      192.72575     -37405.862      200.00232      199.7604       208.58741    
      2500  -37597.753      193.892       -37403.861      200.00163      199.73904      208.69047    
      2600  -37593.77       197.34202     -37396.428      200.00219      199.71746      208.79353    
      2700  -37588.029      198.82938     -37389.199      200.01316      199.70685      208.89658    
      2800  -37587.241      201.47515     -37385.766      200.01142      199.68398      208.99964    
      2900  -37586.971      198.31689     -37388.654      200.01235      199.66279      209.1027     
      3000  -37586.296      193.73838     -37392.557      200.02184      199.64929      209.20576    
      3100  -37585.179      192.8498      -37392.329      200.02072      199.62619      209.30881    
      3200  -37580.26       193.45914     -37386.801      200.02042      199.6045       209.41187    
      3300  -37577.771      199.02248     -37378.748      200.02737      199.58977      209.51493    
      3400  -37573.007      200.15239     -37372.855      200.02694      199.56781      209.61798    
      3500  -37571.743      198.86756     -37372.876      200.02605      199.54744      209.72104    
      3600  -37570.217      193.94175     -37376.275      200.02907      199.53217      209.8241     
      3700  -37572.816      196.06414     -37376.752      200.02534      199.51038      209.92715    
      3800  -37569.904      197.03208     -37372.872      200.02396      199.49174      210.03021    
      3900  -37566.524      200.61441     -37365.909      200.02468      199.47774      210.13327    
      4000  -37560.892      200.98873     -37359.903      200.01853      199.45701      210.23633    
      4100  -37557.239      198.78832     -37358.451      200.01469      199.4387       210.33938    
      4200  -37555.174      195.00446     -37360.17       200.01359      199.42503      210.44244    
      4300  -37557.365      196.29898     -37361.066      200.00637      199.40586      210.5455     
      4400  -37554.604      196.30943     -37358.294      200.00015      199.38795      210.64855    
      4500  -37545.662      194.09687     -37351.565      199.99624      199.37372      210.75161    
      4600  -37544.366      199.75862     -37344.607      199.98748      199.35639      210.85467    
      4700  -37538.551      197.43862     -37341.113      199.97873      199.33981      210.95773    
      4800  -37540.539      199.1552      -37341.383      199.97164      199.32495      211.06078    
      4900  -37537.711      194.79494     -37342.916      199.9628       199.30977      211.16384    
      5000  -37536.439      194.75223     -37341.687      199.95225      199.29373      211.2669     
      5100  -37532.115      196.87493     -37335.24       199.94263      199.27691      211.36995    
      5200  -37525.671      198.84689     -37326.824      199.9343       199.2619       211.47301    
      5300  -37524.318      202.50903     -37321.809      199.92302      199.24564      211.57607    
      5400  -37523.497      201.78102     -37321.716      199.91185      199.22832      211.67912    
      5500  -37518.97       195.63897     -37323.331      199.90245      199.21204      211.78218    
      5600  -37513.436      191.63022     -37321.806      199.89023      199.19385      211.88524    
      5700  -37511.746      196.3664      -37315.38       199.87789      199.17548      211.9883     
      5800  -37506.238      199.24634     -37306.992      199.86931      199.15848      212.09135    
      5900  -37498.652      198.18488     -37300.467      199.85701      199.13784      212.19441    
      6000  -37497.087      198.4721      -37298.615      199.84432      199.11734      212.29747    
      6100  -37497.288      197.75118     -37299.536      199.83515      199.09876      212.40052    
      6200  -37495.497      196.78006     -37298.717      199.82299      199.07561      212.50358    
      6300  -37489.803      195.70943     -37294.093      199.81152      199.05248      212.60664    
      6400  -37483.014      196.31715     -37286.696      199.80296      199.03185      212.70969    
      6500  -37478.745      198.68428     -37280.061      199.79184      199.00702      212.81275    
      6600  -37474.619      198.16583     -37276.453      199.78007      198.98006      212.91581    
      6700  -37475.346      199.78269     -37275.563      199.77219      198.95629      213.01887    
      6800  -37470.703      196.34041     -37274.363      199.76249      198.92949      213.12192    
      6900  -37467.282      197.0325      -37270.249      199.75077      198.89832      213.22498    
      7000  -37460.109      196.94395     -37263.165      199.74448      198.87149      213.32804    
      7100  -37454.501      198.43126     -37256.07       199.73724      198.8431       213.43109    
      7200  -37447.312      196.14217     -37251.17       199.72554      198.80796      213.53415    
      7300  -37448.283      199.49722     -37248.786      199.71985      198.7771       213.63721    
      7400  -37446.729      198.84057     -37247.889      199.71542      198.74728      213.74026    
      7500  -37438.64       193.98217     -37244.658      199.70342      198.70875      213.84332    
      7600  -37431.411      193.06929     -37238.342      199.69739      198.67491      213.94638    
      7700  -37427.711      197.71437     -37229.997      199.69363      198.64282      214.04944    
      7800  -37423.935      200.22857     -37223.706      199.68209      198.6026       214.15249    
      7900  -37420.133      196.79386     -37223.339      199.67453      198.56601      214.25555    
      8000  -37419.204      196.78996     -37222.414      199.6696       198.53091      214.35861    
      8100  -37408.884      192.67791     -37216.206      199.65816      198.49037      214.46166    
      8200  -37407.649      199.00276     -37208.647      199.64935      198.45179      214.56472    
      8300  -37400.2        199.14275     -37201.058      199.64243      198.41446      214.66778    
      8400  -37395.881      199.64173     -37196.239      199.63128      198.37342      214.77083    
      8500  -37393.954      195.93388     -37198.02       199.62041      198.33262      214.87389    
      8600  -37388.772      194.46338     -37194.309      199.60986      198.29296      214.97695    
      8700  -37383.421      197.27743     -37186.143      199.5982       198.25242      215.08001    
      8800  -37375.304      197.99395     -37177.31       199.58539      198.21135      215.18306    
      8900  -37369.892      198.38049     -37171.511      199.57207      198.17037      215.28612    
      9000  -37367.426      198.29233     -37169.133      199.55812      198.12909      215.38918    
      9100  -37366.889      196.43791     -37170.451      199.54205      198.08652      215.49223    
      9200  -37359.197      194.86453     -37164.332      199.52645      198.04541      215.59529    
      9300  -37350.486      195.25547     -37155.231      199.511        198.00428      215.69835    
      9400  -37347.726      201.32353     -37146.403      199.49212      197.96159      215.80141    
      9500  -37341.479      201.48        -37139.999      199.47401      197.92026      215.90446    
      9600  -37333.191      197.24714     -37135.943      199.45612      197.8793       216.00752    
      9700  -37330.722      194.34719     -37136.375      199.43493      197.8361       216.11058    
      9800  -37326.48       194.64476     -37131.835      199.4128       197.79364      216.21363    
      9900  -37318.641      196.26278     -37122.379      199.39234      197.75277      216.31669    
     10000  -37313.903      199.76987     -37114.133      199.36801      197.70889      216.41975    
     10100  -37308.634      201.09782     -37107.536      199.34365      197.66654      216.5228     
     10200  -37296.432      194.88805     -37101.544      199.31963      197.62475      216.62586    
     10300  -37295.567      198.63364     -37096.933      199.29219      197.57978      216.72892    
     10400  -37289.131      195.35584     -37093.775      199.26577      197.53549      216.83198    
     10500  -37284.595      195.23161     -37089.364      199.24074      197.49361      216.93503    
     10600  -37279.456      198.80367     -37080.652      199.21057      197.44569      217.03809    
     10700  -37271.375      201.27154     -37070.103      199.18209      197.39981      217.14115    
     10800  -37263.714      199.79001     -37063.924      199.15677      197.35701      217.2442     
     10900  -37259.651      199.12701     -37060.524      199.12472      197.30652      217.34726    
     11000  -37254.043      197.94496     -37056.098      199.09462      197.25705      217.45032    
     11100  -37245.606      196.01497     -37049.591      199.06874      197.21176      217.55337    
     11200  -37240.282      198.04222     -37042.24       199.03703      197.15975      217.65643    
     11300  -37233.249      200.00071     -37033.248      199.00493      197.10574      217.75949    
     11400  -37224.28       200.75992     -37023.52       198.97963      197.05853      217.86255    
     11500  -37214.49       198.95539     -37015.535      198.94859      197.00423      217.9656     
     11600  -37216.882      202.32351     -37014.559      198.91482      196.94568      218.06866    
     11700  -37207.623      195.79337     -37011.829      198.89014      196.89451      218.17172    
     11800  -37199.506      194.20559     -37005.3        198.85919      196.83717      218.27477    
     11900  -37196.178      199.98281     -36996.195      198.82578      196.7755       218.37783    
     12000  -37184.125      198.49076     -36985.634      198.79994      196.71991      218.48089    
     12100  -37179.229      202.21997     -36977.009      198.77024      196.65961      218.58394    
     12200  -37174.979      200.14116     -36974.837      198.73655      196.59465      218.687      
     12300  -37168.224      195.67949     -36972.544      198.71007      196.53434      218.79006    
     12400  -37161.032      195.32413     -36965.708      198.68194      196.47139      218.89312    
     12500  -37151.857      196.58979     -36955.267      198.64874      196.40296      218.99617    
     12600  -37144.549      199.33038     -36945.219      198.62244      196.34006      219.09923    
     12700  -37138.883      199.69992     -36939.183      198.59524      196.27406      219.20229    
     12800  -37136.157      196.91303     -36939.244      198.56201      196.20196      219.30534    
     12900  -37128.972      195.77435     -36933.198      198.53538      196.1358       219.4084     
     13000  -37122.386      199.35651     -36923.03       198.50928      196.0683       219.51146    
     13100  -37108.472      196.33022     -36912.142      198.47742      195.99306      219.61451    
     13200  -37104.736      200.80558     -36903.93       198.45062      195.92435      219.71757    
     13300  -37095.592      197.17334     -36898.418      198.42498      195.8556       219.82063    
     13400  -37093.456      195.91175     -36897.544      198.39332      195.77856      219.92369    
     13500  -37085.264      194.66743     -36890.597      198.36565      195.70712      220.02674    
     13600  -37077.597      198.11583     -36879.482      198.33959      195.6376       220.1298     
     13700  -37072.835      203.11766     -36869.718      198.30776      195.56088      220.23286    
     13800  -37057.649      196.00646     -36861.642      198.2797       195.48781      220.33591    
     13900  -37051.726      197.06246     -36854.663      198.25249      195.41825      220.43897    
     14000  -37045.448      195.74271     -36849.706      198.21856      195.34205      220.54203    
     14100  -37037.922      193.07503     -36844.847      198.18839      195.26864      220.64509    
     14200  -37031.55       196.14355     -36835.406      198.16134      195.20001      220.74814    
     14300  -37021.092      198.83651     -36822.255      198.12483      195.12495      220.8512     
     14400  -37012.393      198.46748     -36813.925      198.09345      195.05425      220.95426    
     14500  -37005.383      197.19696     -36808.186      198.06514      194.98729      221.05731    
     14600  -36998.622      194.88141     -36803.741      198.0267       194.91371      221.16037    
     14700  -36997.614      196.98873     -36800.626      197.99276      194.84524      221.26343    
     14800  -36988.033      194.58487     -36793.448      197.96387      194.78118      221.36648    
     14900  -36973.657      195.79422     -36777.862      197.92515      194.71012      221.46954    
     15000  -36968.268      201.13338     -36767.135      197.88871      194.64341      221.5726     
     15100  -36957.51       199.47562     -36758.034      197.85954      194.58359      221.67566    
     15200  -36949.902      198.87928     -36751.023      197.82024      194.51541      221.77871    
     15300  -36942.38       195.95943     -36746.421      197.78078      194.44999      221.88177    
     15400  -36937.993      196.93079     -36741.062      197.751        194.39454      221.98483    
     15500  -36928.689      197.59041     -36731.099      197.71217      194.33082      222.08788    
     15600  -36915.972      199.36151     -36716.61       197.67097      194.26684      222.19094    
     15700  -36906.445      198.24992     -36708.195      197.63968      194.21384      222.294      
     15800  -36900.137      197.80624     -36702.331      197.60154      194.15453      222.39705    
     15900  -36892.696      194.91139     -36697.785      197.55956      194.09202      222.50011    
     16000  -36886.105      194.31213     -36691.793      197.52785      194.04033      222.60317    
     16100  -36876.651      198.59868     -36678.052      197.49107      193.9853       222.70623    
     16200  -36864.101      198.59927     -36665.502      197.44971      193.92484      222.80928    
     16300  -36855.389      197.51927     -36657.869      197.41774      193.87452      222.91234    
     16400  -36849.45       196.42666     -36653.024      197.38299      193.82216      223.0154     
     16500  -36844.025      196.80628     -36647.218      197.34295      193.76441      223.11845    
     16600  -36834.814      197.03261     -36637.781      197.31101      193.71444      223.22151    
     16700  -36821.76       199.62148     -36622.139      197.27902      193.66448      223.32457    
     16800  -36811.91       199.23496     -36612.675      197.24206      193.60867      223.42762    
     16900  -36805.031      197.59354     -36607.438      197.21049      193.55848      223.53068    
     17000  -36792.706      191.29601     -36601.41       197.18122      193.5105       223.63374    
     17100  -36790.084      197.89835     -36592.186      197.14677      193.45703      223.7368     
     17200  -36781.285      201.36662     -36579.919      197.11742      193.40736      223.83985    
     17300  -36767.738      202.64642     -36565.091      197.09102      193.36027      223.94291    
     17400  -36759.776      202.05884     -36557.717      197.05995      193.30852      224.04597    
     17500  -36749.625      197.21429     -36552.41       197.03188      193.2588       224.14902    
     17600  -36740.658      194.52114     -36546.137      197.00752      193.21217      224.25208    
     17700  -36735.684      197.53329     -36538.151      196.98045      193.16267      224.35514    
     17800  -36723.963      197.75955     -36526.204      196.9539       193.11298      224.4582     
     17900  -36711.33       200.10127     -36511.228      196.93219      193.06843      224.56125    
     18000  -36702.88       199.83656     -36503.044      196.90813      193.0201       224.66431    
     18100  -36695.089      197.49585     -36497.593      196.88431      192.97157      224.76737    
     18200  -36689.548      198.97382     -36490.574      196.86477      192.9273       224.87042    
     18300  -36679.445      197.36112     -36482.084      196.84427      192.88103      224.97348    
     18400  -36671.442      199.35074     -36472.091      196.82276      192.83344      225.07654    
     18500  -36659.396      201.88685     -36457.51       196.8056       192.78964      225.17959    
     18600  -36644.31       198.43113     -36445.879      196.78858      192.74628      225.28265    
     18700  -36637.858      197.71612     -36440.141      196.76904      192.69959      225.38571    
     18800  -36632.507      198.34748     -36434.16       196.75265      192.65671      225.48877    
     18900  -36622.591      197.64252     -36424.949      196.73762      192.61546      225.59182    
     19000  -36612.642      198.33042     -36414.311      196.72         192.57166      225.69488    
     19100  -36601.158      198.95651     -36402.202      196.70476      192.53124      225.79794    
     19200  -36588.947      201.84435     -36387.103      196.68989      192.4921       225.90099    
     19300  -36582.1        203.99161     -36378.109      196.67352      192.45076      226.00405    
     19400  -36569.674      196.39109     -36373.283      196.65811      192.41154      226.10711    
     19500  -36560.643      195.6938      -36364.949      196.64305      192.37423      226.21016    
     19600  -36553.718      197.75099     -36355.967      196.62717      192.33677      226.31322    
     19700  -36544.454      198.312       -36346.142      196.61208      192.30033      226.41628    
     19800  -36532.728      198.62763     -36334.1        196.59754      192.26588      226.51934    
     19900  -36521.529      201.10969     -36320.42       196.58085      192.23149      226.62239    
     20000  -36510.894      200.3021      -36310.592      196.56586      192.19852      226.72545    
     20100  -36502.211      195.46743     -36306.743      196.55064      192.16675      226.82851    
     20200  -36493.747      195.30959     -36298.438      196.5337       192.13517      226.93156    
     20300  -36480.341      193.34954     -36286.991      196.5178       192.10554      227.03462    
     20400  -36473.117      199.69803     -36273.419      196.50261      192.07696      227.13768    
     20500  -36457.522      196.93988     -36260.582      196.4849       192.04898      227.24073    
     20600  -36452.879      201.27242     -36251.606      196.4671       192.02274      227.34379    
     20700  -36445.535      196.71228     -36248.822      196.45149      191.99774      227.44685    
     20800  -36433.021      194.56697     -36238.454      196.43307      191.97237      227.54991    
     20900  -36419.522      195.85961     -36223.662      196.41422      191.94937      227.65296    
     21000  -36409.625      198.91746     -36210.708      196.39742      191.92746      227.75602    
     21100  -36400.545      200.33325     -36200.212      196.37846      191.90423      227.85908    
     21200  -36389.277      195.8806      -36193.397      196.35954      191.8838       227.96213    
     21300  -36384.779      197.10657     -36187.673      196.34099      191.8638       228.06519    
     21400  -36371.265      195.82101     -36175.444      196.32188      191.84241      228.16825    
     21500  -36358.056      196.18558     -36161.871      196.30392      191.82443      228.2713     
     21600  -36350.048      200.03981     -36150.009      196.28475      191.80685      228.37436    
     21700  -36340.224      201.8337      -36138.39       196.2641       191.78643      228.47742    
     21800  -36326.93       198.65071     -36128.279      196.24742      191.77069      228.58048    
     21900  -36317.66       195.25569     -36122.405      196.22922      191.75532      228.68353    
     22000  -36309.001      195.52914     -36113.471      196.20656      191.7346       228.78659    
     22100  -36294.691      196.03966     -36098.652      196.19022      191.71907      228.88965    
     22200  -36284.701      200.19165     -36084.51       196.1745       191.70566      228.9927     
     22300  -36270.083      196.51161     -36073.571      196.15207      191.68521      229.09576    
     22400  -36259.755      195.64297     -36064.112      196.13577      191.66877      229.19882    
     22500  -36252.913      196.19454     -36056.719      196.12193      191.65579      229.30188    
     22600  -36242.019      192.30869     -36049.71       196.10033      191.63591      229.40493    
     22700  -36231.022      194.06382     -36036.958      196.08353      191.61792      229.50799    
     22800  -36217.879      197.99565     -36019.883      196.07206      191.60546      229.61105    
     22900  -36206.748      199.48985     -36007.258      196.05254      191.58604      229.7141     
     23000  -36195.712      199.55749     -35996.154      196.03441      191.56529      229.81716    
     23100  -36186.605      198.67773     -35987.928      196.02495      191.55274      229.92022    
     23200  -36176.401      195.69625     -35980.704      196.0082       191.53261      230.02327    
     23300  -36168.172      198.71106     -35969.461      195.99017      191.51008      230.12633    
     23400  -36151.589      199.9339      -35951.655      195.98228      191.49685      230.22939    
     23500  -36139.23       199.71089     -35939.519      195.96946      191.47776      230.33245    
     23600  -36131.522      200.42617     -35931.096      195.95164      191.45312      230.4355     
     23700  -36120.099      196.86572     -35923.233      195.94384      191.43653      230.53856    
     23800  -36110.358      197.75511     -35912.603      195.93453      191.41814      230.64162    
     23900  -36093.329      198.81747     -35894.511      195.91891      191.39255      230.74467    
     24000  -36079.776      198.2513      -35881.525      195.91164      191.37383      230.84773    
     24100  -36069.486      196.56401     -35872.922      195.90544      191.35477      230.95079    
     24200  -36062.321      197.03793     -35865.283      195.89099      191.32805      231.05384    
     24300  -36050.002      194.15184     -35855.85       195.88478      191.3084       231.1569     
     24400  -36036.404      195.17252     -35841.232      195.87962      191.28815      231.25996    
     24500  -36022.155      198.14149     -35824.014      195.86748      191.26109      231.36302    
     24600  -36014.124      199.83958     -35814.285      195.86083      191.24         231.46607    
     24700  -36004.862      198.13928     -35806.723      195.85603      191.21909      231.56913    
     24800  -35990.565      193.23379     -35797.331      195.84557      191.19213      231.67219    
     24900  -35980.4        196.55037     -35783.85       195.83756      191.16861      231.77524    
     25000  -35964.845      198.56952     -35766.276      195.83372      191.14939      231.8783     
     25100  -35954.929      199.91578     -35755.013      195.82488      191.12328      231.98136    
     25200  -35945.934      199.42248     -35746.511      195.81512      191.09799      232.08441    
     25300  -35932.582      195.25264     -35737.329      195.81046      191.07858      232.18747    
     25400  -35922.403      196.2634      -35726.14       195.80159      191.05429      232.29053    
     25500  -35911.002      198.61505     -35712.387      195.7913       191.02794      232.39359    
     25600  -35894.91       201.14238     -35693.767      195.7863       191.0093       232.49664    
     25700  -35882.648      200.23718     -35682.411      195.77706      190.98716      232.5997     
     25800  -35871.358      196.45853     -35674.9        195.76482      190.96109      232.70276    
     25900  -35863.209      197.47828     -35665.73       195.75811      190.94246      232.80581    
     26000  -35851.888      197.85452     -35654.033      195.74817      190.92257      232.90887    
     26100  -35837.822      197.86652     -35639.955      195.7333       190.89768      233.01193    
     26200  -35820.647      198.06937     -35622.577      195.72486      190.87944      233.11498    
     26300  -35811.166      202.29746     -35608.868      195.71469      190.86217      233.21804    
     26400  -35801.415      198.0694      -35603.345      195.69663      190.8381       233.3211     
     26500  -35788.77       195.2166      -35593.554      195.68481      190.81953      233.42416    
     26600  -35777.426      196.48348     -35580.943      195.67424      190.80469      233.52721    
     26700  -35766.221      198.93191     -35567.289      195.65527      190.78352      233.63027    
     26800  -35752.657      199.08498     -35553.572      195.63913      190.76444      233.73333    
     26900  -35740.867      199.17621     -35541.691      195.62802      190.75148      233.83638    
     27000  -35727.662      193.86117     -35533.801      195.60823      190.73282      233.93944    
     27100  -35719.167      194.50627     -35524.661      195.58839      190.71337      234.0425     
     27200  -35703.715      193.343       -35510.372      195.57669      190.7021       234.14556    
     27300  -35691.883      199.04739     -35492.836      195.55709      190.68522      234.24861    
     27400  -35678.277      197.98463     -35480.292      195.53419      190.66629      234.35167    
     27500  -35665.603      195.55193     -35470.051      195.52105      190.65575      234.45473    
     27600  -35658.131      197.97396     -35460.157      195.50194      190.64104      234.55778    
     27700  -35648.004      199.43059     -35448.573      195.47697      190.62138      234.66084    
     27800  -35633.474      201.02815     -35432.446      195.46094      190.61001      234.7639     
     27900  -35614.885      198.45363     -35416.431      195.44352      190.59774      234.86695    
     28000  -35603.006      198.5748      -35404.432      195.4168       190.57766      234.97001    
     28100  -35592.253      195.61142     -35396.642      195.3982       190.56379      235.07307    
     28200  -35584.608      197.21794     -35387.39       195.3812       190.55282      235.17613    
     28300  -35567.468      193.86481     -35373.603      195.35527      190.53338      235.27918    
     28400  -35553.678      194.19739     -35359.481      195.33509      190.51811      235.38224    
     28500  -35539.624      195.14504     -35344.478      195.31814      190.50587      235.4853     
     28600  -35529.327      198.80353     -35330.523      195.29434      190.48757      235.58835    
     28700  -35517.701      199.14963     -35318.552      195.27302      190.47004      235.69141    
     28800  -35506.382      196.0634      -35310.319      195.25644      190.45581      235.79447    
     28900  -35494.846      196.06867     -35298.778      195.23379      190.4366       235.89752    
     29000  -35483.481      201.54705     -35281.934      195.21276      190.41798      236.00058    
     29100  -35464.585      198.21962     -35266.365      195.19837      190.40369      236.10364    
     29200  -35452.766      198.8651      -35253.901      195.17694      190.38217      236.2067     
     29300  -35443.12       200.56425     -35242.556      195.15495      190.36066      236.30975    
     29400  -35429.438      196.65243     -35232.785      195.14172      190.345        236.41281    
     29500  -35418.807      192.21021     -35226.597      195.12251      190.3225       236.51587    
     29600  -35405.66       192.61293     -35213.047      195.10063      190.29768      236.61892    
     29700  -35390.148      194.55045     -35195.597      195.08772      190.28028      236.72198    
     29800  -35376.364      197.348       -35179.016      195.07175      190.25701      236.82504    
     29900  -35364.831      201.41414     -35163.417      195.05085      190.22959      236.92809    
     30000  -35346.354      196.50222     -35149.852      195.03788      190.20927      237.03115    
     30100  -35338.074      198.62926     -35139.445      195.02346      190.18558      237.13421    
     30200  -35330.953      199.0462      -35131.907      195.00426      190.15617      237.23727    
     30300  -35313.132      193.96128     -35119.171      194.99056      190.13257      237.34032    
     30400  -35297.158      194.61455     -35102.544      194.97802      190.10865      237.44338    
     30500  -35281.966      194.50893     -35087.457      194.96038      190.07824      237.54644    
     30600  -35271.008      197.38254     -35073.625      194.94647      190.05214      237.64949    
     30700  -35253.153      193.07078     -35060.082      194.93535      190.02729      237.75255    
     30800  -35247.177      200.66453     -35046.512      194.91869      189.99603      237.85561    
     30900  -35230.279      197.11068     -35033.168      194.90407      189.96804      237.95866    
     31000  -35219.767      198.15325     -35021.613      194.89337      189.94298      238.06172    
     31100  -35210.199      198.99625     -35011.203      194.87658      189.91145      238.16478    
     31200  -35195.283      196.02867     -34999.254      194.8601       189.88064      238.26784    
     31300  -35178.252      196.33987     -34981.912      194.84963      189.85646      238.37089    
     31400  -35164.445      199.84685     -34964.599      194.83355      189.82515      238.47395    
     31500  -35149.463      197.20355     -34952.26       194.81521      189.79313      238.57701    
     31600  -35138.756      196.02875     -34942.727      194.80197      189.76753      238.68006    
     31700  -35127.332      195.22459     -34932.107      194.78662      189.73793      238.78312    
     31800  -35113.367      195.73121     -34917.636      194.76697      189.70571      238.88618    
     31900  -35098.852      201.94161     -34896.91       194.75126      189.67938      238.98924    
     32000  -35081.903      197.65374     -34884.249      194.73661      189.65225      239.09229    
     32100  -35074.083      199.24737     -34874.836      194.71487      189.61943      239.19535    
     32200  -35061.199      196.83218     -34864.367      194.69575      189.59224      239.29841    
     32300  -35045.457      195.19773     -34850.259      194.68108      189.56777      239.40146    
     32400  -35031.482      200.99061     -34830.492      194.65875      189.53661      239.50452    
     32500  -35013.178      197.11952     -34816.058      194.63622      189.50832      239.60758    
     32600  -35005.037      199.50122     -34805.536      194.61945      189.48514      239.71063    
     32700  -34995.661      200.48815     -34795.173      194.59755      189.45692      239.81369    
     32800  -34979.106      196.58822     -34782.518      194.5717       189.4277       239.91675    
     32900  -34964.417      199.43491     -34764.983      194.55159      189.40446      240.01981    
     33000  -34948.189      201.50667     -34746.682      194.52995      189.37937      240.12286    
     33100  -34935.487      200.05163     -34735.436      194.50187      189.35071      240.22592    
     33200  -34924.297      198.13379     -34726.163      194.47747      189.32648      240.32898    
     33300  -34909.584      195.572       -34714.012      194.45426      189.30291      240.43203    
     33400  -34898.668      199.33491     -34699.333      194.42574      189.2767       240.53509    
     33500  -34879.28       199.35383     -34679.926      194.39891      189.25223      240.63815    
     33600  -34863.155      199.43001     -34663.725      194.37397      189.22913      240.7412     
     33700  -34851.891      198.71577     -34653.175      194.34464      189.20373      240.84426    
     33800  -34839.092      196.27304     -34642.819      194.31642      189.17947      240.94732    
     33900  -34827.335      196.55618     -34630.779      194.29023      189.15637      241.05038    
     34000  -34811.134      194.26706     -34616.867      194.25994      189.13164      241.15343    
     34100  -34800.868      201.98396     -34598.884      194.23071      189.10741      241.25649    
     34200  -34779.737      199.13697     -34580.6        194.2045       189.08502      241.35955    
     34300  -34770.949      201.90719     -34569.042      194.17272      189.05992      241.4626     
     34400  -34755.717      196.96119     -34558.756      194.14164      189.03424      241.56566    
     34500  -34745.342      198.78088     -34546.561      194.11475      189.0115       241.66872    
     34600  -34730.401      197.64844     -34532.753      194.08336      188.98622      241.77177    
     34700  -34711.861      195.66652     -34516.194      194.05188      188.95951      241.87483    
     34800  -34699.157      202.01216     -34497.145      194.02379      188.93502      241.97789    
     34900  -34685.234      200.23577     -34484.998      193.99363      188.90935      242.08095    
     35000  -34673.236      197.73115     -34475.505      193.96205      188.88083      242.184      
     35100  -34659.049      195.92259     -34463.127      193.93386      188.85523      242.28706    
     35200  -34645.311      195.65442     -34449.656      193.90469      188.82867      242.39012    
     35300  -34631.538      197.49332     -34434.045      193.87299      188.79801      242.49317    
     35400  -34614.846      199.71684     -34415.129      193.84557      188.77098      242.59623    
     35500  -34601.303      201.13933     -34400.163      193.81817      188.74351      242.69929    
     35600  -34588.021      197.04442     -34390.977      193.78672      188.71074      242.80235    
     35700  -34576.618      196.95551     -34379.663      193.7593       188.68102      242.9054     
     35800  -34565.842      200.78759     -34365.054      193.73419      188.65354      243.00846    
     35900  -34544.601      195.90711     -34348.694      193.70422      188.61891      243.11152    
     36000  -34530.039      198.49221     -34331.547      193.67592      188.58499      243.21457    
     36100  -34516.357      200.12866     -34316.228      193.65222      188.55652      243.31763    
     36200  -34507.2        201.253       -34305.947      193.62479      188.5221       243.42069    
     36300  -34493.675      197.23975     -34296.435      193.5952       188.48428      243.52374    
     36400  -34478.386      197.00242     -34281.384      193.57176      188.45346      243.6268     
     36500  -34462.926      200.13243     -34262.794      193.54742      188.41981      243.72986    
     36600  -34447.082      199.67751     -34247.405      193.5181       188.3803       243.83292    
     36700  -34433.895      199.51041     -34234.385      193.49362      188.34574      243.93597    
     36800  -34418.134      196.14332     -34221.991      193.47132      188.31171      244.03903    
     36900  -34405.984      197.09617     -34208.888      193.44371      188.27118      244.14209    
     37000  -34392.075      199.66898     -34192.406      193.4183       188.23321      244.24514    
     37100  -34374.182      201.18499     -34172.997      193.39806      188.19836      244.3482     
     37200  -34358.498      198.78275     -34159.716      193.37241      188.15837      244.45126    
     37300  -34346.306      195.82089     -34150.485      193.34444      188.11753      244.55431    
     37400  -34334.321      196.09433     -34138.226      193.32373      188.08131      244.65737    
     37500  -34317.468      194.62632     -34122.841      193.30016      188.04339      244.76043    
     37600  -34302.068      198.19094     -34103.877      193.27165      188.00153      244.86349    
     37700  -34287.377      201.0013      -34086.375      193.24822      187.96312      244.96654    
     37800  -34274.178      200.32427     -34073.854      193.22629      187.92665      245.0696     
     37900  -34262.543      200.06957     -34062.473      193.19689      187.88485      245.17266    
     38000  -34251.104      200.28116     -34050.823      193.17062      187.8446       245.27571    
     38100  -34234.046      197.46027     -34036.585      193.14762      187.80903      245.37877    
     38200  -34219.245      202.96578     -34016.279      193.12014      187.76975      245.48183    
     38300  -34201.643      201.29139     -34000.351      193.09147      187.72888      245.58488    
     38400  -34190.176      200.58224     -33989.594      193.06518      187.69188      245.68794    
     38500  -34173.75       195.84208     -33977.908      193.03778      187.65415      245.791      
     38600  -34159.432      195.3027      -33964.13       193.00964      187.61533      245.89406    
     38700  -34146.57       198.31767     -33948.253      192.98052      187.57834      245.99711    
     38800  -34129.662      199.972       -33929.69       192.95217      187.54172      246.10017    
     38900  -34110.37       201.36052     -33909.01       192.92333      187.50495      246.20323    
     39000  -34099.003      201.20138     -33897.801      192.8925       187.46911      246.30628    
     39100  -34085.536      197.96181     -33887.574      192.86135      187.43229      246.40934    
     39200  -34074.349      198.72319     -33875.626      192.8313       187.39731      246.5124     
     39300  -34058.809      197.09424     -33861.715      192.80022      187.36322      246.61545    
     39400  -34043.629      199.01676     -33844.612      192.76703      187.3279       246.71851    
     39500  -34026.422      201.67117     -33824.751      192.73383      187.29317      246.82157    
     39600  -34010.898      199.75175     -33811.146      192.70165      187.2616       246.92463    
     39700  -33999.177      198.69672     -33800.48       192.66786      187.22838      247.02768    
     39800  -33984.161      196.6689      -33787.492      192.63165      187.19423      247.13074    
     39900  -33970.193      196.92272     -33773.27       192.5979       187.16369      247.2338     
     40000  -33955.883      197.38008     -33758.503      192.56419      187.13306      247.33685    
     40100  -33938.898      197.40767     -33741.49       192.5254       187.09829      247.43991    
     40200  -33924.832      202.92631     -33721.906      192.48988      187.06834      247.54297    
     40300  -33907.86       199.4332      -33708.427      192.45727      187.03982      247.64603    
     40400  -33896.213      197.20843     -33699.005      192.41871      187.00659      247.74908    
     40500  -33883.767      197.90008     -33685.867      192.38096      186.97562      247.85214    
     40600  -33869.499      199.20156     -33670.297      192.34793      186.94779      247.9552     
     40700  -33851.178      198.31253     -33652.865      192.3107       186.91632      248.05825    
     40800  -33833.453      199.0294      -33634.423      192.27108      186.88468      248.16131    
     40900  -33819.68       203.06689     -33616.613      192.23694      186.8559       248.26437    
     41000  -33803.52       199.18616     -33604.334      192.20116      186.82629      248.36742    
     41100  -33793.889      198.50889     -33595.38       192.16123      186.79426      248.47048    
     41200  -33777.442      194.76348     -33582.679      192.12638      186.76439      248.57354    
     41300  -33763.309      196.40927     -33566.9        192.09121      186.73562      248.6766     
     41400  -33745.687      197.94174     -33547.745      192.05173      186.7036       248.77965    
     41500  -33733.341      201.52702     -33531.814      192.01693      186.67239      248.88271    
     41600  -33721.089      198.95729     -33522.132      191.98276      186.64334      248.98577    
     41700  -33705.639      194.195       -33511.444      191.94522      186.61089      249.08882    
     41800  -33689.743      195.49686     -33494.247      191.91042      186.57794      249.19188    
     41900  -33675.407      200.11895     -33475.288      191.87819      186.54752      249.29494    
     42000  -33657.32       198.56661     -33458.754      191.84322      186.51546      249.39799    
     42100  -33645.551      199.75205     -33445.799      191.80938      186.48113      249.50105    
     42200  -33633.724      196.94169     -33436.782      191.77808      186.44897      249.60411    
     42300  -33615.029      192.60506     -33422.424      191.74546      186.41649      249.70717    
     42400  -33603.287      198.68967     -33404.598      191.71339      186.38116      249.81022    
     42500  -33584.464      197.51921     -33386.945      191.68344      186.34823      249.91328    
     42600  -33566.624      196.17661     -33370.447      191.65281      186.31457      250.01634    
     42700  -33551.907      197.32381     -33354.583      191.6223       186.27735      250.11939    
     42800  -33536.331      197.3166      -33339.014      191.59393      186.24281      250.22245    
     42900  -33524.315      198.61292     -33325.702      191.56696      186.20864      250.32551    
     43000  -33510.079      196.28587     -33313.793      191.53744      186.16927      250.42856    
     43100  -33496.237      195.53848     -33300.699      191.51051      186.13303      250.53162    
     43200  -33482.022      198.07991     -33283.942      191.48588      186.09849      250.63468    
     43300  -33463.23       199.68437     -33263.546      191.45905      186.05935      250.73774    
     43400  -33447.005      198.70565     -33248.3        191.43156      186.01974      250.84079    
     43500  -33433.652      197.35062     -33236.302      191.40831      185.98425      250.94385    
     43600  -33418.927      196.07216     -33222.855      191.38535      185.94685      251.04691    
     43700  -33404.077      196.20223     -33207.875      191.35827      185.90655      251.14996    
     43800  -33389.151      197.02376     -33192.128      191.33449      185.86894      251.25302    
     43900  -33375.168      198.61993     -33176.549      191.31417      185.83321      251.35608    
     44000  -33357.744      197.6375      -33160.106      191.28877      185.79375      251.45913    
     44100  -33341.111      196.93874     -33144.172      191.2637       185.75412      251.56219    
     44200  -33330.34       199.82758     -33130.513      191.24409      185.71821      251.66525    
     44300  -33314.335      195.46466     -33118.87       191.2212       185.68115      251.76831    
     44400  -33299.136      193.79971     -33105.337      191.19482      185.64106      251.87136    
     44500  -33284.19       197.43374     -33086.756      191.17357      185.60484      251.97442    
     44600  -33266.407      199.58725     -33066.82       191.15321      185.57101      252.07748    
     44700  -33251.977      199.28462     -33052.692      191.1264       185.53189      252.18053    
     44800  -33240.815      199.62491     -33041.19       191.10114      185.4941       252.28359    
     44900  -33224.11       196.36072     -33027.75       191.08112      185.46222      252.38665    
     45000  -33210.057      198.06546     -33011.992      191.05547      185.42604      252.48971    
     45100  -33193.498      198.57204     -32994.926      191.02816      185.38832      252.59276    
     45200  -33175.486      198.30654     -32977.18       191.00721      185.35759      252.69582    
     45300  -33160.765      202.76059     -32958.004      190.9844       185.32559      252.79888    
     45400  -33144.49       199.1109      -32945.379      190.95458      185.28764      252.90193    
     45500  -33133.233      197.75334     -32935.48       190.92925      185.25652      253.00499    
     45600  -33117.4        195.57019     -32921.829      190.90805      185.22949      253.10805    
     45700  -33101.732      195.67813     -32906.054      190.87874      185.19531      253.2111     
     45800  -33085.078      198.3661      -32886.712      190.84838      185.16391      253.31416    
     45900  -33071.234      203.08352     -32868.15       190.82675      185.13962      253.41722    
     46000  -33053.145      197.4444      -32855.701      190.79924      185.11087      253.52028    
     46100  -33040.059      195.05767     -32845.001      190.76411      185.07883      253.62333    
     46200  -33026.662      196.89476     -32829.767      190.73935      185.05448      253.72639    
     46300  -33013.147      200.26331     -32812.883      190.71406      185.03162      253.82945    
     46400  -32995.383      199.44734     -32795.936      190.67844      185.00137      253.9325     
     46500  -32977.114      195.95169     -32781.162      190.64875      184.97535      254.03556    
     46600  -32967.179      197.13825     -32770.041      190.62356      184.95591      254.13862    
     46700  -32952.448      195.15774     -32757.29       190.58993      184.92934      254.24167    
     46800  -32934.53       195.02237     -32739.508      190.55716      184.90368      254.34473    
     46900  -32916.108      197.91822     -32718.19       190.53088      184.88571      254.44779    
     47000  -32902.589      199.8302      -32702.759      190.49973      184.86288      254.55085    
     47100  -32889.251      198.68235     -32690.569      190.46537      184.8374       254.6539     
     47200  -32874.67       196.69356     -32677.977      190.43725      184.81928      254.75696    
     47300  -32860.065      197.37046     -32662.695      190.40844      184.79963      254.86002    
     47400  -32846.767      203.03034     -32643.737      190.37293      184.77447      254.96307    
     47500  -32823.742      200.95264     -32622.789      190.34291      184.75497      255.06613    
     47600  -32810.763      201.1611      -32609.602      190.31679      184.73754      255.16919    
     47700  -32795.749      197.20698     -32598.542      190.28271      184.71429      255.27224    
     47800  -32784.566      199.63781     -32584.928      190.25071      184.69218      255.3753     
     47900  -32768.44       198.20011     -32570.24       190.22545      184.67541      255.47836    
     48000  -32750.516      194.86262     -32555.653      190.19421      184.65475      255.58142    
     48100  -32735.621      194.76024     -32540.861      190.16082      184.63017      255.68447    
     48200  -32721.398      198.00074     -32523.397      190.13441      184.61162      255.78753    
     48300  -32703.325      198.70004     -32504.625      190.10748      184.59355      255.89059    
     48400  -32687.817      199.10889     -32488.709      190.07563      184.56807      255.99364    
     48500  -32674.762      196.10375     -32478.658      190.04869      184.54724      256.0967     
     48600  -32658.627      193.70032     -32464.926      190.02517      184.52994      256.19976    
     48700  -32645.456      197.95576     -32447.5        189.9974       184.50534      256.30281    
     48800  -32629.015      199.83121     -32429.184      189.96981      184.48103      256.40587    
     48900  -32612.417      201.21383     -32411.203      189.94833      184.46231      256.50893    
     49000  -32595.485      201.35684     -32394.128      189.92497      184.4393       256.61199    
     49100  -32576.468      194.77797     -32381.69       189.89701      184.41308      256.71504    
     49200  -32565.104      195.06669     -32370.037      189.87571      184.39174      256.8181     
     49300  -32552.829      197.12841     -32355.701      189.85659      184.36995      256.92116    
     49400  -32536.066      197.88861     -32338.178      189.83079      184.34317      257.02421    
     49500  -32517.577      200.29025     -32317.287      189.80895      184.31714      257.12727    
     49600  -32501.477      199.76618     -32301.711      189.79294      184.29516      257.23033    
     49700  -32488.673      198.45231     -32290.221      189.77141      184.2691       257.33339    
     49800  -32473.734      198.29712     -32275.437      189.75013      184.24037      257.43644    
     49900  -32458.529      198.54441     -32259.985      189.7354       184.21618      257.5395     
     50000  -32443.95       199.12438     -32244.826      189.7177       184.19182      257.64256    
     50100  -32428.731      197.71606     -32231.015      189.69872      184.16147      257.74561    
     50200  -32411.717      193.75959     -32217.957      189.68302      184.13388      257.84867    
     50300  -32399.482      196.2262      -32203.256      189.66877      184.11029      257.95173    
     50400  -32379.291      196.55117     -32182.739      189.65299      184.08037      258.05478    
     50500  -32361.976      198.60723     -32163.369      189.63595      184.05089      258.15784    
     50600  -32346.011      197.05622     -32148.955      189.62284      184.02678      258.2609     
     50700  -32335.095      198.75108     -32136.344      189.60995      183.99814      258.36396    
     50800  -32320.41       198.33082     -32122.079      189.59252      183.96805      258.46701    
     50900  -32302.621      196.91268     -32105.708      189.57985      183.94316      258.57007    
     51000  -32285.683      196.88362     -32088.799      189.56871      183.91517      258.67313    
     51100  -32272.935      200.05393     -32072.881      189.55087      183.88552      258.77618    
     51200  -32254.851      194.64133     -32060.209      189.53675      183.85826      258.87924    
     51300  -32240.521      192.69646     -32047.825      189.52712      183.83274      258.9823     
     51400  -32225.827      195.42904     -32030.398      189.50993      183.80497      259.08535    
     51500  -32208.677      199.68869     -32008.988      189.49296      183.77537      259.18841    
     51600  -32190.582      198.30364     -31992.278      189.48217      183.75172      259.29147    
     51700  -32180.054      201.29921     -31978.755      189.46842      183.72798      259.39453    
     51800  -32165.068      199.3532      -31965.715      189.45057      183.69847      259.49758    
     51900  -32149.636      198.85103     -31950.785      189.43681      183.67374      259.60064    
     52000  -32134.989      200.4084      -31934.58       189.42435      183.6529       259.7037     
     52100  -32115.152      198.81407     -31916.338      189.40752      183.62604      259.80675    
     52200  -32093.291      198.65847     -31894.633      189.38917      183.60014      259.90981    
     52300  -32080.516      200.64944     -31879.867      189.37497      183.58016      260.01287    
     52400  -32070.609      201.15867     -31869.451      189.36027      183.55786      260.11592    
     52500  -32056.13       200.27918     -31855.851      189.33988      183.53321      260.21898    
     52600  -32036.359      195.39019     -31840.969      189.32235      183.51355      260.32204    
     52700  -32023.279      198.49528     -31824.784      189.30706      183.49402      260.4251     
     52800  -32005.215      197.27479     -31807.941      189.28524      183.47214      260.52815    
     52900  -31988.407      198.25551     -31790.151      189.26485      183.45299      260.63121    
     53000  -31972.467      199.88528     -31772.581      189.24868      183.43495      260.73427    
     53100  -31958.71       199.14602     -31759.564      189.22724      183.41661      260.83732    
     53200  -31942.971      195.58245     -31747.389      189.20494      183.39824      260.94038    
     53300  -31927.213      196.0061      -31731.207      189.1866       183.38086      261.04344    
     53400  -31910.036      196.13642     -31713.9        189.16516      183.36574      261.1465     
     53500  -31894.188      198.44132     -31695.747      189.14186      183.34815      261.24955    
     53600  -31877.968      200.88725     -31677.081      189.12144      183.33256      261.35261    
     53700  -31861.999      198.31207     -31663.687      189.09936      183.31879      261.45567    
     53800  -31850.595      198.82034     -31651.774      189.07512      183.30268      261.55872    
     53900  -31834.304      197.88429     -31636.419      189.05353      183.28845      261.66178    
     54000  -31817.58       198.27398     -31619.306      189.0316       183.2769       261.76484    
     54100  -31799.122      198.82451     -31600.297      189.00636      183.26107      261.86789    
     54200  -31784.689      203.54276     -31581.146      188.98125      183.24606      261.97095    
     54300  -31769.715      201.75001     -31567.965      188.95879      183.23547      262.07401    
     54400  -31754.654      198.41028     -31556.244      188.9364       183.22261      262.17707    
     54500  -31735.721      194.85634     -31540.864      188.9109       183.20895      262.28012    
     54600  -31720.965      196.61036     -31524.355      188.88576      183.19568      262.38318    
     54700  -31704.754      197.80785     -31506.947      188.86334      183.18318      262.48624    
     54800  -31691.09       201.18776     -31489.902      188.83837      183.17108      262.58929    
     54900  -31673.945      197.28047     -31476.664      188.81486      183.15814      262.69235    
     55000  -31659.093      195.55487     -31463.538      188.7926       183.1458       262.79541    
     55100  -31642.411      195.22933     -31447.181      188.7674       183.13244      262.89846    
     55200  -31623.519      195.62983     -31427.89       188.74464      183.11901      263.00152    
     55300  -31609.053      203.64746     -31405.406      188.72293      183.10552      263.10458    
     55400  -31592.134      201.45713     -31390.677      188.69875      183.09186      263.20764    
     55500  -31578.594      200.50567     -31378.088      188.67634      183.07692      263.31069    
     55600  -31560.85       197.10748     -31363.743      188.65579      183.06348      263.41375    
     55700  -31547.608      197.77247     -31349.836      188.63438      183.05022      263.51681    
     55800  -31530.919      196.05396     -31334.865      188.61206      183.03396      263.61986    
     55900  -31514.068      195.32992     -31318.738      188.59098      183.01826      263.72292    
     56000  -31498.981      198.31263     -31300.668      188.57038      183.00401      263.82598    
     56100  -31481.681      199.38762     -31282.293      188.55016      182.9873       263.92903    
     56200  -31467.585      200.33642     -31267.249      188.53037      182.97019      264.03209    
     56300  -31451.639      196.8821      -31254.757      188.51133      182.9541       264.13515    
     56400  -31434.578      195.85405     -31238.724      188.49328      182.93594      264.23821    
     56500  -31420.885      199.08969     -31221.796      188.47537      182.91795      264.34126    
     56600  -31403.073      197.39334     -31205.68       188.45819      182.90037      264.44432    
     56700  -31387.137      194.85709     -31192.28       188.44185      182.88031      264.54738    
     56800  -31372.347      196.07887     -31176.268      188.42499      182.86135      264.65043    
     56900  -31352.594      196.28647     -31156.308      188.40942      182.84228      264.75349    
     57000  -31336.679      201.53263     -31135.146      188.39472      182.8215       264.85655    
     57100  -31320.959      201.2565      -31119.703      188.37831      182.80087      264.9596     
     57200  -31303.222      194.96754     -31108.255      188.36477      182.78034      265.06266    
     57300  -31291.548      199.30338     -31092.244      188.35095      182.75953      265.16572    
     57400  -31272.955      196.75229     -31076.203      188.33584      182.73691      265.26878    
     57500  -31258.524      198.17658     -31060.347      188.32249      182.71425      265.37183    
     57600  -31243.489      197.58671     -31045.903      188.31126      182.69402      265.47489    
     57700  -31226.012      194.86685     -31031.145      188.29702      182.67021      265.57795    
     57800  -31212.142      197.10613     -31015.036      188.28371      182.64557      265.681      
     57900  -31194.717      197.50527     -30997.212      188.27358      182.62522      265.78406    
     58000  -31174.263      197.15057     -30977.112      188.26087      182.60141      265.88712    
     58100  -31160.272      201.97587     -30958.296      188.24671      182.57516      265.99018    
     58200  -31144.272      199.75234     -30944.52       188.23652      182.55365      266.09323    
     58300  -31127.643      196.08159     -30931.561      188.22567      182.5308       266.19629    
     58400  -31113.592      199.14912     -30914.443      188.21206      182.50399      266.29935    
     58500  -31094.488      198.2732      -30896.215      188.20036      182.48159      266.4024     
     58600  -31076.625      198.09056     -30878.535      188.19157      182.45951      266.50546    
     58700  -31062.975      197.68828     -30865.287      188.17691      182.4326       266.60852    
     58800  -31048.635      198.05748     -30850.578      188.16429      182.40901      266.71157    
     58900  -31031.685      199.19825     -30832.486      188.15519      182.38815      266.81463    
     59000  -31008.989      195.0406      -30813.949      188.14105      182.36312      266.91769    
     59100  -30996.372      200.57793     -30795.794      188.12589      182.33845      267.02075    
     59200  -30984.08       202.0841      -30781.995      188.11409      182.31717      267.1238     
     59300  -30964.464      196.87218     -30767.592      188.10119      182.29361      267.22686    
     59400  -30947.583      196.33817     -30751.245      188.08646      182.27157      267.32992    
     59500  -30930.973      197.71353     -30733.26       188.07292      182.24967      267.43297    
     59600  -30914.302      197.61256     -30716.689      188.05824      182.22768      267.53603    
     59700  -30898.295      196.18137     -30702.113      188.04234      182.20541      267.63909    
     59800  -30877.881      192.26151     -30685.62       188.02682      182.18448      267.74214    
     59900  -30866.466      199.45924     -30667.007      188.01328      182.16569      267.8452     
     60000  -30847.5        201.11539     -30646.384      187.99589      182.14443      267.94826    
     60100  -30826.786      199.66729     -30627.118      187.97634      182.12227      268.05132    
     60200  -30811.053      197.81146     -30613.242      187.96215      182.10525      268.15437    
     60300  -30798.576      199.34385     -30599.232      187.94534      182.08748      268.25743    
     60400  -30780.946      198.1334      -30582.813      187.92338      182.06549      268.36049    
     60500  -30762.425      196.73747     -30565.688      187.90556      182.04821      268.46354    
     60600  -30746.606      196.18623     -30550.42       187.8895       182.03311      268.5666     
     60700  -30731.625      194.65225     -30536.973      187.86773      182.01333      268.66966    
     60800  -30715.306      197.28286     -30518.024      187.84639      181.99567      268.77271    
     60900  -30695.668      198.82058     -30496.848      187.82801      181.98048      268.87577    
     61000  -30677.999      199.69519     -30478.304      187.80656      181.96316      268.97883    
     61100  -30662.539      200.82292     -30461.716      187.7833       181.94613      269.08189    
     61200  -30644.36       198.55185     -30445.808      187.76274      181.93128      269.18494    
     61300  -30629.754      200.1576      -30429.597      187.74158      181.9157       269.288      
     61400  -30609.818      197.65878     -30412.16       187.71753      181.89995      269.39106    
     61500  -30594.186      199.55116     -30394.635      187.69623      181.88544      269.49411    
     61600  -30576.207      199.31389     -30376.893      187.67294      181.87021      269.59717    
     61700  -30558.611      199.06128     -30359.55       187.64904      181.85586      269.70023    
     61800  -30542.238      200.61035     -30341.628      187.62563      181.84114      269.80328    
     61900  -30523.771      198.57075     -30325.2        187.6015       181.82538      269.90634    
     62000  -30506.602      197.34854     -30309.254      187.57839      181.81252      270.0094     
     62100  -30490.465      198.83946     -30291.625      187.55346      181.79826      270.11246    
     62200  -30471.982      198.66069     -30273.321      187.52991      181.78329      270.21551    
     62300  -30452.972      197.98381     -30254.988      187.50576      181.76979      270.31857    
     62400  -30435.487      198.42548     -30237.062      187.47936      181.75416      270.42163    
     62500  -30418.073      198.4049      -30219.668      187.4558       181.74005      270.52468    
     62600  -30399.881      197.29955     -30202.581      187.4326       181.7261       270.62774    
     62700  -30382.658      197.95829     -30184.7        187.4064       181.70953      270.7308     
     62800  -30364.569      197.65183     -30166.917      187.38225      181.69482      270.83386    
     62900  -30347.961      199.01738     -30148.943      187.35974      181.68032      270.93691    
     63000  -30327.846      196.78683     -30131.059      187.33451      181.66385      271.03997    
     63100  -30310.038      197.20386     -30112.835      187.31101      181.64922      271.14303    
     63200  -30292.189      197.96609     -30094.223      187.28822      181.63346      271.24608    
     63300  -30274.951      198.95994     -30075.991      187.26194      181.61505      271.34914    
     63400  -30258.084      199.36868     -30058.716      187.23973      181.60081      271.4522     
     63500  -30240.743      199.75851     -30040.984      187.21795      181.58459      271.55525    
     63600  -30223.14       200.62519     -30022.515      187.19215      181.56401      271.65831    
     63700  -30203.804      199.44107     -30004.363      187.17006      181.54806      271.76137    
     63800  -30183.066      196.73199     -29986.334      187.14952      181.53153      271.86443    
     63900  -30163.729      195.80172     -29967.927      187.12605      181.51082      271.96748    
     64000  -30146.858      198.46005     -29948.398      187.1037       181.49145      272.07054    
     64100  -30126.168      195.17195     -29930.996      187.08376      181.47495      272.1736     
     64200  -30112          197.87495     -29914.126      187.06141      181.45332      272.27665    
     64300  -30092.947      198.05276     -29894.895      187.04016      181.4322       272.37971    
     64400  -30069.283      194.30364     -29874.979      187.02142      181.41452      272.48277    
     64500  -30053.617      197.31415     -29856.303      187.00031      181.39235      272.58582    
     64600  -30034.579      195.93176     -29838.647      186.97973      181.369        272.68888    
     64700  -30018.436      200.58765     -29817.848      186.96168      181.34903      272.79194    
     64800  -29996.573      198.0137      -29798.56       186.94158      181.32623      272.895      
     64900  -29982.811      201.74484     -29781.066      186.92201      181.30145      272.99805    
     65000  -29961.94       198.82648     -29763.113      186.90536      181.28069      273.10111    
     65100  -29937.71       194.45401     -29743.256      186.88703      181.25738      273.20417    
     65200  -29924.132      200.28103     -29723.851      186.86765      181.23201      273.30722    
     65300  -29903.288      199.75034     -29703.538      186.85059      181.20782      273.41028    
     65400  -29887.329      203.79666     -29683.532      186.83322      181.18351      273.51334    
     65500  -29862.39       199.25228     -29663.138      186.81442      181.15768      273.61639    
     65600  -29843.538      199.39469     -29644.143      186.79882      181.133        273.71945    
     65700  -29823.424      198.24789     -29625.176      186.78388      181.10908      273.82251    
     65800  -29802.517      197.37314     -29605.144      186.76407      181.08193      273.92557    
     65900  -29784.592      199.54512     -29585.047      186.74728      181.05565      274.02862    
     66000  -29763.676      198.1937      -29565.482      186.73304      181.03099      274.13168    
     66100  -29741.116      195.64036     -29545.476      186.71515      181.00517      274.23474    
     66200  -29721.752      197.56912     -29524.183      186.69661      180.97768      274.33779    
     66300  -29702.825      198.44518     -29504.38       186.68216      180.95333      274.44085    
     66400  -29683.318      198.28293     -29485.035      186.66476      180.92666      274.54391    
     66500  -29665.093      200.52318     -29464.57       186.64566      180.89938      274.64696    
     66600  -29643.997      199.03694     -29444.96       186.63129      180.87521      274.75002    
     66700  -29621.302      196.30593     -29424.996      186.61294      180.84764      274.85308    
     66800  -29602.132      198.68516     -29403.447      186.59322      180.82025      274.95614    
     66900  -29578.481      195.75893     -29382.722      186.57842      180.79722      275.05919    
     67000  -29562.74       201.20466     -29361.536      186.55967      180.77022      275.16225    
     67100  -29535.689      196.0207      -29339.668      186.53952      180.74297      275.26531    
     67200  -29523.43       204.74802     -29318.682      186.52386      180.7203       275.36836    
     67300  -29498.064      200.48831     -29297.575      186.50592      180.6955       275.47142    
     67400  -29478.23       202.17891     -29276.051      186.48327      180.66728      275.57448    
     67500  -29458.18       203.4464      -29254.734      186.46603      180.64444      275.67754    
     67600  -29432.16       198.13854     -29234.022      186.44813      180.62096      275.78059    
     67700  -29410.39       197.83494     -29212.556      186.42498      180.5941       275.88365    
     67800  -29391.427      200.82598     -29190.601      186.40668      180.57131      275.98671    
     67900  -29371.159      201.31939     -29169.839      186.38802      180.5491       276.08976    
     68000  -29352.222      203.37829     -29148.843      186.36311      180.5226       276.19282    
     68100  -29324.689      197.31497     -29127.374      186.34373      180.50121      276.29588    
     68200  -29303.775      198.10345     -29105.671      186.32581      180.48092      276.39893    
     68300  -29278.15       193.91232     -29084.238      186.29923      180.45416      276.50199    
     68400  -29262.938      200.57471     -29062.364      186.27849      180.4338       276.60505    
     68500  -29241.697      201.92285     -29039.774      186.25887      180.41418      276.70811    
     68600  -29215.562      198.219       -29017.343      186.23152      180.38807      276.81116    
     68700  -29197.754      204.02663     -28993.728      186.21016      180.36884      276.91422    
     68800  -29171.38       200.08337     -28971.297      186.18989      180.35058      277.01728    
     68900  -29145.112      197.33467     -28947.778      186.16195      180.3257       277.12033    
     69000  -29127.017      202.14783     -28924.87       186.13841      180.30569      277.22339    
     69100  -29103.227      200.73662     -28902.491      186.1172       180.28873      277.32645    
     69200  -29080.947      200.82184     -28880.125      186.08946      180.26577      277.4295     
     69300  -29058.157      200.51939     -28857.637      186.06412      180.24573      277.53256    
     69400  -29036.346      201.69698     -28834.649      186.04228      180.22951      277.63562    
     69500  -29012.694      201.29954     -28811.394      186.01415      180.20784      277.73868    
     69600  -28985.628      197.22978     -28788.399      185.98826      180.1881       277.84173    
     69700  -28964.517      199.68637     -28764.831      185.96678      180.17286      277.94479    
     69800  -28938.707      197.02014     -28741.687      185.93848      180.15203      278.04785    
     69900  -28916.614      198.37286     -28718.241      185.91124      180.13209      278.1509     
     70000  -28899.37       204.72195     -28694.648      185.88881      180.11641      278.25396    
     70100  -28873.509      201.88723     -28671.622      185.86183      180.09703      278.35702    
     70200  -28848.031      200.6029      -28647.428      185.83447      180.07763      278.46007    
     70300  -28823.403      200.80932     -28622.594      185.81074      180.06156      278.56313    
     70400  -28798.693      199.73847     -28598.955      185.78416      180.0424       278.66619    
     70500  -28777.228      201.36437     -28575.863      185.75723      180.02345      278.76925    
     70600  -28753.442      201.31342     -28552.128      185.73284      180.00704      278.8723     
     70700  -28729.363      203.28106     -28526.082      185.70613      179.98763      278.97536    
     70800  -28703.692      201.80439     -28501.887      185.68038      179.96912      279.07842    
     70900  -28679.173      201.81923     -28477.354      185.6561       179.95225      279.18147    
     71000  -28654.515      201.00937     -28453.506      185.62907      179.93299      279.28453    
     71100  -28631.715      203.08348     -28428.632      185.60389      179.91433      279.38759    
     71200  -28606.138      203.20622     -28402.932      185.58044      179.89758      279.49065    
     71300  -28581.663      204.52837     -28377.134      185.5547       179.87845      279.5937     
     71400  -28553.112      200.95181     -28352.161      185.52924      179.85945      279.69676    
     71500  -28532.695      205.67083     -28327.024      185.50593      179.84182      279.79982    
     71600  -28504.433      204.12271     -28300.311      185.48067      179.82217      279.90287    
     71700  -28479.303      205.2831      -28274.02       185.45604      179.80264      280.00593    
     71800  -28455.189      205.03361     -28250.155      185.43426      179.78538      280.10899    
     71900  -28427.886      202.68186     -28225.204      185.40976      179.76492      280.21204    
     72000  -28404.702      203.75077     -28200.951      185.38603      179.74491      280.3151     
     72100  -28378.053      202.60811     -28175.445      185.36477      179.72704      280.41816    
     72200  -28355.531      205.14241     -28150.389      185.34103      179.70633      280.52122    
     72300  -28328.533      204.76784     -28123.766      185.31855      179.68598      280.62427    
     72400  -28303.321      206.18196     -28097.139      185.29772      179.66748      280.72733    
     72500  -28278.087      205.8824      -28072.205      185.27495      179.64652      280.83039    
     72600  -28253.637      206.58722     -28047.05       185.25302      179.62559      280.93344    
     72700  -28223.544      205.20022     -28018.344      185.2325       179.60575      281.0365     
     72800  -28197.151      206.41273     -27990.738      185.21098      179.58469      281.13956    
     72900  -28171.236      207.647       -27963.589      185.19049      179.56383      281.24261    
     73000  -28141.556      205.97619     -27935.579      185.17053      179.54273      281.34567    
     73100  -28115.78       206.51036     -27909.269      185.14978      179.52132      281.44873    
     73200  -28088.195      205.18753     -27883.007      185.13014      179.49999      281.55179    
     73300  -28061          205.95856     -27855.041      185.11109      179.47879      281.65484    
     73400  -28035.13       207.59484     -27827.535      185.0914       179.45714      281.7579     
     73500  -28011.353      210.66891     -27800.684      185.07194      179.43505      281.86096    
     73600  -27981.551      208.67029     -27772.881      185.05328      179.4131       281.96401    
     73700  -27957.929      213.34635     -27744.583      185.03473      179.39195      282.06707    
     73800  -27925.182      208.71101     -27716.471      185.01576      179.36963      282.17013    
     73900  -27898.186      211.35582     -27686.83       184.99764      179.34767      282.27318    
     74000  -27872.684      213.52898     -27659.155      184.97976      179.32627      282.37624    
     74100  -27841.08       211.19422     -27629.886      184.9607       179.30322      282.4793     
     74200  -27817.774      216.29996     -27601.474      184.94293      179.28117      282.58236    
     74300  -27785.349      212.11152     -27573.238      184.92567      179.25982      282.68541    
     74400  -27755.135      212.38106     -27542.754      184.90697      179.23689      282.78847    
     74500  -27732.797      214.50289     -27518.294      184.8895       179.21471      282.89153    
     74600  -27701.789      211.92716     -27489.862      184.87302      179.19361      282.99458    
     74700  -27678.125      216.3728      -27461.752      184.85384      179.17043      283.09764    
     74800  -27651.995      217.95219     -27434.043      184.83678      179.1484       283.2007     
     74900  -27614.542      214.06011     -27400.482      184.82101      179.12761      283.30375    
     75000  -27586.784      213.55829     -27373.225      184.80149      179.10427      283.40681    
     75100  -27557.154      213.34064     -27343.814      184.7838       179.0821       283.50987    
     75200  -27533.973      221.09044     -27312.883      184.76826      179.06141      283.61293    
     75300  -27503.799      220.49364     -27283.305      184.74932      179.03861      283.71598    
     75400  -27470.677      220.12768     -27250.549      184.73093      179.01628      283.81904    
     75500  -27441.083      219.75254     -27221.331      184.71558      178.99602      283.9221     
     75600  -27412.83       222.37951     -27190.451      184.69752      178.97385      284.02515    
     75700  -27382.028      224.66005     -27157.368      184.67855      178.95119      284.12821    
     75800  -27343.564      219.39932     -27124.165      184.66215      178.93054      284.23127    
     75900  -27321.02       226.23388     -27094.786      184.64526      178.9094       284.33433    
     76000  -27293.021      230.57964     -27062.441      184.62617      178.887        284.43738    
     76100  -27260.769      228.3906      -27032.378      184.60877      178.86583      284.54044    
     76200  -27229.554      230.39815     -26999.156      184.59232      178.84551      284.6435     
     76300  -27200.303      229.19668     -26971.107      184.5733       178.82351      284.74655    
     76400  -27166.936      230.38062     -26936.555      184.55526      178.80222      284.84961    
     76500  -27140.489      236.47325     -26904.015      184.53832      178.78189      284.95267    
     76600  -27105.843      235.5146      -26870.329      184.51992      178.7607       285.05572    
     76700  -27069.199      236.20798     -26832.991      184.5009       178.73894      285.15878    
     76800  -27037.614      235.92933     -26801.684      184.4833       178.71837      285.26184    
     76900  -27007.722      234.11871     -26773.603      184.46549      178.69808      285.3649     
     77000  -26980.076      239.94438     -26740.132      184.44637      178.67682      285.46795    
     77100  -26942.764      235.68979     -26707.074      184.42812      178.65583      285.57101    
     77200  -26916.811      241.41786     -26675.393      184.41039      178.63589      285.67407    
     77300  -26881.623      238.81436     -26642.809      184.39137      178.61498      285.77712    
     77400  -26856.666      246.37987     -26610.286      184.37261      178.59387      285.88018    
     77500  -26822.735      245.27846     -26577.456      184.35458      178.57416      285.98324    
     77600  -26781.045      237.53604     -26543.509      184.33541      178.55344      286.08629    
     77700  -26756.213      244.07332     -26512.14       184.31626      178.53232      286.18935    
     77800  -26723.515      243.79048     -26479.725      184.29779      178.5124       286.29241    
     77900  -26691.05       247.12496     -26443.925      184.27899      178.49234      286.39547    
     78000  -26649.422      249.09436     -26400.327      184.25903      178.47083      286.49852    
     78100  -26624.792      258.25027     -26366.542      184.24003      178.45076      286.60158    
     78200  -26682.1        337.13819     -26344.961      184.22153      178.43112      286.70464    
     78300  -27036.934      608.26151     -26428.672      184.20017      178.41071      286.80769    
     78400  -27842.433      996.69739     -26845.736      184.18685      178.40069      286.91075    
     78500  -28997.439      1241.5895     -27755.85       184.19242      178.39669      287.01381    
     78600  -30367.783      1308.1438     -29059.639      184.22957      178.41843      287.11686    
     78700  -31569.961      1148.0408     -30421.921      184.33628      178.50388      287.21992    
     78800  -32480.1        933.33993     -31546.76       184.44959      178.59861      287.32298    
     78900  -33212.367      779.79744     -32432.57       184.52237      178.65903      287.42604    
     79000  -33818.239      673.33562     -33144.903      184.59924      178.72767      287.52909    
     79100  -34350.959      604.95858     -33746          184.67948      178.79775      287.63215    
     79200  -34820.819      552.01762     -34268.801      184.74493      178.85357      287.73521    
     79300  -35245.519      512.02347     -34733.496      184.81577      178.91453      287.83826    
     79400  -35635.762      481.36084     -35154.401      184.88787      178.976        287.94132    
     79500  -36001.842      458.91298     -35542.929      184.95014      179.02725      288.04438    
     79600  -36345.818      439.29064     -35906.527      185.01491      179.07972      288.14743    
     79700  -36645.135      402.68656     -36242.449      185.08052      179.13208      288.25049    
     79800  -36879.395      356.14686     -36523.248      185.14378      179.18233      288.35355    
     79900  -37059.662      311.26819     -36748.394      185.21271      179.23787      288.45661    
     80000  -37193.594      270.14319     -36923.451      185.28381      179.29505      288.55966    
     80100  -37283.547      230.95026     -37052.597      185.35599      179.35314      288.66272    
     80200  -37331.25       194.12087     -37137.129      185.43522      179.41759      288.76578    
     80300  -37343.669      168.09207     -37175.577      185.51481      179.48251      288.86883    
     80400  -37330.982      167.59876     -37163.384      185.58572      179.5394       288.97189    
     80500  -37284.501      173.08828     -37111.413      185.65066      179.59092      289.07495    
     80600  -37200.058      149.79901     -37050.259      185.70856      179.63604      289.17801    
     80700  -37102.461      113.71212     -36988.749      185.76532      179.68162      289.28106    
     80800  -37028.418      94.714908     -36933.703      185.8141       179.71908      289.38412    
     80900  -37029.314      161.00695     -36868.307      185.84712      179.74263      289.48718    
     81000  -37050.847      250.85159     -36799.996      185.85077      179.73637      289.59023    
     81100  -37038.75       211.4891      -36827.261      185.87332      179.74364      289.69329    
     81200  -37064.259      188.36371     -36875.895      185.93632      179.79063      289.79635    
     81300  -37111.213      203.91501     -36907.298      186.00952      179.85541      289.8994     
     81400  -37142.834      199.51822     -36943.315      186.06921      179.91523      290.00246    
     81500  -37156.078      180.65241     -36975.426      186.11958      179.97493      290.10552    
     81600  -37169.236      188.09208     -36981.144      186.17079      180.03397      290.20858    
     81700  -37179.891      208.44489     -36971.446      186.20605      180.08642      290.31163    
     81800  -37177.34       198.04555     -36979.295      186.2366       180.12996      290.41469    
     81900  -37188.54       197.19995     -36991.34       186.27669      180.18265      290.51775    
     82000  -37183.972      186.39044     -36997.581      186.32983      180.24513      290.6208     
     82100  -37181.785      195.62029     -36986.165      186.3664       180.29544      290.72386    
     82200  -37170.845      201.08475     -36969.76       186.40234      180.34096      290.82692    
     82300  -37161.587      201.62554     -36959.962      186.43907      180.38067      290.92997    
     82400  -37172.217      208.71358     -36963.503      186.48433      180.42856      291.03303    
     82500  -37185.419      198.49959     -36986.919      186.5209       180.47748      291.13609    
     82600  -37201.881      189.74295     -37012.138      186.55698      180.51463      291.23915    
     82700  -37206.851      186.94985     -37019.901      186.60217      180.55357      291.3422     
     82800  -37203.797      194.81552     -37008.981      186.6389       180.58264      291.44526    
     82900  -37196.458      202.38858     -36994.069      186.67096      180.60995      291.54832    
     83000  -37184.34       197.44772     -36986.892      186.71798      180.64872      291.65137    
     83100  -37180.506      197.62779     -36982.878      186.74303      180.66501      291.75443    
     83200  -37179.921      198.63401     -36981.287      186.7692       180.67967      291.85749    
     83300  -37165.345      188.93658     -36976.409      186.80264      180.69942      291.96054    
     83400  -37164.111      201.21364     -36962.898      186.83367      180.70955      292.0636     
     83500  -37158.514      202.05904     -36956.454      186.86768      180.72057      292.16666    
     83600  -37159.236      200.99787     -36958.238      186.89673      180.73075      292.26972    
     83700  -37163.015      198.07587     -36964.939      186.93274      180.75349      292.37277    
     83800  -37165.014      191.97956     -36973.034      186.96113      180.77113      292.47583    
     83900  -37177.988      199.87566     -36978.112      186.99196      180.79705      292.57889    
     84000  -37180.443      197.66493     -36982.778      187.03373      180.83275      292.68194    
     84100  -37182.24       195.52953     -36986.71       187.05716      180.84459      292.785      
     84200  -37184.627      197.10615     -36987.521      187.08513      180.86051      292.88806    
     84300  -37188.072      201.60085     -36986.471      187.12307      180.89243      292.99111    
     84400  -37190.046      198.63417     -36991.412      187.1402       180.90496      293.09417    
     84500  -37192.141      194.43271     -36997.708      187.16172      180.91322      293.19723    
     84600  -37183.178      189.08012     -36994.098      187.19428      180.92381      293.30029    
     84700  -37183.972      204.10591     -36979.866      187.21212      180.92144      293.40334    
     84800  -37178.438      206.3647      -36972.073      187.2387       180.92853      293.5064     
     84900  -37183.218      204.90152     -36978.317      187.27446      180.94621      293.60946    
     85000  -37193.008      196.33894     -36996.669      187.29916      180.96223      293.71251    
     85100  -37201.21       191.02342     -37010.187      187.32537      180.98972      293.81557    
     85200  -37198.221      188.99087     -37009.23       187.34755      181.01401      293.91863    
     85300  -37190.092      195.81621     -36994.276      187.35696      181.02871      294.02169    
     85400  -37182.913      204.26235     -36978.65       187.37594      181.05133      294.12474    
     85500  -37182.915      205.40405     -36977.511      187.38841      181.06593      294.2278     
     85600  -37186.546      196.25965     -36990.286      187.39349      181.07575      294.33086    
     85700  -37191.394      189.35121     -37002.043      187.4131       181.09869      294.43391    
     85800  -37189.476      191.3617      -36998.114      187.41812      181.11408      294.53697    
     85900  -37182.541      200.91003     -36981.631      187.42213      181.13586      294.64003    
     86000  -37178.007      206.84804     -36971.159      187.4323       181.16605      294.74308    
     86100  -37186.033      205.1644      -36980.868      187.43231      181.17986      294.84614    
     86200  -37198.922      196.12045     -37002.802      187.44896      181.20473      294.9492     
     86300  -37202.782      183.66958     -37019.112      187.46517      181.22999      295.05226    
     86400  -37207.818      190.94598     -37016.872      187.46573      181.23885      295.15531    
     86500  -37204.396      201.52547     -37002.87       187.48118      181.26053      295.25837    
     86600  -37197.591      204.72256     -36992.868      187.49305      181.27549      295.36143    
     86700  -37194.586      199.09059     -36995.495      187.49496      181.28162      295.46448    
     86800  -37197.291      195.59404     -37001.697      187.50691      181.29866      295.56754    
     86900  -37199.61       197.02805     -37002.582      187.51668      181.31616      295.6706     
     87000  -37194.975      196.54765     -36998.427      187.52107      181.32442      295.77365    
     87100  -37193.287      198.66245     -36994.624      187.5339       181.34424      295.87671    
     87200  -37193.118      201.2314      -36991.887      187.54498      181.35759      295.97977    
     87300  -37194.39       198.96066     -36995.429      187.55852      181.36929      296.08283    
     87400  -37200.908      198.11985     -37002.789      187.5787       181.38733      296.18588    
     87500  -37204.062      195.17168     -37008.89       187.59605      181.40601      296.28894    
     87600  -37200.484      192.80009     -37007.684      187.61033      181.42364      296.392      
     87700  -37196.297      197.73014     -36998.567      187.62359      181.43735      296.49505    
     87800  -37191.927      202.95253     -36988.975      187.63501      181.45048      296.59811    
     87900  -37186.828      200.8699      -36985.958      187.64345      181.46044      296.70117    
     88000  -37188.515      198.24829     -36990.266      187.65381      181.47116      296.80422    
     88100  -37192.056      194.32075     -36997.735      187.67014      181.48356      296.90728    
     88200  -37198.284      195.03655     -37003.247      187.68523      181.49309      297.01034    
     88300  -37195.665      194.05387     -37001.611      187.69697      181.49844      297.1134     
     88400  -37192.78       197.52105     -36995.259      187.71098      181.50318      297.21645    
     88500  -37194.893      204.04076     -36990.852      187.72248      181.50488      297.31951    
     88600  -37193.848      198.62513     -36995.223      187.73578      181.50909      297.42257    
     88700  -37194.541      193.17318     -37001.368      187.74568      181.5151       297.52562    
     88800  -37196.044      194.54734     -37001.497      187.75314      181.52095      297.62868    
     88900  -37195.115      199.53052     -36995.584      187.76138      181.52796      297.73174    
     89000  -37191.53       199.47776     -36992.052      187.77202      181.53955      297.8348     
     89100  -37192.447      199.39661     -36993.05       187.77761      181.54551      297.93785    
     89200  -37197.662      200.6669      -36996.995      187.78446      181.5488       298.04091    
     89300  -37198.035      196.23683     -37001.798      187.79872      181.55713      298.14397    
     89400  -37197.557      192.24037     -37005.317      187.80776      181.55732      298.24702    
     89500  -37206.006      199.42681     -37006.579      187.81952      181.55963      298.35008    
     89600  -37201.801      195.34731     -37006.454      187.83252      181.56317      298.45314    
     89700  -37200.444      197.34936     -37003.094      187.84179      181.56575      298.55619    
     89800  -37196.076      198.65063     -36997.425      187.85551      181.57318      298.65925    
     89900  -37195.3        201.35377     -36993.947      187.86197      181.57459      298.76231    
     90000  -37193.777      198.6185      -36995.158      187.86963      181.57552      298.86537    
     90100  -37193.45       195.77107     -36997.679      187.88055      181.58182      298.96842    
     90200  -37197.646      197.27041     -37000.376      187.88804      181.58398      299.07148    
     90300  -37202.501      200.24194     -37002.259      187.894        181.58533      299.17454    
     90400  -37203.292      198.39411     -37004.898      187.90504      181.59241      299.27759    
     90500  -37202.768      196.01533     -37006.753      187.91089      181.59354      299.38065    
     90600  -37201.329      195.29921     -37006.03       187.92005      181.59771      299.48371    
     90700  -37202.95       199.89676     -37003.054      187.93355      181.60538      299.58676    
     90800  -37197.183      197.98008     -36999.203      187.93949      181.60899      299.68982    
     90900  -37197.068      198.06804     -36999          187.94874      181.61539      299.79288    
     91000  -37198.894      197.4813      -37001.413      187.95661      181.62487      299.89594    
     91100  -37199.119      196.82699     -37002.292      187.95711      181.63007      299.99899    
     91200  -37198.785      196.59946     -37002.185      187.96345      181.64095      300.10205    
     91300  -37203.746      201.37446     -37002.372      187.97167      181.65096      300.20511    
     91400  -37203.425      198.51622     -37004.909      187.97303      181.65596      300.30816    
     91500  -37205.471      197.81783     -37007.654      187.9761       181.66507      300.41122    
     91600  -37202.563      194.06949     -37008.493      187.98182      181.67851      300.51428    
     91700  -37202.126      196.74868     -37005.377      187.98113      181.68061      300.61733    
     91800  -37198.773      198.12723     -37000.646      187.98671      181.68957      300.72039    
     91900  -37196.783      199.31152     -36997.471      187.99368      181.69945      300.82345    
     92000  -37197.37       199.63709     -36997.733      187.99085      181.7019       300.92651    
     92100  -37198.079      199.13978     -36998.939      187.9988       181.71274      301.02956    
     92200  -37193.227      193.70991     -36999.517      188.00809      181.72174      301.13262    
     92300  -37199.452      199.24632     -37000.205      188.01044      181.72384      301.23568    
     92400  -37198.845      196.76002     -37002.085      188.02078      181.73304      301.33873    
     92500  -37200.397      197.54568     -37002.851      188.0262       181.73581      301.44179    
     92600  -37198.539      196.30526     -37002.234      188.02811      181.7353       301.54485    
     92700  -37199.954      199.19597     -37000.758      188.03275      181.74015      301.6479     
     92800  -37198.657      199.822       -36998.835      188.03309      181.74262      301.75096    
     92900  -37196.052      198.54814     -36997.504      188.03316      181.74569      301.85402    
     93000  -37195.38       195.78043     -36999.599      188.03732      181.75213      301.95708    
     93100  -37201.708      199.34716     -37002.361      188.03506      181.7517       302.06013    
     93200  -37201.268      196.93434     -37004.333      188.03768      181.75337      302.16319    
     93300  -37201.732      198.27436     -37003.458      188.04094      181.75154      302.26625    
     93400  -37199.637      197.68772     -37001.949      188.04549      181.74887      302.3693     
     93500  -37202.372      201.33125     -37001.041      188.05097      181.74533      302.47236    
     93600  -37198.87       195.38634     -37003.483      188.05802      181.74169      302.57542    
     93700  -37205.916      199.62357     -37006.293      188.06182      181.73623      302.67848    
     93800  -37202.595      194.83091     -37007.764      188.06787      181.73442      302.78153    
     93900  -37197.756      193.06981     -37004.686      188.07257      181.73164      302.88459    
     94000  -37195.88       198.22356     -36997.656      188.07623      181.7289       302.98765    
     94100  -37194.054      202.14976     -36991.905      188.08124      181.72751      303.0907     
     94200  -37190.802      197.58435     -36993.217      188.08393      181.72435      303.19376    
     94300  -37196.488      197.4034      -36999.084      188.08247      181.72349      303.29682    
     94400  -37199.458      194.21254     -37005.245      188.08183      181.72976      303.39987    
     94500  -37202.168      195.23492     -37006.933      188.07883      181.72957      303.50293    
     94600  -37199.015      195.63529     -37003.379      188.07411      181.73199      303.60599    
     94700  -37197.468      199.0797      -36998.389      188.07222      181.73879      303.70905    
     94800  -37192.9        197.22002     -36995.68       188.06012      181.7339       303.8121     
     94900  -37196.946      200.06232     -36996.884      188.05419      181.73672      303.91516    
     95000  -37197.933      196.90219     -37001.03       188.05458      181.74772      304.01822    
     95100  -37200.582      194.89782     -37005.685      188.04283      181.74619      304.12127    
     95200  -37201.83       194.81725     -37007.013      188.03392      181.74851      304.22433    
     95300  -37202.595      199.27109     -37003.324      188.03192      181.75895      304.32739    
     95400  -37198.228      198.97159     -36999.256      188.023        181.76321      304.43044    
     95500  -37201.443      199.52946     -37001.913      188.01841      181.77002      304.5335     
     95600  -37204.263      195.17093     -37009.092      188.01637      181.77805      304.63656    
     95700  -37209.162      194.48458     -37014.677      188.00674      181.77585      304.73962    
     95800  -37206.049      194.57162     -37011.477      188.00463      181.77841      304.84267    
     95900  -37199.788      198.9079      -37000.88       188.00314      181.78234      304.94573    
     96000  -37194.896      204.21579     -36990.68       187.99809      181.78058      305.04879    
     96100  -37192.91       201.84819     -36991.062      187.99578      181.77949      305.15184    
     96200  -37195.741      196.69861     -36999.042      187.99403      181.77725      305.2549     
     96300  -37199.3        193.45493     -37005.845      187.99342      181.7748       305.35796    
     96400  -37200.478      193.70678     -37006.772      187.99778      181.76676      305.46101    
     96500  -37201.633      199.07355     -37002.56       188.00115      181.75744      305.56407    
     96600  -37195.935      196.88327     -36999.051      188.00647      181.74711      305.66713    
     96700  -37198.481      199.55471     -36998.927      188.00981      181.73173      305.77019    
     96800  -37197.579      195.81206     -37001.767      188.01475      181.71953      305.87324    
     96900  -37200.41       196.46316     -37003.946      188.0233       181.71154      305.9763     
     97000  -37196.943      194.32682     -37002.617      188.02543      181.69926      306.07936    
     97100  -37195.866      197.70397     -36998.162      188.02733      181.68637      306.18241    
     97200  -37195.367      200.97963     -36994.387      188.03231      181.67884      306.28547    
     97300  -37195          200.05307     -36994.947      188.02919      181.6661       306.38853    
     97400  -37197.504      197.41363     -37000.09       188.03006      181.65948      306.49158    
     97500  -37204.263      198.78137     -37005.481      188.03372      181.65644      306.59464    
     97600  -37204.071      196.38546     -37007.685      188.0284       181.64579      306.6977     
     97700  -37200.297      194.62698     -37005.67       188.02535      181.63849      306.80076    
     97800  -37197.152      196.77192     -37000.38       188.02703      181.63696      306.90381    
     97900  -37198.505      201.34293     -36997.162      188.02021      181.62796      307.00687    
     98000  -37196.535      198.40794     -36998.128      188.01317      181.61788      307.10993    
     98100  -37199.821      198.8767      -37000.945      188.00586      181.61332      307.21298    
     98200  -37199.973      196.88011     -37003.093      187.99388      181.60723      307.31604    
     98300  -37195.788      193.20637     -37002.582      187.9833       181.60443      307.4191     
     98400  -37201.69       200.6533      -37001.037      187.9776       181.60445      307.52216    
     98500  -37200.852      199.51302     -37001.339      187.96407      181.59809      307.62521    
     98600  -37203.221      199.27837     -37003.943      187.95219      181.59434      307.72827    
     98700  -37201.327      195.85226     -37005.475      187.94037      181.58932      307.83133    
     98800  -37200.976      196.32784     -37004.649      187.92749      181.58269      307.93438    
     98900  -37197.753      196.1086      -37001.645      187.91577      181.58123      308.03744    
     99000  -37196.396      198.35952     -36998.037      187.90306      181.57842      308.1405     
     99100  -37199.457      201.96977     -36997.487      187.89048      181.5773       308.24355    
     99200  -37193.655      193.17662     -37000.478      187.8765       181.57332      308.34661    
     99300  -37199.951      196.67586     -37003.275      187.86184      181.56705      308.44967    
     99400  -37200.734      195.93553     -37004.798      187.85111      181.56396      308.55273    
     99500  -37200.667      196.47663     -37004.191      187.83807      181.55638      308.65578    
     99600  -37199.937      196.48565     -37003.452      187.82878      181.54799      308.75884    
     99700  -37202.629      199.22221     -37003.406      187.81926      181.5377       308.8619     
     99800  -37201.479      197.45924     -37004.02       187.80513      181.52619      308.96495    
     99900  -37200.892      196.78547     -37004.106      187.79664      181.51982      309.06801    
    100000  -37201.102      198.27465     -37002.827      187.78471      181.5114       309.17107    
Loop time of 33536.5 on 12 procs for 100000 steps with 5100 atoms

Performance: 0.258 ns/day, 93.157 hours/ns, 2.982 timesteps/s, 15.207 katom-step/s
38.7% CPU use with 12 MPI tasks x 1 OpenMP threads

MPI task timing breakdown:
Section |  min time  |  avg time  |  max time  |%varavg| %total
---------------------------------------------------------------
Pair    | 1086.6     | 1293.4     | 1451.7     | 326.1 |  3.86
Neigh   | 2.4798     | 5.5826     | 8.3033     |  87.1 |  0.02
Comm    | 5156.4     | 5478.5     | 5865.6     | 303.0 | 16.34
Output  | 101.68     | 105.16     | 108.39     |  20.8 |  0.31
Modify  | 23414      | 23683      | 23979      | 109.0 | 70.62
Other   |            | 2971       |            |       |  8.86

Nlocal:            425 ave         670 max          83 min
Histogram: 4 0 0 0 0 0 1 2 2 3
Nghost:           1707 ave        2615 max         610 min
Histogram: 4 0 0 0 0 0 4 0 0 4
Neighs:              0 ave           0 max           0 min
Histogram: 12 0 0 0 0 0 0 0 0 0

Total # of neighbors = 0
Ave neighs/atom = 0
Neighbor list builds = 423
Dangerous builds = 0
Total wall time: 9:19:04
