LAMMPS (2 Aug 2023 - Update 3)
OMP_NUM_THREADS environment is not set. Defaulting to 1 thread. (src/comm.cpp:98)
  using 1 OpenMP thread(s) per MPI task

# 1------general---------------
units                             metal      #单位为lammps 中的metel 类型
dimension                    3          #模拟的维度 三维
boundary                    p p p      #周期边界条件
atom_style                  atomic   #原子类型自动
atom_modify              map array sort 100 2.0
neighbor                    3.0 bin
neigh_modify            every 1 delay 0 check yes
#2 -----global variable-------定义全局变量，方便统一修改；
variable temperature equal 300
variable tstep equal 0.001
variable pressure equal 0
variable thermalstep equal 100
variable dumpstep equal 1000
variable relaxtime equal 0
variable totaltime equal 100000
variable deformrate equal 5e-3
#3 -------model------------
#box tilt large
read_data     1.lmp
Reading data file ...
  orthogonal box = (-100 -100 -2.3312515) to (100 100 46.166171)
  2 by 5 by 1 MPI processor grid
  reading atoms ...
  1480 atoms
  read_data CPU = 0.004 seconds
replicate 1 1 7
Replication is creating a 1x1x7 = 7 times larger system...
  orthogonal box = (-100 -100 -2.3312515) to (100 100 337.15071)
  1 by 2 by 5 MPI processor grid
  10360 atoms
  replicate CPU = 0.002 seconds
write_data z.data
System init for write_data ...
WARNING: Communication cutoff is 0.0. No ghost atoms will be generated. Atoms may get lost. (src/comm_brick.cpp:210)
pair_style hybrid airebo 3.0 airebo 3.0 airebo 3.0 lj/cut 10
pair_coeff * * airebo 1 CH.airebo C NULL NULL
Reading airebo potential file CH.airebo with DATE: 2011-10-25
pair_coeff * * airebo 2 CH.airebo NULL C NULL
Reading airebo potential file CH.airebo with DATE: 2011-10-25
pair_coeff * * airebo 3 CH.airebo NULL NULL C
Reading airebo potential file CH.airebo with DATE: 2011-10-25
pair_coeff 1 2 lj/cut 0.00456 3.431
pair_coeff 1 3 lj/cut 0.00456 3.431
pair_coeff 2 3 lj/cut 0.00456 3.431

# 5------minimize -----------
min_style      sd
minimize       1.0e-4 1.0e-6 100 1000
Neighbor list info ...
  update: every = 1 steps, delay = 0 steps, check = yes
  max neighbors/atom: 2000, page size: 100000
  master list distance cutoff = 13.2
  ghost atom cutoff = 13.2
  binsize = 6.6, bins = 31 31 52
  6 neighbor lists, perpetual/occasional/extra = 6 0 0
  (1) pair airebo, perpetual, skip from (5)
      attributes: full, newton on, ghost
      pair build: skip/ghost
      stencil: none
      bin: none
  (2) pair airebo, perpetual, skip from (5)
      attributes: full, newton on, ghost
      pair build: skip/ghost
      stencil: none
      bin: none
  (3) pair airebo, perpetual, skip from (5)
      attributes: full, newton on, ghost
      pair build: skip/ghost
      stencil: none
      bin: none
  (4) pair lj/cut, perpetual, skip from (6)
      attributes: half, newton on, cut 13
      pair build: skip
      stencil: none
      bin: none
  (5) neighbor class addition, perpetual
      attributes: full, newton on, ghost
      pair build: full/bin/ghost
      stencil: full/ghost/bin/3d
      bin: standard
  (6) neighbor class addition, perpetual
      attributes: half, newton on, cut 13
      pair build: half/bin/atomonly/newton
      stencil: half/bin/3d
      bin: standard
Per MPI rank memory allocation (min/avg/max) = 12.79 | 13.18 | 13.56 Mbytes
   Step          Temp          E_pair         E_mol          TotEng         Press     
         0   0             -75187.111      0             -75187.111      378.42796    
         4   0             -75373.112      0             -75373.112      50.287364    
Loop time of 0.0937969 on 10 procs for 4 steps with 10360 atoms

99.2% CPU use with 10 MPI tasks x 1 OpenMP threads

Minimization stats:
  Stopping criterion = energy tolerance
  Energy initial, next-to-last, final = 
     -75187.1108952806  -75368.5145048738  -75373.1123892744
  Force two-norm initial, final = 141.09556 22.606539
  Force max component initial, final = 3.434546 0.53009031
  Final line search alpha, max atom move = 0.13584282 0.072008965
  Iterations, force evaluations = 4 8

MPI task timing breakdown:
Section |  min time  |  avg time  |  max time  |%varavg| %total
---------------------------------------------------------------
Pair    | 0.088895   | 0.090315   | 0.092198   |   0.3 | 96.29
Neigh   | 0          | 0          | 0          |   0.0 |  0.00
Comm    | 0.00084414 | 0.0022223  | 0.0042325  |   2.5 |  2.37
Output  | 0          | 0          | 0          |   0.0 |  0.00
Modify  | 0          | 0          | 0          |   0.0 |  0.00
Other   |            | 0.001259   |            |       |  1.34

Nlocal:           1036 ave        1067 max        1003 min
Histogram: 3 2 0 0 0 0 0 0 1 4
Nghost:           1819 ave        1859 max        1785 min
Histogram: 4 0 1 0 0 0 0 3 1 1
Neighs:              0 ave           0 max           0 min
Histogram: 10 0 0 0 0 0 0 0 0 0

Total # of neighbors = 0
Ave neighs/atom = 0
Neighbor list builds = 0
Dangerous builds = 0
#6----define computes------
variable nums equal count(all) #计算原子数目
variable toval equal 18.7166*18.7166*lz #计算系统总体积，单层石墨烯厚度为0.335nm
variable vol equal ${toval} #体系的初始体积
variable vol equal 118924.304470406 
variable vatom equal v_vol/v_nums #单个原子体积
compute 1 all stress/atom NULL #计算体系中单原子应力
compute xalls all reduce sum c_1[1]
variable xstress equal (c_xalls)/(v_toval*10000)
compute yalls all reduce sum c_1[2]
variable ystress equal (c_yalls)/(v_toval*10000)
compute zalls all reduce sum c_1[3]
variable zstress equal (c_zalls)/(v_toval*10000)
#7---------relaxation-------------------------
timestep ${tstep}
timestep 0.001
velocity all create ${temperature} 231743 units box dist gaussian
velocity all create 300 231743 units box dist gaussian
dump   1 all atom 100 all-cy.lammpstrj
#fix    1 all npt temp 300 300  0.1 aniso 0 0 10 drag 1  #三个方向独立控压
fix  1 all npt temp ${temperature} ${temperature} 0.1 x ${pressure} ${pressure} 10 y ${pressure} ${pressure} 10
fix  1 all npt temp 300 ${temperature} 0.1 x ${pressure} ${pressure} 10 y ${pressure} ${pressure} 10
fix  1 all npt temp 300 300 0.1 x ${pressure} ${pressure} 10 y ${pressure} ${pressure} 10
fix  1 all npt temp 300 300 0.1 x 0 ${pressure} 10 y ${pressure} ${pressure} 10
fix  1 all npt temp 300 300 0.1 x 0 0 10 y ${pressure} ${pressure} 10
fix  1 all npt temp 300 300 0.1 x 0 0 10 y 0 ${pressure} 10
fix  1 all npt temp 300 300 0.1 x 0 0 10 y 0 0 10
compute  2 all pe/atom
compute  pe all reduce sum c_2
variable PE equal "c_pe"
fix    pe all print 100 "${PE} " file PE.txt screen no
thermo  ${thermalstep}
thermo  100
#thermo_style  custom step pe ke etotal lx ly lz
run   ${relaxtime}
run   0
Per MPI rank memory allocation (min/avg/max) = 13.42 | 13.8 | 14.18 Mbytes
   Step          Temp          E_pair         E_mol          TotEng         Press          Volume    
         4   300           -75373.112      0             -74971.411      81.884384      13579278     
Loop time of 2.78656e-05 on 10 procs for 0 steps with 10360 atoms

93.3% CPU use with 10 MPI tasks x 1 OpenMP threads

MPI task timing breakdown:
Section |  min time  |  avg time  |  max time  |%varavg| %total
---------------------------------------------------------------
Pair    | 0          | 0          | 0          |   0.0 |  0.00
Neigh   | 0          | 0          | 0          |   0.0 |  0.00
Comm    | 0          | 0          | 0          |   0.0 |  0.00
Output  | 0          | 0          | 0          |   0.0 |  0.00
Modify  | 0          | 0          | 0          |   0.0 |  0.00
Other   |            | 2.787e-05  |            |       |100.00

Nlocal:           1036 ave        1040 max        1028 min
Histogram: 1 0 0 0 1 1 2 2 1 2
Nghost:           1819 ave        1834 max        1812 min
Histogram: 2 3 0 2 1 1 0 0 0 1
Neighs:              0 ave           0 max           0 min
Histogram: 10 0 0 0 0 0 0 0 0 0

Total # of neighbors = 0
Ave neighs/atom = 0
Neighbor list builds = 0
Dangerous builds = 0
#8 -------tension-----------------------------
unfix  1
undump  1
unfix  pe
reset_timestep 0
fix avestress all ave/atom 1 ${dumpstep} ${dumpstep} c_1[1] c_1[2] c_1[3] c_1[4] c_1[5] c_1[6]
fix avestress all ave/atom 1 1000 ${dumpstep} c_1[1] c_1[2] c_1[3] c_1[4] c_1[5] c_1[6]
fix avestress all ave/atom 1 1000 1000 c_1[1] c_1[2] c_1[3] c_1[4] c_1[5] c_1[6]

#-----calculation of strain and Cumulative compression--------
variable                tmp equal "lz"
variable                L0 equal ${tmp}
variable                L0 equal 339.481961
variable                strain equal "(lz - v_L0)/v_L0"
variable                Cumulativels equal "(lz - v_L0)/10"
fix Step all print 100 "${strain} ${Cumulativels} ${zstress}" file grapoten.txt screen no

dump 2 all custom ${dumpstep} tension.xyz type x y z f_avestress[1] f_avestress[2] f_avestress[3] f_avestress[4] f_avestress[5] f_avestress[6]
dump 2 all custom 1000 tension.xyz type x y z f_avestress[1] f_avestress[2] f_avestress[3] f_avestress[4] f_avestress[5] f_avestress[6]

fix  1 all npt temp ${temperature} ${temperature} 0.1 y ${pressure} ${pressure} 10 x ${pressure} ${pressure} 10
fix  1 all npt temp 300 ${temperature} 0.1 y ${pressure} ${pressure} 10 x ${pressure} ${pressure} 10
fix  1 all npt temp 300 300 0.1 y ${pressure} ${pressure} 10 x ${pressure} ${pressure} 10
fix  1 all npt temp 300 300 0.1 y 0 ${pressure} 10 x ${pressure} ${pressure} 10
fix  1 all npt temp 300 300 0.1 y 0 0 10 x ${pressure} ${pressure} 10
fix  1 all npt temp 300 300 0.1 y 0 0 10 x 0 ${pressure} 10
fix  1 all npt temp 300 300 0.1 y 0 0 10 x 0 0 10

thermo_style custom step pe ke etotal lx ly lz
fix   2 all deform 1 z erate ${deformrate} remap x units box
fix   2 all deform 1 z erate 0.005 remap x units box
fix   3 all ave/time 2 500 1000 v_xstress v_ystress v_zstress file pressure.out
run   ${totaltime}
run   100000
WARNING: Dump 2 includes no atom IDs and is not sorted by ID. This may complicate post-processing tasks or visualization (src/dump.cpp:221)
Per MPI rank memory allocation (min/avg/max) = 14.92 | 15.3 | 15.68 Mbytes
   Step         PotEng         KinEng         TotEng           Lx             Ly             Lz      
         0  -75373.112      401.70175     -74971.411      200            200            339.48196    
       100  -75146.74       205.10753     -74941.633      200.00348      199.98912      339.6517     
       200  -75164.467      263.74426     -74900.723      200.0116       199.97107      339.82144    
       300  -75124.283      271.93651     -74852.347      200.04068      199.96163      339.99118    
       400  -75108.493      308.56091     -74799.932      200.05721      199.93534      340.16092    
       500  -75084.816      339.0521      -74745.764      200.09391      199.92498      340.33067    
       600  -75068.11       375.44194     -74692.668      200.13887      199.91288      340.50041    
       700  -75040.603      394.49013     -74646.113      200.15935      199.87433      340.67015    
       800  -75015.025      403.89492     -74611.13       200.21363      199.84716      340.83989    
       900  -75012.829      415.20329     -74597.626      200.24734      199.79652      341.00963    
      1000  -75010.317      396.47644     -74613.84       200.27676      199.74541      341.17937    
      1100  -75031.784      396.80747     -74634.976      200.32634      199.70927      341.34911    
      1200  -75030.248      389.57689     -74640.671      200.34237      199.66976      341.51885    
      1300  -75034.669      405.04343     -74629.626      200.36189      199.64729      341.68859    
      1400  -75022.479      409.52403     -74612.955      200.37525      199.63801      341.85833    
      1500  -75010.208      408.1506      -74602.057      200.35494      199.63209      342.02808    
      1600  -75012.456      412.98322     -74599.473      200.34528      199.64917      342.19782    
      1700  -74999.592      398.10992     -74601.483      200.31961      199.67794      342.36756    
      1800  -75011.524      404.83222     -74606.691      200.28838      199.71696      342.5373     
      1900  -75010.843      396.51844     -74614.324      200.26294      199.77075      342.70704    
      2000  -75013.56       393.05293     -74620.507      200.20313      199.81841      342.87678    
      2100  -75001.439      384.8201      -74616.619      200.15671      199.87858      343.04652    
      2200  -74996.954      397.05338     -74599.9        200.10925      199.9339       343.21626    
      2300  -74990.113      406.77226     -74583.341      200.05509      199.97877      343.386      
      2400  -74992.968      414.00522     -74578.963      200.01806      200.01938      343.55574    
      2500  -74990.937      406.17832     -74584.759      199.98466      200.0472       343.72549    
      2600  -74994.451      402.15994     -74592.291      199.95041      200.06278      343.89523    
      2700  -74992.899      398.30144     -74594.597      199.93003      200.07946      344.06497    
      2800  -74981.845      397.79322     -74584.052      199.91169      200.09131      344.23471    
      2900  -74973.893      406.66034     -74567.233      199.89788      200.09771      344.40445    
      3000  -74957.245      401.08193     -74556.163      199.89513      200.10288      344.57419    
      3100  -74965.202      407.91633     -74557.285      199.88413      200.09527      344.74393    
      3200  -74965.189      398.03937     -74567.149      199.88315      200.09         344.91367    
      3300  -74973.85       398.87399     -74574.976      199.88503      200.08121      345.08341    
      3400  -74963.516      390.20903     -74573.307      199.88593      200.07242      345.25315    
      3500  -74964.555      404.23347     -74560.322      199.88753      200.06424      345.4229     
      3600  -74959.542      411.31616     -74548.226      199.88699      200.05682      345.59264    
      3700  -74953.554      408.29279     -74545.261      199.88095      200.04975      345.76238    
      3800  -74956.925      405.16247     -74551.762      199.8746       200.04714      345.93212    
      3900  -74955.192      397.20322     -74557.989      199.86262      200.04577      346.10186    
      4000  -74951.463      397.72234     -74553.741      199.84912      200.04831      346.2716     
      4100  -74938.483      400.34442     -74538.138      199.83953      200.06244      346.44134    
      4200  -74931.004      408.59682     -74522.407      199.81284      200.07398      346.61108    
      4300  -74927.183      408.16563     -74519.017      199.79072      200.09517      346.78082    
      4400  -74927.015      400.07314     -74526.942      199.76033      200.11575      346.95056    
      4500  -74924.325      391.29324     -74533.032      199.72616      200.13671      347.12031    
      4600  -74928.594      399.48416     -74529.109      199.70294      200.16044      347.29005    
      4700  -74922.026      406.92213     -74515.104      199.67298      200.18113      347.45979    
      4800  -74906.588      406.69237     -74499.896      199.64083      200.20065      347.62953    
      4900  -74901.91       407.88917     -74494.021      199.61929      200.22136      347.79927    
      5000  -74901.215      403.43657     -74497.778      199.59378      200.23475      347.96901    
      5100  -74897.938      397.04917     -74500.889      199.57507      200.24458      348.13875    
      5200  -74891.721      396.1057      -74495.616      199.56232      200.25312      348.30849    
      5300  -74883.107      400.07006     -74483.037      199.54338      200.25535      348.47823    
      5400  -74872.634      402.58505     -74470.049      199.52852      200.2574       348.64797    
      5500  -74872.98       409.8225      -74463.158      199.50841      200.25281      348.81771    
      5600  -74867.98       402.69968     -74465.28       199.4956       200.24951      348.98746    
      5700  -74869.226      400.96346     -74468.263      199.49213      200.24891      349.1572     
      5800  -74864.606      398.77409     -74465.832      199.48292      200.24404      349.32694    
      5900  -74855.378      398.1683      -74457.209      199.47963      200.2431       349.49668    
      6000  -74844.382      399.72972     -74444.653      199.46763      200.24233      349.66642    
      6100  -74837.813      403.732       -74434.081      199.44904      200.2408       349.83616    
      6200  -74831.691      400.68779     -74431.004      199.43828      200.24438      350.0059     
      6300  -74832.343      398.53044     -74433.812      199.41595      200.2441       350.17564    
      6400  -74827.392      392.06107     -74435.331      199.39518      200.24661      350.34538    
      6500  -74825.938      396.75209     -74429.186      199.3809       200.25483      350.51512    
      6600  -74813.205      397.63204     -74415.573      199.35512      200.25863      350.68487    
      6700  -74806.59       406.06262     -74400.527      199.33724      200.26842      350.85461    
      6800  -74799.338      405.66935     -74393.669      199.31811      200.28038      351.02435    
      6900  -74797.982      402.12603     -74395.856      199.28947      200.29025      351.19409    
      7000  -74794.211      397.80222     -74396.409      199.26809      200.30301      351.36383    
      7100  -74785.3        398.40566     -74386.895      199.24509      200.31359      351.53357    
      7200  -74773.87       402.4777      -74371.393      199.21926      200.32107      351.70331    
      7300  -74762.976      405.10431     -74357.872      199.20003      200.32916      351.87305    
      7400  -74755.335      404.47588     -74350.859      199.18067      200.33482      352.04279    
      7500  -74749.681      399.24829     -74350.433      199.1605       200.33828      352.21253    
      7600  -74748.573      397.61886     -74350.954      199.14393      200.34416      352.38228    
      7700  -74749.631      402.88722     -74346.744      199.12113      200.34423      352.55202    
      7800  -74736.447      400.03239     -74336.415      199.1061       200.3459       352.72176    
      7900  -74727.577      403.58091     -74323.996      199.09216      200.34562      352.8915     
      8000  -74721.091      406.22182     -74314.869      199.07336      200.34095      353.06124    
      8100  -74712.608      402.90477     -74309.703      199.06194      200.33927      353.23098    
      8200  -74705.335      399.10423     -74306.23       199.04323      200.33296      353.40072    
      8300  -74697.022      396.50137     -74300.521      199.02822      200.32933      353.57046    
      8400  -74684.187      393.92875     -74290.258      199.0176       200.32791      353.7402     
      8500  -74677.932      400.64917     -74277.283      199.0035       200.32743      353.90994    
      8600  -74673.615      406.35702     -74267.258      198.98807      200.32917      354.07969    
      8700  -74663.869      403.24322     -74260.626      198.96667      200.33088      354.24943    
      8800  -74657.222      399.61563     -74257.606      198.94565      200.33386      354.41917    
      8900  -74650.187      396.48199     -74253.705      198.92756      200.33874      354.58891    
      9000  -74646.97       403.61525     -74243.355      198.90318      200.3392       354.75865    
      9100  -74633.738      402.58822     -74231.15       198.88546      200.34238      354.92839    
      9200  -74625.79       403.98734     -74221.802      198.86555      200.34496      355.09813    
      9300  -74619.232      403.60689     -74215.625      198.84086      200.34701      355.26787    
      9400  -74611.58       400.64804     -74210.932      198.82102      200.35215      355.43761    
      9500  -74603.267      399.97697     -74203.29       198.79701      200.35412      355.60735    
      9600  -74595.02       401.90727     -74193.112      198.77906      200.35654      355.7771     
      9700  -74588.158      406.2555      -74181.902      198.76475      200.35885      355.94684    
      9800  -74576.81       402.19929     -74174.61       198.74336      200.3561       356.11658    
      9900  -74574.968      406.72003     -74168.248      198.72297      200.35248      356.28632    
     10000  -74563.873      400.14301     -74163.73       198.70771      200.3506       356.45606    
     10100  -74556.469      399.74844     -74156.72       198.68607      200.34661      356.6258     
     10200  -74542.389      401.062       -74141.327      198.66983      200.34764      356.79554    
     10300  -74529.316      403.78273     -74125.533      198.65194      200.34742      356.96528    
     10400  -74523.903      406.45769     -74117.445      198.631        200.34457      357.13502    
     10500  -74518.812      404.79487     -74114.017      198.61509      200.34458      357.30476    
     10600  -74506.912      399.42638     -74107.485      198.59246      200.34103      357.4745     
     10700  -74494.653      398.77169     -74095.881      198.57144      200.33843      357.64425    
     10800  -74485.94       401.76389     -74084.176      198.55606      200.33838      357.81399    
     10900  -74473.683      400.71648     -74072.967      198.5349       200.33519      357.98373    
     11000  -74466.763      402.11771     -74064.645      198.515        200.33325      358.15347    
     11100  -74462.867      402.30046     -74060.567      198.49745      200.33174      358.32321    
     11200  -74455.157      399.30223     -74055.855      198.47565      200.32846      358.49295    
     11300  -74438.573      395.20272     -74043.37       198.45763      200.32888      358.66269    
     11400  -74430.475      400.09193     -74030.383      198.43852      200.3292       358.83243    
     11500  -74422.67       405.82284     -74016.847      198.41573      200.32597      359.00217    
     11600  -74411.433      405.92526     -74005.508      198.39797      200.32441      359.17191    
     11700  -74395.459      400.13477     -73995.324      198.37675      200.32064      359.34166    
     11800  -74383.832      398.23325     -73985.599      198.35943      200.31789      359.5114     
     11900  -74377.661      400.53989     -73977.121      198.34371      200.31252      359.68114    
     12000  -74369.718      399.48882     -73970.229      198.32567      200.30504      359.85088    
     12100  -74359.668      398.58565     -73961.083      198.309        200.29993      360.02062    
     12200  -74346.899      402.44812     -73944.451      198.2859       200.29258      360.19036    
     12300  -74333.202      402.70106     -73930.501      198.26537      200.28778      360.3601     
     12400  -74328.366      403.97178     -73924.394      198.2461       200.28272      360.52984    
     12500  -74317.756      400.3719      -73917.385      198.22645      200.27583      360.69958    
     12600  -74311.756      404.16153     -73907.594      198.21305      200.27058      360.86932    
     12700  -74296.952      401.20079     -73895.752      198.19658      200.26389      361.03907    
     12800  -74280.805      399.95531     -73880.85       198.17826      200.25777      361.20881    
     12900  -74274.17       409.60714     -73864.563      198.16035      200.25337      361.37855    
     13000  -74255.192      405.3653      -73849.827      198.13236      200.24669      361.54829    
     13100  -74248.073      402.87046     -73845.203      198.10833      200.24478      361.71803    
     13200  -74240.24       400.33919     -73839.901      198.08285      200.24429      361.88777    
     13300  -74227.031      397.94211     -73829.089      198.0537       200.24314      362.05751    
     13400  -74218.216      405.63155     -73812.585      198.03206      200.24556      362.22725    
     13500  -74201.67       404.43291     -73797.237      198.00818      200.2463       362.39699    
     13600  -74193.837      405.89173     -73787.945      197.9857       200.24483      362.56673    
     13700  -74179.77       398.28788     -73781.482      197.96788      200.24346      362.73648    
     13800  -74173.535      401.29547     -73772.24       197.94483      200.2384       362.90622    
     13900  -74164.089      403.5058      -73760.583      197.92307      200.23213      363.07596    
     14000  -74148.768      399.46165     -73749.307      197.90304      200.22441      363.2457     
     14100  -74143.77       404.95501     -73738.815      197.88156      200.21351      363.41544    
     14200  -74130.051      402.51825     -73727.533      197.86464      200.20319      363.58518    
     14300  -74110.652      397.85196     -73712.8        197.84438      200.19116      363.75492    
     14400  -74100.405      404.00526     -73696.4        197.82522      200.18005      363.92466    
     14500  -74087.242      404.20543     -73683.036      197.80796      200.17064      364.0944     
     14600  -74080.392      403.40961     -73676.982      197.78552      200.15971      364.26414    
     14700  -74065.946      396.31114     -73669.634      197.765        200.15216      364.43389    
     14800  -74052.471      399.17944     -73653.291      197.74141      200.1468       364.60363    
     14900  -74039.606      401.67994     -73637.926      197.7137       200.1437       364.77337    
     15000  -74023.422      397.73584     -73625.686      197.6888       200.14552      364.94311    
     15100  -74013.973      400.2681      -73613.705      197.66184      200.14582      365.11285    
     15200  -73999.172      398.76137     -73600.411      197.63664      200.14597      365.28259    
     15300  -73986.754      405.20169     -73581.553      197.61099      200.14416      365.45233    
     15400  -73973.595      404.20849     -73569.387      197.58446      200.14097      365.62207    
     15500  -73966.477      402.47624     -73564.001      197.55897      200.13716      365.79181    
     15600  -73956.644      402.88131     -73553.762      197.53315      200.13148      365.96155    
     15700  -73941.568      401.86945     -73539.699      197.50815      200.12306      366.13129    
     15800  -73924.803      403.02424     -73521.778      197.48834      200.11391      366.30104    
     15900  -73911.07       409.83398     -73501.236      197.4678       200.10255      366.47078    
     16000  -73892.488      406.13841     -73486.35       197.44575      200.08964      366.64052    
     16100  -73886.442      401.29633     -73485.146      197.42702      200.07852      366.81026    
     16200  -73874.362      398.75131     -73475.611      197.40488      200.06542      366.98       
     16300  -73864.543      400.73382     -73463.809      197.38413      200.05424      367.14974    
     16400  -73847.373      399.68404     -73447.689      197.36423      200.0439       367.31948    
     16500  -73831.363      402.24659     -73429.116      197.34227      200.03291      367.48922    
     16600  -73818.91       403.7957      -73415.114      197.32372      200.02436      367.65896    
     16700  -73811.376      401.55168     -73409.824      197.30218      200.01451      367.8287     
     16800  -73797.242      397.67148     -73399.571      197.27744      200.00383      367.99845    
     16900  -73780.296      398.32454     -73381.971      197.25485      199.99649      368.16819    
     17000  -73767.889      403.51384     -73364.375      197.22857      199.98887      368.33793    
     17100  -73755.966      404.48851     -73351.477      197.20383      199.98245      368.50767    
     17200  -73740.057      399.82415     -73340.233      197.17932      199.97708      368.67741    
     17300  -73726.339      395.40796     -73330.931      197.15126      199.97098      368.84715    
     17400  -73713.654      393.44102     -73320.213      197.12524      199.96764      369.01689    
     17500  -73700.447      401.45188     -73298.995      197.09776      199.9639       369.18663    
     17600  -73687.944      408.13164     -73279.812      197.06972      199.96004      369.35637    
     17700  -73670.178      405.92462     -73264.253      197.0444       199.95598      369.52611    
     17800  -73650.33       400.61063     -73249.72       197.01477      199.94774      369.69586    
     17900  -73639.681      399.53778     -73240.144      196.98916      199.93846      369.8656     
     18000  -73627.816      395.72803     -73232.088      196.9666       199.92814      370.03534    
     18100  -73618.321      400.45737     -73217.864      196.94281      199.91575      370.20508    
     18200  -73595.822      398.09631     -73197.726      196.92278      199.90565      370.37482    
     18300  -73580.413      403.32378     -73177.089      196.89906      199.89528      370.54456    
     18400  -73568.874      404.41979     -73164.454      196.87244      199.88118      370.7143     
     18500  -73558.55       404.1789      -73154.371      196.85235      199.86837      370.88404    
     18600  -73542.495      398.32205     -73144.173      196.83073      199.85486      371.05378    
     18700  -73526.492      397.42803     -73129.064      196.80728      199.84232      371.22352    
     18800  -73507.331      399.89011     -73107.441      196.78624      199.83334      371.39327    
     18900  -73496.613      409.29318     -73087.32       196.76019      199.82266      371.56301    
     19000  -73479.059      402.90522     -73076.154      196.73182      199.8123       371.73275    
     19100  -73469.75       403.04584     -73066.704      196.70815      199.80474      371.90249    
     19200  -73454.753      401.15461     -73053.599      196.68347      199.797        372.07223    
     19300  -73433.693      397.87465     -73035.819      196.65918      199.78879      372.24197    
     19400  -73417.585      404.09535     -73013.49       196.63565      199.78207      372.41171    
     19500  -73408.342      409.30068     -72999.041      196.60746      199.77289      372.58145    
     19600  -73390.468      400.84001     -72989.628      196.57847      199.76404      372.75119    
     19700  -73378.042      401.45338     -72976.589      196.55188      199.75496      372.92093    
     19800  -73362.847      402.21553     -72960.631      196.52548      199.74371      373.09068    
     19900  -73343.024      401.39124     -72941.633      196.50427      199.7337       373.26042    
     20000  -73326.914      405.89685     -72921.017      196.48501      199.72464      373.43016    
     20100  -73308.44       404.73483     -72903.705      196.46299      199.71466      373.5999     
     20200  -73301.925      405.15455     -72896.77       196.44008      199.70371      373.76964    
     20300  -73290.288      404.27283     -72886.015      196.41399      199.69214      373.93938    
     20400  -73274.753      404.53372     -72870.219      196.38649      199.67977      374.10912    
     20500  -73253.683      400.91755     -72852.765      196.36089      199.66866      374.27886    
     20600  -73229.6        397.77059     -72831.829      196.33639      199.65702      374.4486     
     20700  -73219.828      408.18952     -72811.638      196.31205      199.64362      374.61834    
     20800  -73201.622      402.78956     -72798.832      196.29047      199.63022      374.78808    
     20900  -73194.028      401.78947     -72792.238      196.26727      199.61636      374.95783    
     21000  -73176.658      399.31466     -72777.344      196.24515      199.60516      375.12757    
     21100  -73157.391      399.86483     -72757.526      196.22148      199.59614      375.29731    
     21200  -73139.527      404.40097     -72735.126      196.19282      199.58649      375.46705    
     21300  -73122.482      403.88903     -72718.593      196.16723      199.58018      375.63679    
     21400  -73106.6        401.66762     -72704.933      196.13702      199.57179      375.80653    
     21500  -73093.843      399.72496     -72694.118      196.10804      199.56421      375.97627    
     21600  -73077.216      393.64796     -72683.568      196.08382      199.55805      376.14601    
     21700  -73071.196      396.8345      -72674.362      196.05733      199.54911      376.31575    
     21800  -73050.718      393.89368     -72656.824      196.03246      199.53971      376.48549    
     21900  -73031.135      399.10188     -72632.033      196.00676      199.53003      376.65524    
     22000  -73013.74       402.38401     -72611.356      195.98024      199.52048      376.82498    
     22100  -72992.448      401.29947     -72591.148      195.95722      199.51335      376.99472    
     22200  -72975.207      403.11437     -72572.092      195.93363      199.50614      377.16446    
     22300  -72959.907      405.6347      -72554.273      195.90915      199.49686      377.3342     
     22400  -72945.985      406.31363     -72539.672      195.88755      199.48701      377.50394    
     22500  -72931.041      401.62473     -72529.416      195.86415      199.47367      377.67368    
     22600  -72917.861      403.58466     -72514.276      195.84104      199.46         377.84342    
     22700  -72891.509      399.21386     -72492.295      195.82181      199.44884      378.01316    
     22800  -72875.539      405.80779     -72469.731      195.79934      199.43617      378.1829     
     22900  -72854.857      400.31221     -72454.545      195.77725      199.42352      378.35265    
     23000  -72843.227      400.8037      -72442.424      195.75749      199.41242      378.52239    
     23100  -72829.039      400.84813     -72428.191      195.73253      199.39777      378.69213    
     23200  -72809.335      398.54429     -72410.791      195.71205      199.38545      378.86187    
     23300  -72790.573      399.6538      -72390.919      195.6936       199.37381      379.03161    
     23400  -72776.635      403.29607     -72373.339      195.67217      199.36027      379.20135    
     23500  -72760.104      402.63326     -72357.471      195.65316      199.35053      379.37109    
     23600  -72738.948      398.23529     -72340.713      195.62937      199.34102      379.54083    
     23700  -72718.053      399.32674     -72318.726      195.60667      199.33219      379.71057    
     23800  -72700.983      405.31962     -72295.663      195.58801      199.32512      379.88031    
     23900  -72683.212      403.58337     -72279.629      195.56449      199.31719      380.05006    
     24000  -72671.328      402.0112      -72269.317      195.54292      199.31116      380.2198     
     24100  -72654.04       399.23601     -72254.804      195.52071      199.30516      380.38954    
     24200  -72636.518      399.60909     -72236.909      195.49814      199.29714      380.55928    
     24300  -72617.467      399.70109     -72217.766      195.47978      199.28957      380.72902    
     24400  -72598.685      402.5478      -72196.137      195.46031      199.27939      380.89876    
     24500  -72576.369      404.39354     -72171.976      195.4398       199.26799      381.0685     
     24600  -72562.274      407.93016     -72154.344      195.42239      199.25865      381.23824    
     24700  -72545.849      401.44452     -72144.405      195.4028       199.24611      381.40798    
     24800  -72532.286      403.29466     -72128.991      195.38368      199.23197      381.57772    
     24900  -72512.959      402.35408     -72110.604      195.36818      199.21876      381.74747    
     25000  -72492.341      401.54372     -72090.798      195.35016      199.20327      381.91721    
     25100  -72472.251      401.66998     -72070.581      195.33256      199.18797      382.08695    
     25200  -72448.754      398.5344      -72050.22       195.31789      199.17596      382.25669    
     25300  -72435.597      403.07132     -72032.525      195.30162      199.16466      382.42643    
     25400  -72419.126      398.77542     -72020.351      195.28284      199.15575      382.59617    
     25500  -72409.1        401.75521     -72007.345      195.26429      199.15058      382.76591    
     25600  -72389.379      400.54894     -71988.83       195.24452      199.14627      382.93565    
     25700  -72367.931      404.7907      -71963.14       195.2207       199.13894      383.10539    
     25800  -72349.345      406.85985     -71942.485      195.20127      199.13341      383.27513    
     25900  -72332.912      405.56186     -71927.35       195.18454      199.12846      383.44487    
     26000  -72312.755      399.53372     -71913.222      195.16622      199.1197       383.61462    
     26100  -72297.299      399.98607     -71897.313      195.15201      199.11414      383.78436    
     26200  -72272.202      399.10078     -71873.102      195.13637      199.10824      383.9541     
     26300  -72254.485      406.0519      -71848.433      195.1165       199.0994       384.12384    
     26400  -72235.365      403.84186     -71831.523      195.1016       199.09346      384.29358    
     26500  -72221.685      404.27431     -71817.411      195.08606      199.08532      384.46332    
     26600  -72204.399      400.74949     -71803.65       195.06941      199.07475      384.63306    
     26700  -72184.076      399.15288     -71784.923      195.05848      199.06627      384.8028     
     26800  -72157.548      401.16974     -71756.378      195.04258      199.05283      384.97254    
     26900  -72143.526      405.83681     -71737.689      195.02437      199.03835      385.14228    
     27000  -72126.206      401.44571     -71724.761      195.01063      199.02713      385.31203    
     27100  -72111.134      401.40413     -71709.73       194.99504      199.01523      385.48177    
     27200  -72087.677      397.57095     -71690.106      194.98188      199.00763      385.65151    
     27300  -72064.969      403.37949     -71661.589      194.96874      199.0011       385.82125    
     27400  -72045.136      404.46899     -71640.667      194.95095      198.99133      385.99099    
     27500  -72027.888      401.39181     -71626.496      194.93514      198.98444      386.16073    
     27600  -72010.326      397.16921     -71613.157      194.921        198.97936      386.33047    
     27700  -71996.409      401.50691     -71594.902      194.9063       198.97344      386.50021    
     27800  -71974.87       402.45987     -71572.41       194.89478      198.96872      386.66995    
     27900  -71950.927      406.17541     -71544.751      194.88072      198.96205      386.83969    
     28000  -71934.091      406.84328     -71527.247      194.86376      198.95336      387.00944    
     28100  -71915.74       402.70086     -71513.039      194.84846      198.94768      387.17918    
     28200  -71895.961      398.96441     -71496.996      194.83283      198.94107      387.34892    
     28300  -71874.77       397.96778     -71476.803      194.81839      198.9335       387.51866    
     28400  -71852.254      401.06399     -71451.19       194.80826      198.92747      387.6884     
     28500  -71833.306      405.64193     -71427.664      194.79508      198.91763      387.85814    
     28600  -71808.925      397.3945      -71411.53       194.78113      198.90657      388.02788    
     28700  -71798.553      402.55343     -71396          194.77007      198.89823      388.19762    
     28800  -71782.795      401.70559     -71381.09       194.75872      198.88905      388.36736    
     28900  -71767.34       402.0269      -71365.313      194.74691      198.87906      388.5371     
     29000  -71741.865      399.91837     -71341.947      194.73671      198.87053      388.70685    
     29100  -71718.232      403.99462     -71314.237      194.72405      198.85903      388.87659    
     29200  -71702.429      406.42068     -71296.008      194.71168      198.84859      389.04633    
     29300  -71678.281      396.75783     -71281.523      194.69951      198.84148      389.21607    
     29400  -71663.382      398.30193     -71265.081      194.68459      198.83398      389.38581    
     29500  -71642.014      396.99988     -71245.014      194.66894      198.82715      389.55555    
     29600  -71620.942      404.71443     -71216.228      194.65575      198.82037      389.72529    
     29700  -71599.234      404.69783     -71194.536      194.64397      198.81201      389.89503    
     29800  -71580.828      403.66759     -71177.16       194.63478      198.80474      390.06477    
     29900  -71559.625      395.16183     -71164.463      194.62618      198.79778      390.23451    
     30000  -71542.849      396.53503     -71146.314      194.61383      198.78806      390.40426    
     30100  -71522.089      399.1317      -71122.957      194.60083      198.77934      390.574      
     30200  -71502.342      401.84108     -71100.501      194.58731      198.7718       390.74374    
     30300  -71484.171      404.9669      -71079.204      194.57349      198.76472      390.91348    
     30400  -71455.066      395.91237     -71059.154      194.56264      198.75934      391.08322    
     30500  -71440.674      399.48872     -71041.185      194.55174      198.75252      391.25296    
     30600  -71422.982      398.23025     -71024.752      194.5397       198.74158      391.4227     
     30700  -71404.137      400.83872     -71003.299      194.52942      198.73317      391.59244    
     30800  -71373.644      397.65116     -70975.993      194.51645      198.72427      391.76218    
     30900  -71355.817      402.67949     -70953.138      194.50385      198.71542      391.93192    
     31000  -71337.961      402.56366     -70935.398      194.49312      198.70838      392.10166    
     31100  -71319.546      399.24078     -70920.305      194.48353      198.70216      392.27141    
     31200  -71305.41       403.70048     -70901.709      194.47533      198.6946       392.44115    
     31300  -71282.563      402.53947     -70880.024      194.46448      198.68277      392.61089    
     31400  -71258.067      399.49315     -70858.574      194.45326      198.66984      392.78063    
     31500  -71235.885      400.45061     -70835.434      194.44254      198.65958      392.95037    
     31600  -71209.965      399.59232     -70810.373      194.43052      198.6519       393.12011    
     31700  -71196.013      407.94151     -70788.071      194.41992      198.64681      393.28985    
     31800  -71177.076      403.3047      -70773.772      194.40928      198.63984      393.45959    
     31900  -71160.793      400.74605     -70760.047      194.39877      198.62903      393.62933    
     32000  -71139.91       401.45888     -70738.451      194.38953      198.6176       393.79907    
     32100  -71116.463      404.58403     -70711.879      194.37786      198.60569      393.96882    
     32200  -71092.379      402.92876     -70689.451      194.36484      198.59642      394.13856    
     32300  -71072.386      402.36069     -70670.025      194.35213      198.59018      394.3083     
     32400  -71052.881      401.72338     -70651.157      194.33882      198.58158      394.47804    
     32500  -71034.953      399.31517     -70635.638      194.32824      198.57193      394.64778    
     32600  -71013.114      393.84815     -70619.266      194.31972      198.56224      394.81752    
     32700  -70993.477      400.38043     -70593.097      194.31033      198.55213      394.98726    
     32800  -70969.52       403.27053     -70566.25       194.29978      198.54279      395.157      
     32900  -70948.026      404.39126     -70543.635      194.28797      198.53489      395.32674    
     33000  -70928.531      405.43453     -70523.096      194.27472      198.52593      395.49648    
     33100  -70905.717      401.10236     -70504.614      194.2624       198.51583      395.66623    
     33200  -70888.391      400.93418     -70487.456      194.25346      198.5071       395.83597    
     33300  -70864.623      399.03521     -70465.588      194.24589      198.49824      396.00571    
     33400  -70837.346      398.30494     -70439.041      194.23867      198.49014      396.17545    
     33500  -70820.888      406.37995     -70414.508      194.22818      198.48056      396.34519    
     33600  -70799.874      405.37068     -70394.503      194.2138       198.46844      396.51493    
     33700  -70780.728      397.79107     -70382.937      194.20009      198.45644      396.68467    
     33800  -70757.634      393.70598     -70363.928      194.18831      198.44459      396.85441    
     33900  -70742.733      405.24128     -70337.492      194.17689      198.43213      397.02415    
     34000  -70714.976      402.46641     -70312.51       194.16848      198.42138      397.19389    
     34100  -70693.566      402.37564     -70291.19       194.16003      198.40936      397.36364    
     34200  -70675.254      404.0483      -70271.206      194.15237      198.3979       397.53338    
     34300  -70655.156      402.36059     -70252.795      194.14414      198.3878       397.70312    
     34400  -70632.826      396.60513     -70236.221      194.13107      198.37479      397.87286    
     34500  -70607.393      393.77135     -70213.622      194.1182       198.36379      398.0426     
     34600  -70585.457      400.66554     -70184.791      194.10665      198.35332      398.21234    
     34700  -70567.419      406.14755     -70161.271      194.09526      198.34073      398.38208    
     34800  -70541.765      400.95626     -70140.808      194.08701      198.3298       398.55182    
     34900  -70523.932      401.51317     -70122.419      194.07814      198.31756      398.72156    
     35000  -70505.994      398.39682     -70107.597      194.06762      198.30369      398.8913     
     35100  -70481.214      394.98392     -70086.23       194.05723      198.29051      399.06105    
     35200  -70462.148      405.34921     -70056.798      194.04739      198.27838      399.23079    
     35300  -70429.089      396.00716     -70033.081      194.03713      198.26672      399.40053    
     35400  -70413.787      402.88016     -70010.907      194.02425      198.25244      399.57027    
     35500  -70396.874      405.93824     -69990.935      194.01421      198.23962      399.74001    
     35600  -70373.816      398.11765     -69975.699      194.00332      198.22567      399.90975    
     35700  -70354.536      398.51523     -69956.021      193.98955      198.21103      400.07949    
     35800  -70326.171      399.51852     -69926.653      193.97892      198.20202      400.24923    
     35900  -70305.475      404.27525     -69901.2        193.96637      198.19023      400.41897    
     36000  -70282.409      401.71089     -69880.698      193.95449      198.1768       400.58871    
     36100  -70263.162      400.64019     -69862.522      193.94805      198.16812      400.75845    
     36200  -70243.951      398.26798     -69845.683      193.93525      198.1541       400.9282     
     36300  -70222.459      397.63714     -69824.822      193.92001      198.13914      401.09794    
     36400  -70197.207      402.01148     -69795.195      193.90853      198.12998      401.26768    
     36500  -70172.492      403.58115     -69768.911      193.89003      198.11426      401.43742    
     36600  -70151.536      404.23273     -69747.304      193.87566      198.10174      401.60716    
     36700  -70128.904      398.88211     -69730.021      193.86857      198.09601      401.7769     
     36800  -70112.922      398.55558     -69714.366      193.85531      198.08274      401.94664    
     36900  -70089.631      398.91171     -69690.72       193.84526      198.07089      402.11638    
     37000  -70058.128      399.12024     -69659.008      193.83597      198.05767      402.28612    
     37100  -70037.409      400.46039     -69636.948      193.81965      198.03792      402.45586    
     37200  -70021.174      401.92793     -69619.246      193.80595      198.02208      402.62561    
     37300  -70001.702      400.11071     -69601.592      193.79139      198.00757      402.79535    
     37400  -69979.518      402.36713     -69577.151      193.77341      197.99251      402.96509    
     37500  -69948.955      401.45493     -69547.5        193.76151      197.98573      403.13483    
     37600  -69924.925      400.65494     -69524.27       193.74903      197.97624      403.30457    
     37700  -69907.426      403.09259     -69504.334      193.73543      197.96179      403.47431    
     37800  -69887.477      402.14393     -69485.333      193.72383      197.94791      403.64405    
     37900  -69869.114      403.21753     -69465.897      193.70945      197.9298       403.81379    
     38000  -69842.671      398.75812     -69443.913      193.69583      197.91226      403.98353    
     38100  -69821.876      408.28329     -69413.593      193.68356      197.89784      404.15327    
     38200  -69792.873      403.36819     -69389.505      193.67026      197.88517      404.32302    
     38300  -69775.755      403.25519     -69372.5        193.65698      197.87343      404.49276    
     38400  -69756.691      400.95009     -69355.741      193.64331      197.85995      404.6625     
     38500  -69732.903      399.73678     -69333.166      193.62996      197.84394      404.83224    
     38600  -69709.848      402.07842     -69307.77       193.61734      197.82859      405.00198    
     38700  -69685.106      404.56737     -69280.539      193.60214      197.81099      405.17172    
     38800  -69655.616      406.60154     -69249.014      193.58715      197.79422      405.34146    
     38900  -69635.775      407.60427     -69228.171      193.57369      197.77881      405.5112     
     39000  -69614.681      403.65043     -69211.031      193.55697      197.7606       405.68094    
     39100  -69597.957      403.93825     -69194.019      193.541        197.74404      405.85068    
     39200  -69576.901      400.18351     -69176.717      193.52693      197.73143      406.02043    
     39300  -69552.547      396.6646      -69155.883      193.50984      197.71757      406.19017    
     39400  -69530.838      401.66157     -69129.176      193.49178      197.7033       406.35991    
     39500  -69502.379      402.01297     -69100.366      193.47598      197.6898       406.52965    
     39600  -69482.913      404.5349      -69078.378      193.45966      197.67161      406.69939    
     39700  -69461.582      402.79738     -69058.785      193.44512      197.65219      406.86913    
     39800  -69441.869      403.48442     -69038.384      193.43483      197.63628      407.03887    
     39900  -69416.165      399.60637     -69016.558      193.42406      197.61781      407.20861    
     40000  -69394.875      400.71893     -68994.156      193.41123      197.59822      407.37835    
     40100  -69365.384      400.52593     -68964.858      193.39839      197.58191      407.54809    
     40200  -69345.201      407.56229     -68937.639      193.38151      197.56477      407.71784    
     40300  -69325.961      405.83861     -68920.123      193.3631       197.54803      407.88758    
     40400  -69301.051      398.32662     -68902.724      193.34679      197.53374      408.05732    
     40500  -69281.806      400.35401     -68881.452      193.32791      197.51589      408.22706    
     40600  -69254.355      396.76236     -68857.592      193.30854      197.49646      408.3968     
     40700  -69229.27       400.23729     -68829.033      193.29268      197.47832      408.56654    
     40800  -69208.415      408.41376     -68800.001      193.27678      197.45813      408.73628    
     40900  -69184.601      403.30537     -68781.296      193.26083      197.43948      408.90602    
     41000  -69163.697      399.87486     -68763.823      193.24647      197.4228       409.07576    
     41100  -69146.429      403.16582     -68743.263      193.22909      197.40116      409.2455     
     41200  -69120.434      398.80367     -68721.63       193.21226      197.37963      409.41524    
     41300  -69098.691      402.50966     -68696.181      193.19634      197.36232      409.58499    
     41400  -69075.933      408.83523     -68667.097      193.17851      197.34522      409.75473    
     41500  -69051.753      406.34013     -68645.413      193.1611       197.32794      409.92447    
     41600  -69031.899      401.73761     -68630.161      193.14673      197.31145      410.09421    
     41700  -69008.743      400.16375     -68608.579      193.13063      197.29014      410.26395    
     41800  -68981.386      397.4548      -68583.931      193.11411      197.2678       410.43369    
     41900  -68959.357      402.87264     -68556.484      193.09831      197.24707      410.60343    
     42000  -68936.507      408.95161     -68527.556      193.08144      197.22721      410.77317    
     42100  -68908.349      407.97805     -68500.371      193.06445      197.20793      410.94291    
     42200  -68887.111      404.26751     -68482.843      193.04656      197.18925      411.11265    
     42300  -68869.583      401.10968     -68468.474      193.02714      197.16978      411.2824     
     42400  -68848.68       399.868       -68448.812      193.0059       197.14798      411.45214    
     42500  -68827.298      402.9866      -68424.311      192.98576      197.12782      411.62188    
     42600  -68797.087      401.98487     -68395.102      192.96714      197.10933      411.79162    
     42700  -68774.094      404.41781     -68369.676      192.94913      197.08939      411.96136    
     42800  -68749.929      399.95033     -68349.978      192.93226      197.06817      412.1311     
     42900  -68737.154      402.83748     -68334.317      192.91512      197.04634      412.30084    
     43000  -68709.493      397.32762     -68312.166      192.89543      197.023        412.47058    
     43100  -68691.078      405.11105     -68285.967      192.87283      197.00023      412.64032    
     43200  -68660.764      401.69093     -68259.073      192.85142      196.98202      412.81006    
     43300  -68634.938      401.75691     -68233.181      192.82983      196.96366      412.97981    
     43400  -68613.082      402.86469     -68210.218      192.80967      196.94539      413.14955    
     43500  -68590.633      398.28863     -68192.344      192.79175      196.92647      413.31929    
     43600  -68571.415      397.39951     -68174.015      192.77245      196.90349      413.48903    
     43700  -68550.08       400.42137     -68149.659      192.75274      196.88094      413.65877    
     43800  -68523.304      404.94813     -68118.356      192.7335       196.85783      413.82851    
     43900  -68498.753      405.41486     -68093.339      192.71371      196.83251      413.99825    
     44000  -68472.636      399.50909     -68073.127      192.69728      196.81011      414.16799    
     44100  -68456.503      403.36313     -68053.14       192.67974      196.78552      414.33773    
     44200  -68429.857      397.35537     -68032.501      192.65928      196.75909      414.50747    
     44300  -68414.209      401.91959     -68012.289      192.63981      196.73704      414.67722    
     44400  -68384.46       395.96619     -67988.494      192.61958      196.71534      414.84696    
     44500  -68362.26       403.64737     -67958.613      192.59724      196.68956      415.0167     
     44600  -68332.681      401.66122     -67931.019      192.57903      196.6658       415.18644    
     44700  -68311.605      401.9389      -67909.666      192.56298      196.64293      415.35618    
     44800  -68291.625      399.08262     -67892.542      192.54295      196.61676      415.52592    
     44900  -68268.69       397.21922     -67871.471      192.52491      196.59471      415.69566    
     45000  -68246.946      400.75287     -67846.193      192.50628      196.57436      415.8654     
     45100  -68222.288      402.46697     -67819.821      192.48315      196.54901      416.03514    
     45200  -68195.899      402.37018     -67793.529      192.46284      196.52419      416.20488    
     45300  -68168.128      400.11914     -67768.009      192.44476      196.50099      416.37463    
     45400  -68145.815      403.6314      -67742.183      192.42288      196.47356      416.54437    
     45500  -68128.425      407.86837     -67720.556      192.40166      196.4485       416.71411    
     45600  -68107.453      402.93857     -67704.514      192.38163      196.42711      416.88385    
     45700  -68082.25       399.27058     -67682.98       192.35756      196.40171      417.05359    
     45800  -68056.199      399.74498     -67656.454      192.33423      196.37821      417.22333    
     45900  -68033.346      406.50964     -67626.837      192.31266      196.35656      417.39307    
     46000  -68003.691      403.42254     -67600.268      192.29011      196.33088      417.56281    
     46100  -67990.463      404.63923     -67585.823      192.26918      196.30543      417.73255    
     46200  -67966.25       399.11482     -67567.135      192.24876      196.28169      417.90229    
     46300  -67941.268      400.08441     -67541.183      192.22718      196.25603      418.07203    
     46400  -67919.073      406.99812     -67512.075      192.20578      196.23091      418.24178    
     46500  -67891.38       404.32879     -67487.051      192.18491      196.20712      418.41152    
     46600  -67871.057      401.03654     -67470.02       192.16339      196.18112      418.58126    
     46700  -67850.557      399.37237     -67451.185      192.14294      196.15429      418.751      
     46800  -67824.737      400.63        -67424.107      192.12266      196.1277       418.92074    
     46900  -67796.963      401.10344     -67395.859      192.10347      196.10197      419.09048    
     47000  -67775.787      405.04196     -67370.745      192.08255      196.07453      419.26022    
     47100  -67750.861      399.17315     -67351.687      192.06038      196.04825      419.42996    
     47200  -67734.221      398.87679     -67335.344      192.0385       196.02518      419.5997     
     47300  -67711.371      401.72444     -67309.646      192.01534      196.00162      419.76944    
     47400  -67677.331      395.76053     -67281.571      191.99209      195.97751      419.93919    
     47500  -67659.038      405.52951     -67253.509      191.97131      195.95426      420.10893    
     47600  -67632.939      404.18742     -67228.752      191.9494       195.92863      420.27867    
     47700  -67606.733      398.1717      -67208.562      191.92643      195.90184      420.44841    
     47800  -67592.726      397.26812     -67195.458      191.90521      195.87735      420.61815    
     47900  -67564.459      394.42897     -67170.03       191.87958      195.84964      420.78789    
     48000  -67538.852      399.69217     -67139.16       191.85543      195.82519      420.95763    
     48100  -67517.068      405.4436      -67111.624      191.8341       195.80401      421.12737    
     48200  -67494.145      405.51995     -67088.625      191.81082      195.77878      421.29711    
     48300  -67469.184      398.45519     -67070.729      191.79026      195.75288      421.46685    
     48400  -67451.951      400.888       -67051.063      191.77141      195.72591      421.6366     
     48500  -67421.938      398.19898     -67023.739      191.74844      195.69621      421.80634    
     48600  -67400.91       404.54118     -66996.369      191.72839      195.67225      421.97608    
     48700  -67375.841      404.2778      -66971.563      191.70746      195.64871      422.14582    
     48800  -67352.217      404.14833     -66948.069      191.68356      195.62337      422.31556    
     48900  -67327.642      401.49295     -66926.149      191.66288      195.59962      422.4853     
     49000  -67307.487      400.70418     -66906.783      191.64136      195.57143      422.65504    
     49100  -67283.584      398.88738     -66884.697      191.61912      195.54309      422.82478    
     49200  -67256.042      402.38617     -66853.656      191.59821      195.51932      422.99452    
     49300  -67232.038      407.81667     -66824.221      191.57485      195.49228      423.16426    
     49400  -67205.793      403.07086     -66802.722      191.55242      195.46565      423.33401    
     49500  -67188.466      404.22953     -66784.236      191.53241      195.44152      423.50375    
     49600  -67162.903      401.70256     -66761.2        191.50987      195.41367      423.67349    
     49700  -67136.212      400.95658     -66735.255      191.49001      195.38879      423.84323    
     49800  -67110.601      401.94227     -66708.659      191.47075      195.36475      424.01297    
     49900  -67088.406      406.47339     -66681.932      191.44938      195.33772      424.18271    
     50000  -67062.599      405.46806     -66657.131      191.43092      195.31303      424.35245    
     50100  -67045.002      405.50258     -66639.5        191.41096      195.28915      424.52219    
     50200  -67019.953      399.47119     -66620.482      191.38658      195.26443      424.69193    
     50300  -66993.87       397.78663     -66596.083      191.36333      195.24085      424.86167    
     50400  -66971.051      404.48852     -66566.563      191.34262      195.21689      425.03142    
     50500  -66942.876      406.06107     -66536.815      191.32308      195.19178      425.20116    
     50600  -66919.912      405.10482     -66514.807      191.30516      195.16617      425.3709     
     50700  -66900.248      402.72462     -66497.523      191.28594      195.13937      425.54064    
     50800  -66878.29       405.01163     -66473.278      191.26394      195.11255      425.71038    
     50900  -66849.482      401.42022     -66448.062      191.24142      195.08828      425.88012    
     51000  -66823.417      398.82218     -66424.595      191.21905      195.06411      426.04986    
     51100  -66806.986      402.4637      -66404.522      191.19847      195.04043      426.2196     
     51200  -66782.338      398.41476     -66383.923      191.17997      195.01788      426.38934    
     51300  -66758.965      402.15613     -66356.808      191.16086      194.99502      426.55908    
     51400  -66729.374      406.63165     -66322.742      191.14146      194.97277      426.72882    
     51500  -66703.856      405.89618     -66297.96       191.12072      194.9496       426.89857    
     51600  -66681.864      402.38996     -66279.474      191.09955      194.92692      427.06831    
     51700  -66657.897      400.11452     -66257.782      191.08088      194.90552      427.23805    
     51800  -66634.383      401.27457     -66233.109      191.06202      194.88218      427.40779    
     51900  -66611.635      404.56943     -66207.066      191.04506      194.85992      427.57753    
     52000  -66586.866      407.26419     -66179.602      191.02646      194.83549      427.74727    
     52100  -66557.16       401.98962     -66155.171      191.00456      194.80923      427.91701    
     52200  -66540.228      404.16936     -66136.059      190.9856       194.78855      428.08675    
     52300  -66517.096      400.74349     -66116.352      190.96407      194.7673       428.25649    
     52400  -66493.812      400.57194     -66093.24       190.9404       194.74394      428.42623    
     52500  -66468.827      403.80508     -66065.022      190.92196      194.72496      428.59598    
     52600  -66438.953      407.60729     -66031.346      190.9047       194.70506      428.76572    
     52700  -66410.724      403.9366      -66006.787      190.88584      194.68157      428.93546    
     52800  -66396.153      409.64505     -65986.508      190.86854      194.66112      429.1052     
     52900  -66368.551      402.63253     -65965.919      190.84914      194.63892      429.27494    
     53000  -66351.777      406.136       -65945.641      190.82786      194.61607      429.44468    
     53100  -66320.151      396.57701     -65923.574      190.81022      194.5963       429.61442    
     53200  -66298.564      399.5523      -65899.011      190.79174      194.57468      429.78416    
     53300  -66268.29       396.83485     -65871.455      190.77384      194.55269      429.9539     
     53400  -66244.668      403.255       -65841.413      190.76064      194.53411      430.12364    
     53500  -66225.399      408.83485     -65816.564      190.74488      194.51222      430.29339    
     53600  -66198.338      399.88236     -65798.456      190.72981      194.49113      430.46313    
     53700  -66178.31       402.4974      -65775.812      190.71545      194.47167      430.63287    
     53800  -66149.406      398.46424     -65750.942      190.69849      194.4503       430.80261    
     53900  -66129.196      403.49535     -65725.701      190.68214      194.42996      430.97235    
     54000  -66105.991      401.21348     -65704.777      190.66603      194.40742      431.14209    
     54100  -66080.792      396.93745     -65683.854      190.65126      194.3861       431.31183    
     54200  -66059.215      401.27765     -65657.937      190.63713      194.36909      431.48157    
     54300  -66031.798      406.49057     -65625.308      190.61754      194.35091      431.65131    
     54400  -66006.438      410.03969     -65596.398      190.59861      194.33424      431.82105    
     54500  -65978.429      404.77763     -65573.651      190.58074      194.31729      431.9908     
     54600  -65956.877      404.63336     -65552.244      190.56186      194.29783      432.16054    
     54700  -65937.068      406.92545     -65530.142      190.54681      194.28116      432.33028    
     54800  -65907.76       398.68086     -65509.079      190.53001      194.26276      432.50002    
     54900  -65884.486      399.44852     -65485.037      190.51244      194.24471      432.66976    
     55000  -65859.427      403.0883      -65456.338      190.49963      194.23256      432.8395     
     55100  -65827.907      406.15779     -65421.75       190.48252      194.21494      433.00924    
     55200  -65804.862      405.45614     -65399.406      190.46561      194.1966       433.17898    
     55300  -65785.854      405.6543      -65380.199      190.45434      194.18359      433.34872    
     55400  -65762.924      403.90399     -65359.02       190.43736      194.16547      433.51846    
     55500  -65739.95       402.70928     -65337.241      190.42145      194.14954      433.68821    
     55600  -65714.894      401.30574     -65313.589      190.40883      194.13754      433.85795    
     55700  -65692.327      403.9335      -65288.393      190.39292      194.12064      434.02769    
     55800  -65660.172      398.49857     -65261.673      190.37942      194.10564      434.19743    
     55900  -65633.439      400.36582     -65233.073      190.36692      194.09082      434.36717    
     56000  -65613.307      406.09986     -65207.207      190.35228      194.0737       434.53691    
     56100  -65591.997      403.72831     -65188.269      190.33805      194.05681      434.70665    
     56200  -65566.603      400.09322     -65166.51       190.32162      194.03885      434.87639    
     56300  -65540.529      399.43512     -65141.094      190.30641      194.02191      435.04613    
     56400  -65517.326      402.45448     -65114.871      190.29321      194.00819      435.21587    
     56500  -65486.212      397.37438     -65088.838      190.27864      193.99513      435.38561    
     56600  -65469.469      403.53858     -65065.931      190.26617      193.98563      435.55536    
     56700  -65446.962      403.0253      -65043.936      190.25118      193.97134      435.7251     
     56800  -65418.658      400.21137     -65018.446      190.23556      193.95284      435.89484    
     56900  -65394.122      406.9625      -64987.159      190.2248       193.93991      436.06458    
     57000  -65362.282      406.08168     -64956.2        190.21057      193.92529      436.23432    
     57100  -65341.835      404.96916     -64936.866      190.19673      193.91221      436.40406    
     57200  -65321.044      405.77491     -64915.269      190.18643      193.90146      436.5738     
     57300  -65292.591      401.61805     -64890.973      190.17457      193.88622      436.74354    
     57400  -65270.131      402.51998     -64867.611      190.16345      193.87009      436.91328    
     57500  -65244.218      399.95103     -64844.267      190.15335      193.8556       437.08302    
     57600  -65218.989      397.35247     -64821.637      190.14279      193.84247      437.25277    
     57700  -65193.944      394.51278     -64799.431      190.12929      193.82728      437.42251    
     57800  -65172.098      399.75262     -64772.346      190.11783      193.81425      437.59225    
     57900  -65142.961      406.12037     -64736.84       190.10714      193.803        437.76199    
     58000  -65118.838      409.30663     -64709.531      190.09094      193.78729      437.93173    
     58100  -65092.212      404.62835     -64687.583      190.07829      193.77639      438.10147    
     58200  -65070.781      405.64204     -64665.139      190.06709      193.76768      438.27121    
     58300  -65047.006      405.21048     -64641.795      190.05         193.75242      438.44095    
     58400  -65021.264      403.16275     -64618.101      190.03993      193.7442       438.61069    
     58500  -64994.613      400.1824      -64594.43       190.03101      193.73558      438.78043    
     58600  -64973.021      400.7656      -64572.256      190.01796      193.7209       438.95018    
     58700  -64946.15       393.43506     -64552.715      190.00937      193.71043      439.11992    
     58800  -64923.685      397.67083     -64526.014      189.99846      193.69771      439.28966    
     58900  -64888.515      399.07732     -64489.438      189.98488      193.68082      439.4594     
     59000  -64865.513      405.14411     -64460.368      189.97586      193.66873      439.62914    
     59100  -64842.688      404.92564     -64437.763      189.96554      193.65631      439.79888    
     59200  -64815.966      399.95364     -64416.012      189.95234      193.64415      439.96862    
     59300  -64792.535      400.91803     -64391.617      189.93942      193.63529      440.13836    
     59400  -64766.886      400.66587     -64366.22       189.92576      193.6259       440.3081     
     59500  -64743.583      400.82837     -64342.755      189.91265      193.61617      440.47784    
     59600  -64717.743      395.68955     -64322.053      189.90114      193.60526      440.64759    
     59700  -64694.536      400.36711     -64294.169      189.89259      193.5945       440.81733    
     59800  -64662.694      403.13196     -64259.562      189.88289      193.58121      440.98707    
     59900  -64632.42       405.37239     -64227.048      189.87318      193.56703      441.15681    
     60000  -64608.624      407.06704     -64201.557      189.86415      193.55318      441.32655    
     60100  -64584.318      405.12813     -64179.19       189.85431      193.53954      441.49629    
     60200  -64558.669      401.51246     -64157.156      189.84444      193.52666      441.66603    
     60300  -64537.09       403.83384     -64133.256      189.83474      193.51535      441.83577    
     60400  -64510.378      401.72693     -64108.651      189.82561      193.50546      442.00551    
     60500  -64481.457      398.30109     -64083.156      189.81725      193.49654      442.17525    
     60600  -64463.424      401.51734     -64061.907      189.80659      193.48556      442.345      
     60700  -64435.312      397.79191     -64037.52       189.79678      193.47746      442.51474    
     60800  -64409.868      404.86029     -64005.008      189.78521      193.46826      442.68448    
     60900  -64371.683      405.5649      -63966.118      189.77088      193.45365      442.85422    
     61000  -64348.153      408.45412     -63939.699      189.76216      193.4434       443.02396    
     61100  -64325.367      406.54338     -63918.823      189.75189      193.43208      443.1937     
     61200  -64299.488      402.98735     -63896.501      189.73732      193.41804      443.36344    
     61300  -64272.626      400.20279     -63872.423      189.72518      193.40872      443.53318    
     61400  -64248.089      401.63289     -63846.456      189.71186      193.39799      443.70292    
     61500  -64223.26       402.42032     -63820.839      189.70032      193.38817      443.87266    
     61600  -64196.116      399.60912     -63796.507      189.69075      193.37876      444.0424     
     61700  -64169.737      395.32425     -63774.413      189.68057      193.3668       444.21215    
     61800  -64142.264      397.45248     -63744.811      189.67192      193.35521      444.38189    
     61900  -64118.038      404.56283     -63713.475      189.66167      193.34255      444.55163    
     62000  -64081.302      398.73724     -63682.565      189.65065      193.33158      444.72137    
     62100  -64058.113      401.18992     -63656.923      189.63995      193.32233      444.89111    
     62200  -64036.144      400.98379     -63635.16       189.62916      193.31129      445.06085    
     62300  -64003.204      397.94793     -63605.256      189.61912      193.29902      445.23059    
     62400  -63978.295      403.02516     -63575.27       189.61052      193.28728      445.40033    
     62500  -63955.304      406.6482      -63548.656      189.60015      193.2751       445.57007    
     62600  -63929.655      403.97038     -63525.685      189.59001      193.26529      445.73981    
     62700  -63895.384      398.95286     -63496.431      189.57927      193.25677      445.90956    
     62800  -63871.988      405.40085     -63466.587      189.5679       193.24688      446.0793     
     62900  -63841.174      402.03741     -63439.136      189.55736      193.23516      446.24904    
     63000  -63815.832      398.16439     -63417.667      189.54731      193.22277      446.41878    
     63100  -63790.252      402.28619     -63387.966      189.53673      193.20982      446.58852    
     63200  -63757.514      401.33904     -63356.175      189.52505      193.19755      446.75826    
     63300  -63727.825      400.2112      -63327.613      189.51256      193.18536      446.928      
     63400  -63705.648      401.01686     -63304.631      189.49931      193.17246      447.09774    
     63500  -63672.669      397.10467     -63275.564      189.48626      193.15946      447.26748    
     63600  -63650.325      404.74988     -63245.575      189.47469      193.14709      447.43722    
     63700  -63621.553      404.07927     -63217.474      189.46539      193.13443      447.60697    
     63800  -63593.86       399.58311     -63194.276      189.45691      193.12228      447.77671    
     63900  -63562.589      399.51235     -63163.077      189.44831      193.10969      447.94645    
     64000  -63536.178      405.78427     -63130.394      189.44111      193.09842      448.11619    
     64100  -63504.743      401.83089     -63102.913      189.43088      193.08498      448.28593    
     64200  -63477.025      398.56459     -63078.461      189.41936      193.07126      448.45567    
     64300  -63448.897      401.97504     -63046.922      189.40872      193.05842      448.62541    
     64400  -63416.692      400.6367      -63016.055      189.39626      193.04196      448.79515    
     64500  -63387.6        398.39679     -62989.203      189.38715      193.02698      448.96489    
     64600  -63364.664      402.06021     -62962.604      189.38009      193.01494      449.13463    
     64700  -63330.444      399.09456     -62931.349      189.36821      192.99989      449.30438    
     64800  -63304.709      404.77165     -62899.937      189.35713      192.98746      449.47412    
     64900  -63269.418      397.36528     -62872.053      189.34583      192.97591      449.64386    
     65000  -63240.344      395.54455     -62844.799      189.33374      192.96194      449.8136     
     65100  -63211.016      399.42519     -62811.591      189.32402      192.94826      449.98334    
     65200  -63184.926      404.50735     -62780.419      189.31167      192.93145      450.15308    
     65300  -63157.443      405.49036     -62751.953      189.30058      192.91699      450.32282    
     65400  -63122.984      401.81049     -62721.174      189.2888       192.90362      450.49256    
     65500  -63091.547      402.04203     -62689.505      189.27467      192.88833      450.6623     
     65600  -63067.1        406.51382     -62660.587      189.26305      192.87575      450.83204    
     65700  -63036.111      403.9983      -62632.113      189.24799      192.85915      451.00179    
     65800  -63002.772      402.38487     -62600.387      189.23641      192.8455       451.17153    
     65900  -62973.143      402.77438     -62570.368      189.22579      192.83253      451.34127    
     66000  -62942.312      401.68675     -62540.625      189.21418      192.81822      451.51101    
     66100  -62910.022      401.73241     -62508.29       189.20451      192.80655      451.68075    
     66200  -62876.017      398.74001     -62477.277      189.19212      192.79257      451.85049    
     66300  -62847.308      401.20846     -62446.099      189.18032      192.77909      452.02023    
     66400  -62815.004      400.44996     -62414.555      189.16816      192.76619      452.18997    
     66500  -62782.951      399.42792     -62383.523      189.15198      192.75069      452.35971    
     66600  -62753.996      400.75141     -62353.244      189.13772      192.73768      452.52945    
     66700  -62721.427      400.18556     -62321.241      189.12256      192.72303      452.69919    
     66800  -62688.364      399.83175     -62288.532      189.10821      192.70819      452.86894    
     66900  -62661.919      406.87387     -62255.045      189.09581      192.6934       453.03868    
     67000  -62624.907      402.63285     -62222.274      189.08214      192.6762       453.20842    
     67100  -62595.613      405.62079     -62189.992      189.07008      192.6626       453.37816    
     67200  -62566.285      407.0762      -62159.209      189.05631      192.64869      453.5479     
     67300  -62532.097      404.59887     -62127.498      189.04037      192.63378      453.71764    
     67400  -62497.01       401.69685     -62095.313      189.02479      192.61906      453.88738    
     67500  -62469.446      404.55899     -62064.887      189.00754      192.60254      454.05712    
     67600  -62435.237      404.14984     -62031.088      188.99152      192.58699      454.22686    
     67700  -62400.62       402.96373     -61997.657      188.97631      192.57152      454.3966     
     67800  -62371.004      407.67893     -61963.325      188.96148      192.55581      454.56635    
     67900  -62334.302      405.47372     -61928.828      188.9466       192.53961      454.73609    
     68000  -62303.427      407.66352     -61895.764      188.93239      192.52413      454.90583    
     68100  -62266.819      405.26419     -61861.555      188.91883      192.50909      455.07557    
     68200  -62239.274      410.06718     -61829.207      188.90356      192.49288      455.24531    
     68300  -62201.2        404.32947     -61796.87       188.88796      192.47697      455.41505    
     68400  -62168.193      406.67839     -61761.515      188.87322      192.46235      455.58479    
     68500  -62134.283      405.80764     -61728.475      188.85633      192.44571      455.75453    
     68600  -62102.469      408.25296     -61694.216      188.84033      192.43006      455.92427    
     68700  -62063.011      404.55038     -61658.461      188.824        192.41372      456.09401    
     68800  -62030.91       407.56277     -61623.348      188.80683      192.39697      456.26376    
     68900  -61995.943      407.1066      -61588.836      188.79028      192.38127      456.4335     
     69000  -61958.842      403.11786     -61555.725      188.77404      192.36599      456.60324    
     69100  -61920.328      399.97843     -61520.35       188.7557       192.34839      456.77298    
     69200  -61891.132      405.14497     -61485.987      188.73765      192.33115      456.94272    
     69300  -61853.046      404.22837     -61448.818      188.72031      192.31407      457.11246    
     69400  -61820.693      407.29384     -61413.399      188.70075      192.2948       457.2822     
     69500  -61787.31       409.03619     -61378.273      188.68256      192.2776       457.45194    
     69600  -61750.068      407.53101     -61342.537      188.66433      192.26014      457.62168    
     69700  -61710.236      403.66524     -61306.57       188.64641      192.24255      457.79142    
     69800  -61675.769      406.15791     -61269.612      188.62947      192.22564      457.96117    
     69900  -61644.365      410.77624     -61233.588      188.61233      192.20801      458.13091    
     70000  -61603.52       407.24432     -61196.276      188.59406      192.18965      458.30065    
     70100  -61566.381      407.20929     -61159.172      188.57645      192.17279      458.47039    
     70200  -61531.321      408.95612     -61122.365      188.55845      192.15498      458.64013    
     70300  -61494.985      408.72734     -61086.257      188.53949      192.13516      458.80987    
     70400  -61458.262      407.59122     -61050.671      188.52225      192.11744      458.97961    
     70500  -61419.157      406.52822     -61012.629      188.5026       192.09806      459.14935    
     70600  -61379.277      402.45197     -60976.825      188.48295      192.07977      459.31909    
     70700  -61348.117      406.99648     -60941.12       188.46366      192.06213      459.48883    
     70800  -61311.728      409.24262     -60902.485      188.44275      192.0427       459.65858    
     70900  -61273.385      409.90434     -60863.481      188.42367      192.0244       459.82832    
     71000  -61234.593      407.49623     -60827.097      188.40451      192.00398      459.99806    
     71100  -61201.158      413.0288      -60788.129      188.38429      191.98213      460.1678     
     71200  -61162.457      412.07662     -60750.38       188.36512      191.96305      460.33754    
     71300  -61126.613      414.28127     -60712.332      188.34338      191.94274      460.50728    
     71400  -61085.014      413.18195     -60671.832      188.32208      191.92383      460.67702    
     71500  -61041.314      409.77092     -60631.543      188.30197      191.90577      460.84676    
     71600  -61008.035      416.37199     -60591.663      188.28156      191.88596      461.0165     
     71700  -60964.157      411.12652     -60553.03       188.26152      191.86499      461.18624    
     71800  -60926.702      412.16095     -60514.541      188.24134      191.84413      461.35598    
     71900  -60890.129      414.3805      -60475.748      188.22057      191.82298      461.52573    
     72000  -60851.112      412.72359     -60438.389      188.19989      191.80065      461.69547    
     72100  -60817.537      417.04438     -60400.493      188.18039      191.77977      461.86521    
     72200  -60770.104      410.63939     -60359.465      188.16007      191.75984      462.03495    
     72300  -60728.872      410.45789     -60318.414      188.13832      191.73923      462.20469    
     72400  -60689.311      412.14738     -60277.164      188.11655      191.71888      462.37443    
     72500  -60648.763      413.00369     -60235.76       188.094        191.6981       462.54417    
     72600  -60611.094      415.81791     -60195.277      188.0703       191.67642      462.71391    
     72700  -60573.77       418.521       -60155.249      188.048        191.65544      462.88365    
     72800  -60529.578      414.4324      -60115.146      188.02465      191.63235      463.05339    
     72900  -60490.528      415.12848     -60075.4        188.00234      191.61013      463.22314    
     73000  -60443.732      411.22525     -60032.506      187.98029      191.58909      463.39288    
     73100  -60400.884      411.28149     -59989.602      187.95765      191.56657      463.56262    
     73200  -60369.019      421.31302     -59947.706      187.93692      191.54514      463.73236    
     73300  -60327.521      425.056       -59902.465      187.91493      191.52253      463.9021     
     73400  -60279.496      419.29281     -59860.203      187.89137      191.49935      464.07184    
     73500  -60238.276      422.28399     -59815.992      187.86871      191.47755      464.24158    
     73600  -60192.088      417.02156     -59775.066      187.84505      191.45437      464.41132    
     73700  -60157.254      425.1419      -59732.112      187.82175      191.43137      464.58106    
     73800  -60116.624      430.81543     -59685.809      187.79943      191.40921      464.7508     
     73900  -60070.47       423.70655     -59646.764      187.77546      191.38458      464.92055    
     74000  -60027.517      424.97785     -59602.539      187.75293      191.36201      465.09029    
     74100  -59983.981      422.99248     -59560.988      187.72941      191.33863      465.26003    
     74200  -59940.063      422.16802     -59517.895      187.70469      191.31367      465.42977    
     74300  -59903.138      430.37132     -59472.767      187.68163      191.29014      465.59951    
     74400  -59860.422      433.76348     -59426.658      187.6582       191.26524      465.76925    
     74500  -59814.217      436.13865     -59378.079      187.63461      191.24036      465.93899    
     74600  -59762.223      434.81014     -59327.413      187.6114       191.21631      466.10873    
     74700  -59720.152      440.62314     -59279.529      187.58708      191.19076      466.27847    
     74800  -59673.337      438.56535     -59234.772      187.56343      191.16493      466.44821    
     74900  -59634.683      442.21961     -59192.464      187.54074      191.13899      466.61796    
     75000  -59587.096      440.62531     -59146.47       187.51709      191.11198      466.7877     
     75100  -59546.757      441.8989      -59104.858      187.49413      191.08563      466.95744    
     75200  -59504.36       447.55598     -59056.804      187.47205      191.05969      467.12718    
     75300  -59454.067      447.45334     -59006.613      187.44914      191.03251      467.29692    
     75400  -59406.896      447.28142     -58959.615      187.42663      191.00636      467.46666    
     75500  -59352.712      445.40215     -58907.31       187.40386      190.97957      467.6364     
     75600  -59305.146      445.96134     -58859.184      187.38119      190.95254      467.80614    
     75700  -59267.058      449.62674     -58817.431      187.35807      190.92539      467.97588    
     75800  -59222.174      453.17709     -58768.997      187.33353      190.89746      468.14562    
     75900  -59177.008      460.45457     -58716.553      187.30949      190.8706       468.31537    
     76000  -59122.422      450.24717     -58672.175      187.28491      190.84346      468.48511    
     76100  -59083.194      457.86177     -58625.333      187.26031      190.81569      468.65485    
     76200  -59028.162      456.06408     -58572.098      187.23686      190.78818      468.82459    
     76300  -58984.534      463.65368     -58520.88       187.21354      190.76039      468.99433    
     76400  -58935.842      462.54965     -58473.293      187.19012      190.7325       469.16407    
     76500  -58883.27       465.4949      -58417.775      187.16686      190.70479      469.33381    
     76600  -58855.936      487.7111      -58368.225      187.14333      190.6772       469.50355    
     76700  -58880.242      555.37975     -58324.862      187.11944      190.64942      469.67329    
     76800  -59264.186      884.40609     -58379.78       187.09635      190.62285      469.84303    
     76900  -59945.581      1271.4097     -58674.171      187.07729      190.60222      470.01278    
     77000  -60984.67       1660.3074     -59324.363      187.06236      190.58604      470.18252    
     77100  -62324.853      2062.8754     -60261.977      187.06653      190.58621      470.35226    
     77200  -63619.365      1879.5345     -61739.83       187.09425      190.60893      470.522      
     77300  -64718.186      1638.7896     -63079.397      187.11964      190.63394      470.69174    
     77400  -65670.553      1432.7942     -64237.759      187.1415       190.66012      470.86148    
     77500  -66511.779      1278.6939     -65233.085      187.17058      190.69494      471.03122    
     77600  -67246.964      1150.4176     -66096.547      187.19726      190.7314       471.20096    
     77700  -67888.575      1040.5378     -66848.038      187.22465      190.77449      471.3707     
     77800  -68461.151      954.83874     -67506.312      187.25438      190.82291      471.54044    
     77900  -68976.174      885.9077      -68090.267      187.28125      190.86734      471.71018    
     78000  -69452.778      834.21371     -68618.564      187.30742      190.91022      471.87993    
     78100  -69899.328      795.33827     -69103.99       187.33433      190.95349      472.04967    
     78200  -70323.65       765.5483      -69558.102      187.36083      190.99639      472.21941    
     78300  -70726.353      739.40598     -69986.947      187.38543      191.03846      472.38915    
     78400  -71107.573      714.53216     -70393.041      187.40937      191.07895      472.55889    
     78500  -71470.228      692.62187     -70777.606      187.43414      191.11927      472.72863    
     78600  -71816.783      673.82016     -71142.963      187.45928      191.15869      472.89837    
     78700  -72151.542      658.25638     -71493.285      187.4843       191.19537      473.06811    
     78800  -72473.524      643.72889     -71829.795      187.51076      191.23166      473.23785    
     78900  -72785.318      631.19953     -72154.118      187.53849      191.26741      473.40759    
     79000  -73090.415      622.06859     -72468.346      187.56617      191.30155      473.57734    
     79100  -73387.806      612.64484     -72775.161      187.59336      191.33482      473.74708    
     79200  -73650.731      584.72466     -73066.006      187.62078      191.36847      473.91682    
     79300  -73881.908      553.58669     -73328.322      187.6495       191.40378      474.08656    
     79400  -74086.714      525.01368     -73561.701      187.67811      191.43891      474.2563     
     79500  -74266.565      498.27394     -73768.291      187.70686      191.47429      474.42604    
     79600  -74422.343      473.43391     -73948.909      187.73648      191.51068      474.59578    
     79700  -74552.194      448.45178     -74103.742      187.76621      191.54711      474.76552    
     79800  -74659.203      426.87337     -74232.329      187.79676      191.58542      474.93526    
     79900  -74743.46       408.32924     -74335.13       187.82855      191.62628      475.105      
     80000  -74803.492      392.97188     -74410.52       187.86106      191.66935      475.27475    
     80100  -74839.634      384.28774     -74455.346      187.89489      191.71524      475.44449    
     80200  -74853.774      386.72961     -74467.044      187.92799      191.76057      475.61423    
     80300  -74844.899      393.41257     -74451.487      187.96073      191.80552      475.78397    
     80400  -74818.119      398.04215     -74420.076      187.99328      191.84996      475.95371    
     80500  -74759.559      379.9699      -74379.589      188.02246      191.89047      476.12345    
     80600  -74680.886      367.01346     -74313.872      188.05166      191.93175      476.29319    
     80700  -74582.672      358.14019     -74224.531      188.07767      191.9702       476.46293    
     80800  -74496.457      371.33022     -74125.127      188.10022      192.00317      476.63267    
     80900  -74421.32       390.93742     -74030.382      188.11654      192.02755      476.80241    
     81000  -74395.9        440.72624     -73955.174      188.13285      192.04365      476.97216    
     81100  -74415.332      454.60003     -73960.732      188.16217      192.06111      477.1419     
     81200  -74427.261      388.37119     -74038.89       188.19032      192.06984      477.31164    
     81300  -74457.648      377.28055     -74080.367      188.22855      192.08316      477.48138    
     81400  -74458.394      380.4461      -74077.948      188.26495      192.09158      477.65112    
     81500  -74426.678      392.11836     -74034.56       188.30398      192.10035      477.82086    
     81600  -74403.854      428.86753     -73974.987      188.34248      192.11982      477.9906     
     81700  -74397.81       428.67767     -73969.133      188.37176      192.14549      478.16034    
     81800  -74417.059      401.78371     -74015.275      188.40399      192.17247      478.33008    
     81900  -74416.583      365.88965     -74050.694      188.44293      192.20693      478.49982    
     82000  -74413.808      384.72941     -74029.078      188.47905      192.24328      478.66957    
     82100  -74411.825      427.95511     -73983.87       188.50549      192.27543      478.83931    
     82200  -74408.838      423.51549     -73985.322      188.52698      192.30167      479.00905    
     82300  -74429.295      405.67314     -74023.622      188.55231      192.33631      479.17879    
     82400  -74437.306      380.0042      -74057.302      188.59045      192.3878       479.34853    
     82500  -74443.197      385.00636     -74058.19       188.61899      192.42922      479.51827    
     82600  -74431.002      402.03494     -74028.967      188.64488      192.46909      479.68801    
     82700  -74433.819      429.01674     -74004.803      188.67072      192.50637      479.85775    
     82800  -74429.892      407.74542     -74022.146      188.7043       192.54411      480.02749    
     82900  -74441.906      384.28354     -74057.622      188.73648      192.57866      480.19723    
     83000  -74464.597      395.61984     -74068.977      188.77308      192.60821      480.36697    
     83100  -74472.247      405.98881     -74066.258      188.80536      192.63051      480.53672    
     83200  -74475.398      406.35802     -74069.04       188.83639      192.65037      480.70646    
     83300  -74487.579      404.54504     -74083.034      188.8798       192.67064      480.8762     
     83400  -74499.763      396.90695     -74102.856      188.91878      192.68572      481.04594    
     83500  -74513.725      397.72644     -74115.998      188.95945      192.70654      481.21568    
     83600  -74515.889      396.37013     -74119.519      189.00208      192.73349      481.38542    
     83700  -74522.439      405.10575     -74117.333      189.03781      192.75521      481.55516    
     83800  -74530.294      407.63621     -74122.658      189.07441      192.77983      481.7249     
     83900  -74538.021      404.30295     -74133.718      189.11527      192.80012      481.89464    
     84000  -74546.006      396.457       -74149.549      189.15164      192.81627      482.06438    
     84100  -74560.106      397.58051     -74162.526      189.18944      192.83718      482.23413    
     84200  -74571.279      405.64161     -74165.638      189.21723      192.86455      482.40387    
     84300  -74575.873      406.32344     -74169.55       189.23517      192.89621      482.57361    
     84400  -74576.823      397.5926      -74179.23       189.24994      192.93319      482.74335    
     84500  -74593.941      408.40963     -74185.532      189.26649      192.96604      482.91309    
     84600  -74607.241      403.09172     -74204.15       189.28481      192.99712      483.08283    
     84700  -74614.21       392.4959      -74221.714      189.30188      193.02214      483.25257    
     84800  -74618.113      395.19214     -74222.921      189.32998      193.05299      483.42231    
     84900  -74609.534      395.57018     -74213.963      189.34908      193.08594      483.59205    
     85000  -74601.831      404.34604     -74197.485      189.36339      193.1186       483.76179    
     85100  -74583.519      399.56304     -74183.956      189.37827      193.14609      483.93154    
     85200  -74568.917      397.33275     -74171.585      189.39165      193.16672      484.10128    
     85300  -74559.445      408.19414     -74151.251      189.4117       193.19446      484.27102    
     85400  -74548.721      411.63911     -74137.082      189.43241      193.22014      484.44076    
     85500  -74540.499      402.24202     -74138.257      189.45521      193.24192      484.6105     
     85600  -74545.778      403.2383      -74142.539      189.48388      193.26155      484.78024    
     85700  -74551.158      403.01196     -74148.146      189.50684      193.27561      484.94998    
     85800  -74554.327      397.97313     -74156.354      189.53108      193.29609      485.11972    
     85900  -74554.308      395.81279     -74158.495      189.5549       193.31496      485.28946    
     86000  -74559.185      404.2655      -74154.919      189.58362      193.33035      485.4592     
     86100  -74564.298      408.55408     -74155.744      189.62092      193.34936      485.62895    
     86200  -74577.122      408.88787     -74168.234      189.65493      193.35809      485.79869    
     86300  -74588.381      396.41684     -74191.964      189.69367      193.36812      485.96843    
     86400  -74599.683      391.05668     -74208.626      189.73461      193.38021      486.13817    
     86500  -74609.469      400.00408     -74209.465      189.77198      193.39461      486.30791    
     86600  -74602.575      400.98979     -74201.586      189.80877      193.40964      486.47765    
     86700  -74590.299      397.2281      -74193.071      189.84242      193.42496      486.64739    
     86800  -74576.274      398.42573     -74177.848      189.87832      193.445        486.81713    
     86900  -74556.395      401.7777      -74154.618      189.90994      193.46326      486.98687    
     87000  -74534.802      402.86964     -74131.933      189.94182      193.48254      487.15661    
     87100  -74528.023      411.51106     -74116.512      189.97257      193.50045      487.32636    
     87200  -74514.147      401.02761     -74113.119      189.99417      193.51686      487.4961     
     87300  -74515.248      401.36758     -74113.88       190.01652      193.53637      487.66584    
     87400  -74508.476      397.62929     -74110.847      190.04166      193.55613      487.83558    
     87500  -74505.162      403.74082     -74101.421      190.06316      193.57         488.00532    
     87600  -74505.767      410.57847     -74095.188      190.0895       193.59203      488.17506    
     87700  -74512.074      408.81223     -74103.262      190.10595      193.60736      488.3448     
     87800  -74524.684      401.3088      -74123.376      190.12101      193.63106      488.51454    
     87900  -74542.102      394.62348     -74147.478      190.13427      193.65963      488.68428    
     88000  -74553.125      391.29372     -74161.831      190.14529      193.68533      488.85402    
     88100  -74553.795      395.04714     -74158.748      190.16235      193.71678      489.02376    
     88200  -74553.828      408.33889     -74145.489      190.17979      193.74282      489.19351    
     88300  -74547.886      407.78922     -74140.097      190.19603      193.76831      489.36325    
     88400  -74552.699      404.77356     -74147.925      190.21293      193.7971       489.53299    
     88500  -74556.496      395.39322     -74161.103      190.2334       193.82841      489.70273    
     88600  -74558.247      392.75278     -74165.494      190.24939      193.8578       489.87247    
     88700  -74553.926      399.3156      -74154.611      190.26511      193.88738      490.04221    
     88800  -74549.401      411.1309      -74138.27       190.27791      193.9173       490.21195    
     88900  -74544.486      407.31056     -74137.176      190.29187      193.95108      490.38169    
     89000  -74553.593      403.3752      -74150.218      190.3038       193.97942      490.55143    
     89100  -74550.102      388.28814     -74161.814      190.31974      194.00889      490.72117    
     89200  -74553.053      398.25993     -74154.794      190.33746      194.04021      490.89092    
     89300  -74553.536      410.9283      -74142.608      190.35697      194.06993      491.06066    
     89400  -74557.531      409.98006     -74147.551      190.37705      194.10061      491.2304     
     89500  -74561.446      396.21702     -74165.229      190.39884      194.12875      491.40014    
     89600  -74567.041      391.23242     -74175.809      190.42207      194.15393      491.56988    
     89700  -74570.031      399.74721     -74170.284      190.44451      194.17659      491.73962    
     89800  -74562.644      403.99406     -74158.65       190.46776      194.18968      491.90936    
     89900  -74556.245      403.5937      -74152.652      190.50051      194.20456      492.0791     
     90000  -74560.556      402.11573     -74158.44       190.53491      194.2147       492.24884    
     90100  -74568.149      397.25243     -74170.897      190.57096      194.2214       492.41858    
     90200  -74570.872      394.47976     -74176.393      190.60603      194.23151      492.58833    
     90300  -74565.671      394.88943     -74170.781      190.64085      194.23722      492.75807    
     90400  -74559.336      404.64062     -74154.695      190.67756      194.24529      492.92781    
     90500  -74549.038      408.00842     -74141.029      190.71662      194.25788      493.09755    
     90600  -74544.053      403.50943     -74140.543      190.75254      194.26051      493.26729    
     90700  -74540.969      393.29855     -74147.671      190.79267      194.26897      493.43703    
     90800  -74543.217      399.55449     -74143.663      190.8253       194.27441      493.60677    
     90900  -74535.089      402.09586     -74132.993      190.85639      194.27994      493.77651    
     91000  -74532.862      405.06409     -74127.798      190.89134      194.29255      493.94625    
     91100  -74543.661      406.7681      -74136.893      190.92304      194.30854      494.11599    
     91200  -74558.612      401.67795     -74156.934      190.95774      194.32589      494.28574    
     91300  -74562.966      393.74651     -74169.219      190.98845      194.34017      494.45548    
     91400  -74565.203      400.91245     -74164.29       191.02555      194.35561      494.62522    
     91500  -74558.805      405.4637      -74153.341      191.06458      194.36811      494.79496    
     91600  -74563.382      410.59643     -74152.785      191.09666      194.37693      494.9647     
     91700  -74570.144      404.42166     -74165.722      191.13174      194.39043      495.13444    
     91800  -74572.612      392.2224      -74180.389      191.16014      194.39864      495.30418    
     91900  -74574.475      393.55002     -74180.925      191.19427      194.41026      495.47392    
     92000  -74569.843      401.43902     -74168.404      191.22941      194.42457      495.64366    
     92100  -74559.327      406.38951     -74152.938      191.2574       194.43464      495.8134     
     92200  -74556.144      410.02955     -74146.114      191.29382      194.45104      495.98315    
     92300  -74552.618      398.83814     -74153.78       191.32681      194.46434      496.15289    
     92400  -74551.504      389.91017     -74161.594      191.35236      194.47566      496.32263    
     92500  -74544.587      392.45107     -74152.136      191.38245      194.49051      496.49237    
     92600  -74541.609      410.98358     -74130.625      191.40835      194.50303      496.66211    
     92700  -74535.487      414.03324     -74121.454      191.44214      194.52081      496.83185    
     92800  -74543.753      407.39837     -74136.355      191.47271      194.53723      497.00159    
     92900  -74559.874      396.81588     -74163.058      191.49487      194.54639      497.17133    
     93000  -74569.278      390.48932     -74178.789      191.52399      194.56159      497.34107    
     93100  -74575.862      401.13393     -74174.728      191.551        194.57497      497.51081    
     93200  -74570.974      405.68188     -74165.292      191.57507      194.58385      497.68055    
     93300  -74569.277      404.74819     -74164.529      191.60343      194.59767      497.8503     
     93400  -74574.496      402.21227     -74172.284      191.62908      194.60523      498.02004    
     93500  -74584.629      402.986       -74181.643      191.6579       194.61804      498.18978    
     93600  -74580.48       397.2261      -74183.254      191.68357      194.63261      498.35952    
     93700  -74574.997      403.00658     -74171.99       191.70132      194.64408      498.52926    
     93800  -74562.302      402.57424     -74159.728      191.72596      194.66514      498.699      
     93900  -74559.969      404.51028     -74155.458      191.74085      194.68187      498.86874    
     94000  -74550.462      393.39065     -74157.071      191.75818      194.69748      499.03848    
     94100  -74550.124      398.37792     -74151.746      191.77659      194.71364      499.20822    
     94200  -74538.599      401.85085     -74136.748      191.79541      194.73007      499.37796    
     94300  -74533.917      408.01229     -74125.904      191.81711      194.74895      499.54771    
     94400  -74535.173      409.18712     -74125.986      191.83701      194.76666      499.71745    
     94500  -74540.16       401.50389     -74138.656      191.85973      194.78618      499.88719    
     94600  -74549.975      394.42697     -74155.548      191.88068      194.80242      500.05693    
     94700  -74557.47       396.47905     -74160.991      191.90409      194.82104      500.22667    
     94800  -74552.512      399.09482     -74153.417      191.93174      194.83892      500.39641    
     94900  -74549.459      407.4293      -74142.029      191.95732      194.85439      500.56615    
     95000  -74550.909      408.86018     -74142.049      191.98503      194.8729       500.73589    
     95100  -74558.52       404.56705     -74153.953      192.01154      194.89013      500.90563    
     95200  -74564.911      395.76429     -74169.147      192.0328       194.90387      501.07537    
     95300  -74564.538      392.70831     -74171.829      192.06071      194.91986      501.24512    
     95400  -74554.204      398.7175      -74155.487      192.08908      194.93495      501.41486    
     95500  -74542.536      409.24603     -74133.29       192.11779      194.95018      501.5846     
     95600  -74537.122      412.58362     -74124.538      192.14704      194.96612      501.75434    
     95700  -74539.457      403.30884     -74136.148      192.17129      194.97822      501.92408    
     95800  -74551.642      399.59849     -74152.044      192.20017      194.99132      502.09382    
     95900  -74551.467      393.87663     -74157.59       192.22995      195.00611      502.26356    
     96000  -74543.852      396.94166     -74146.91       192.25749      195.02244      502.4333     
     96100  -74537.629      406.50987     -74131.12       192.28443      195.04051      502.60304    
     96200  -74539.356      410.68295     -74128.673      192.30813      195.05755      502.77278    
     96300  -74545.777      404.80583     -74140.972      192.33525      195.07372      502.94253    
     96400  -74558.875      400.07677     -74158.798      192.36644      195.09057      503.11227    
     96500  -74561.693      392.62771     -74169.066      192.39728      195.1061       503.28201    
     96600  -74566.11       401.63046     -74164.48       192.42732      195.11854      503.45175    
     96700  -74561.862      408.39066     -74153.472      192.45829      195.13099      503.62149    
     96800  -74553.563      406.11222     -74147.451      192.48604      195.14116      503.79123    
     96900  -74554.471      402.78181     -74151.69       192.51597      195.15307      503.96097    
     97000  -74560.754      396.86341     -74163.891      192.54065      195.16017      504.13071    
     97100  -74562.497      392.6189      -74169.879      192.56712      195.16809      504.30045    
     97200  -74558.73       394.95569     -74163.774      192.59568      195.1801       504.47019    
     97300  -74552.749      403.17554     -74149.574      192.62069      195.19136      504.63994    
     97400  -74545.055      406.12907     -74138.925      192.64513      195.20383      504.80968    
     97500  -74543.692      402.46347     -74141.229      192.66845      195.21596      504.97942    
     97600  -74548.507      397.97201     -74150.535      192.69046      195.22937      505.14916    
     97700  -74551.167      395.79358     -74155.373      192.71603      195.24452      505.3189     
     97800  -74554.818      403.26872     -74151.549      192.73795      195.26079      505.48864    
     97900  -74548.423      402.72767     -74145.696      192.75889      195.27852      505.65838    
     98000  -74549.035      405.80396     -74143.231      192.77966      195.2972       505.82812    
     98100  -74554.332      405.86155     -74148.471      192.80153      195.32025      505.99786    
     98200  -74556.677      399.90791     -74156.769      192.8226       195.3418       506.1676     
     98300  -74559.47       399.61546     -74159.855      192.83967      195.36043      506.33734    
     98400  -74559.349      399.99021     -74159.359      192.8599       195.38232      506.50709    
     98500  -74558.562      401.92537     -74156.636      192.87366      195.40142      506.67683    
     98600  -74561.725      404.94618     -74156.779      192.88846      195.42266      506.84657    
     98700  -74563.244      401.84097     -74161.403      192.90595      195.4483       507.01631    
     98800  -74560.206      395.1344      -74165.071      192.91741      195.46979      507.18605    
     98900  -74557.907      394.95735     -74162.949      192.93629      195.49422      507.35579    
     99000  -74553.79       399.49955     -74154.29       192.95064      195.51478      507.52553    
     99100  -74551.442      404.91839     -74146.524      192.96292      195.53462      507.69527    
     99200  -74553.694      406.11317     -74147.581      192.97818      195.55728      507.86501    
     99300  -74551.31       397.16908     -74154.141      192.9876       195.57873      508.03475    
     99400  -74556.462      399.33602     -74157.126      192.99817      195.60021      508.2045     
     99500  -74553.839      398.61894     -74155.22       193.01194      195.62105      508.37424    
     99600  -74554.874      405.9437      -74148.931      193.02642      195.64173      508.54398    
     99700  -74549.821      404.4916      -74145.33       193.0412       195.6637       508.71372    
     99800  -74555.759      406.35536     -74149.404      193.05311      195.68436      508.88346    
     99900  -74553.127      397.10307     -74156.024      193.06571      195.70663      509.0532     
    100000  -74553.324      396.42117     -74156.903      193.07651      195.72927      509.22294    
Loop time of 2807.45 on 10 procs for 100000 steps with 10360 atoms

Performance: 3.078 ns/day, 7.798 hours/ns, 35.619 timesteps/s, 369.018 katom-step/s
88.7% CPU use with 10 MPI tasks x 1 OpenMP threads

MPI task timing breakdown:
Section |  min time  |  avg time  |  max time  |%varavg| %total
---------------------------------------------------------------
Pair    | 1574.1     | 1810.8     | 2103.6     | 378.5 | 64.50
Neigh   | 7.3012     | 12.51      | 15.442     |  74.9 |  0.45
Comm    | 92.835     | 621.75     | 1030       |1122.6 | 22.15
Output  | 0.80688    | 0.8581     | 0.9055     |   3.3 |  0.03
Modify  | 122.46     | 357.77     | 703.35     |1039.8 | 12.74
Other   |            | 3.801      |            |       |  0.14

Nlocal:           1036 ave        1939 max         235 min
Histogram: 2 0 1 1 1 1 2 1 0 1
Nghost:         1485.8 ave        2600 max         225 min
Histogram: 2 0 0 1 1 1 1 3 0 1
Neighs:              0 ave           0 max           0 min
Histogram: 10 0 0 0 0 0 0 0 0 0

Total # of neighbors = 0
Ave neighs/atom = 0
Neighbor list builds = 758
Dangerous builds = 0
Total wall time: 0:46:47
