LAMMPS (2 Aug 2023 - Update 3)
OMP_NUM_THREADS environment is not set. Defaulting to 1 thread. (src/comm.cpp:98)
  using 1 OpenMP thread(s) per MPI task

# 1------general---------------
units                             metal      #单位为lammps 中的metel 类型
dimension                    3          #模拟的维度 三维
boundary                    p p p      #周期边界条件
atom_style                  atomic   #原子类型自动
atom_modify              map array sort 100 2.0
neighbor                    3.0 bin
neigh_modify            every 1 delay 0 check yes
#2 -----global variable-------定义全局变量，方便统一修改；
variable temperature equal 300
variable tstep equal 0.001
variable pressure equal 0
variable thermalstep equal 100
variable dumpstep equal 1000
variable relaxtime equal 0
variable totaltime equal 100000
variable deformrate equal 5e-3
#3 -------model------------
#box tilt large
read_data     1.lmp
Reading data file ...
  orthogonal box = (-100 -100 -2.1416495) to (100 100 39.081159)
  4 by 3 by 1 MPI processor grid
  reading atoms ...
  1620 atoms
  read_data CPU = 0.580 seconds
group SR type 2 3
600 atoms in group SR
delete_atoms group SR
Deleted 600 atoms, new total = 1020
replicate 1 1 3
Replication is creating a 1x1x3 = 3 times larger system...
  orthogonal box = (-100 -100 -2.1416495) to (100 100 121.52678)
  2 by 3 by 2 MPI processor grid
  3060 atoms
  replicate CPU = 0.524 seconds
write_data h.data
System init for write_data ...
WARNING: Communication cutoff is 0.0. No ghost atoms will be generated. Atoms may get lost. (src/comm_brick.cpp:210)
pair_style hybrid airebo 3.0 airebo 3.0 airebo 3.0 lj/cut 10
pair_coeff * * airebo 1 CH.airebo C NULL NULL
Reading airebo potential file CH.airebo with DATE: 2011-10-25
pair_coeff * * airebo 2 CH.airebo NULL C NULL
Reading airebo potential file CH.airebo with DATE: 2011-10-25
pair_coeff * * airebo 3 CH.airebo NULL NULL C
Reading airebo potential file CH.airebo with DATE: 2011-10-25
pair_coeff 1 2 lj/cut 0.00456 3.431
pair_coeff 1 3 lj/cut 0.00456 3.431
pair_coeff 2 3 lj/cut 0.00456 3.431

# 5------minimize -----------
min_style      sd
minimize       1.0e-4 1.0e-6 100 1000
Neighbor list info ...
  update: every = 1 steps, delay = 0 steps, check = yes
  max neighbors/atom: 2000, page size: 100000
  master list distance cutoff = 13.2
  ghost atom cutoff = 13.2
  binsize = 6.6, bins = 31 31 19
  6 neighbor lists, perpetual/occasional/extra = 6 0 0
  (1) pair airebo, perpetual, skip from (5)
      attributes: full, newton on, ghost
      pair build: skip/ghost
      stencil: none
      bin: none
  (2) pair airebo, perpetual, skip from (5)
      attributes: full, newton on, ghost
      pair build: skip/ghost
      stencil: none
      bin: none
  (3) pair airebo, perpetual, skip from (5)
      attributes: full, newton on, ghost
      pair build: skip/ghost
      stencil: none
      bin: none
  (4) pair lj/cut, perpetual, skip from (6)
      attributes: half, newton on, cut 13
      pair build: skip
      stencil: none
      bin: none
  (5) neighbor class addition, perpetual
      attributes: full, newton on, ghost
      pair build: full/bin/ghost
      stencil: full/ghost/bin/3d
      bin: standard
  (6) neighbor class addition, perpetual
      attributes: half, newton on, cut 13
      pair build: half/bin/atomonly/newton
      stencil: half/bin/3d
      bin: standard
Per MPI rank memory allocation (min/avg/max) = 9.726 | 10.32 | 11.51 Mbytes
   Step          Temp          E_pair         E_mol          TotEng         Press     
         0   0             -22687.871      0             -22687.871     -58.353665    
         1   0             -22687.896      0             -22687.896     -58.244675    
Loop time of 0.932998 on 12 procs for 1 steps with 3060 atoms

35.5% CPU use with 12 MPI tasks x 1 OpenMP threads

Minimization stats:
  Stopping criterion = energy tolerance
  Energy initial, next-to-last, final = 
     -22687.8708802909  -22687.8708802909  -22687.8964679689
  Force two-norm initial, final = 2.557101 0.49903543
  Force max component initial, final = 0.046231127 0.0090219153
  Final line search alpha, max atom move = 1 0.0090219153
  Iterations, force evaluations = 1 2

MPI task timing breakdown:
Section |  min time  |  avg time  |  max time  |%varavg| %total
---------------------------------------------------------------
Pair    | 1.4236e-05 | 0.025135   | 0.08413    |  22.5 |  2.69
Neigh   | 0          | 0          | 0          |   0.0 |  0.00
Comm    | 4.671e-06  | 0.039946   | 0.16278    |  30.4 |  4.28
Output  | 0          | 0          | 0          |   0.0 |  0.00
Modify  | 0          | 0          | 0          |   0.0 |  0.00
Other   |            | 0.8679     |            |       | 93.02

Nlocal:            255 ave         765 max           0 min
Histogram: 8 0 0 0 0 0 0 0 0 4
Nghost:            475 ave        1425 max           0 min
Histogram: 8 0 0 0 0 0 0 0 0 4
Neighs:              0 ave           0 max           0 min
Histogram: 12 0 0 0 0 0 0 0 0 0

Total # of neighbors = 0
Ave neighs/atom = 0
Neighbor list builds = 0
Dangerous builds = 0
#6----define computes------
variable nums equal count(all) #计算原子数目
variable toval equal 20.535*20.0413*lz #计算系统总体积，单层石墨烯厚度为0.335nm
variable vol equal ${toval} #体系的初始体积
variable vol equal 50895.5056053308 
variable vatom equal v_vol/v_nums #单个原子体积
compute 1 all stress/atom NULL #计算体系中单原子应力
compute xalls all reduce sum c_1[1]
variable xstress equal (c_xalls)/(v_toval*10000)
compute yalls all reduce sum c_1[2]
variable ystress equal (c_yalls)/(v_toval*10000)
compute zalls all reduce sum c_1[3]
variable zstress equal (c_zalls)/(v_toval*10000)
#7---------relaxation-------------------------
timestep ${tstep}
timestep 0.001
velocity all create ${temperature} 231743 units box dist gaussian
velocity all create 300 231743 units box dist gaussian
dump   1 all atom 100 all-cy.lammpstrj
#fix    1 all npt temp 300 300  0.1 aniso 0 0 10 drag 1  #三个方向独立控压
fix  1 all npt temp ${temperature} ${temperature} 0.1 x ${pressure} ${pressure} 10 y ${pressure} ${pressure} 10
fix  1 all npt temp 300 ${temperature} 0.1 x ${pressure} ${pressure} 10 y ${pressure} ${pressure} 10
fix  1 all npt temp 300 300 0.1 x ${pressure} ${pressure} 10 y ${pressure} ${pressure} 10
fix  1 all npt temp 300 300 0.1 x 0 ${pressure} 10 y ${pressure} ${pressure} 10
fix  1 all npt temp 300 300 0.1 x 0 0 10 y ${pressure} ${pressure} 10
fix  1 all npt temp 300 300 0.1 x 0 0 10 y 0 ${pressure} 10
fix  1 all npt temp 300 300 0.1 x 0 0 10 y 0 0 10
compute  2 all pe/atom
compute  pe all reduce sum c_2
variable PE equal "c_pe"
fix    pe all print 100 "${PE} " file PE.txt screen no
thermo  ${thermalstep}
thermo  100
#thermo_style  custom step pe ke etotal lx ly lz
run   ${relaxtime}
run   0
Per MPI rank memory allocation (min/avg/max) = 10.35 | 10.95 | 12.14 Mbytes
   Step          Temp          E_pair         E_mol          TotEng         Press          Volume    
         1   300           -22687.896      0             -22569.274     -32.631369      4946737.1    
Loop time of 0.052663 on 12 procs for 0 steps with 3060 atoms

28.5% CPU use with 12 MPI tasks x 1 OpenMP threads

MPI task timing breakdown:
Section |  min time  |  avg time  |  max time  |%varavg| %total
---------------------------------------------------------------
Pair    | 0          | 0          | 0          |   0.0 |  0.00
Neigh   | 0          | 0          | 0          |   0.0 |  0.00
Comm    | 0          | 0          | 0          |   0.0 |  0.00
Output  | 0          | 0          | 0          |   0.0 |  0.00
Modify  | 0          | 0          | 0          |   0.0 |  0.00
Other   |            | 0.05266    |            |       |100.00

Nlocal:            255 ave         765 max           0 min
Histogram: 8 0 0 0 0 0 0 0 0 4
Nghost:            475 ave        1425 max           0 min
Histogram: 8 0 0 0 0 0 0 0 0 4
Neighs:              0 ave           0 max           0 min
Histogram: 12 0 0 0 0 0 0 0 0 0

Total # of neighbors = 0
Ave neighs/atom = 0
Neighbor list builds = 0
Dangerous builds = 0
#8 -------tension-----------------------------
unfix  1
undump  1
unfix  pe
reset_timestep 0
fix avestress all ave/atom 1 ${dumpstep} ${dumpstep} c_1[1] c_1[2] c_1[3] c_1[4] c_1[5] c_1[6]
fix avestress all ave/atom 1 1000 ${dumpstep} c_1[1] c_1[2] c_1[3] c_1[4] c_1[5] c_1[6]
fix avestress all ave/atom 1 1000 1000 c_1[1] c_1[2] c_1[3] c_1[4] c_1[5] c_1[6]

#-----calculation of strain and Cumulative compression--------
variable                tmp equal "lz"
variable                L0 equal ${tmp}
variable                L0 equal 123.668427
variable                strain equal "(lz - v_L0)/v_L0"
variable                Cumulativels equal "(lz - v_L0)/10"
fix Step all print 100 "${strain} ${Cumulativels} ${zstress}" file grapoten.txt screen no

dump 2 all custom ${dumpstep} tension.xyz type x y z f_avestress[1] f_avestress[2] f_avestress[3] f_avestress[4] f_avestress[5] f_avestress[6]
dump 2 all custom 1000 tension.xyz type x y z f_avestress[1] f_avestress[2] f_avestress[3] f_avestress[4] f_avestress[5] f_avestress[6]

fix  1 all npt temp ${temperature} ${temperature} 0.1 y ${pressure} ${pressure} 10 x ${pressure} ${pressure} 10
fix  1 all npt temp 300 ${temperature} 0.1 y ${pressure} ${pressure} 10 x ${pressure} ${pressure} 10
fix  1 all npt temp 300 300 0.1 y ${pressure} ${pressure} 10 x ${pressure} ${pressure} 10
fix  1 all npt temp 300 300 0.1 y 0 ${pressure} 10 x ${pressure} ${pressure} 10
fix  1 all npt temp 300 300 0.1 y 0 0 10 x ${pressure} ${pressure} 10
fix  1 all npt temp 300 300 0.1 y 0 0 10 x 0 ${pressure} 10
fix  1 all npt temp 300 300 0.1 y 0 0 10 x 0 0 10

thermo_style custom step pe ke etotal lx ly lz
fix   2 all deform 1 z erate ${deformrate} remap x units box
fix   2 all deform 1 z erate 0.005 remap x units box
fix   3 all ave/time 2 500 1000 v_xstress v_ystress v_zstress file pressure.out
run   ${totaltime}
run   100000
WARNING: Dump 2 includes no atom IDs and is not sorted by ID. This may complicate post-processing tasks or visualization (src/dump.cpp:221)
Per MPI rank memory allocation (min/avg/max) = 11.85 | 12.45 | 13.64 Mbytes
   Step         PotEng         KinEng         TotEng           Lx             Ly             Lz      
         0  -22687.896      118.62204     -22569.274      200            200            123.66843    
       100  -22617.554      58.817308     -22558.737      199.99398      199.98837      123.73026    
       200  -22617.838      74.274898     -22543.563      199.98861      199.97946      123.7921     
       300  -22605.941      80.603044     -22525.338      199.99933      199.98585      123.85393    
       400  -22598.803      93.320083     -22505.482      199.99311      199.97319      123.91576    
       500  -22585.952      100.6994      -22485.252      199.98881      199.96252      123.9776     
       600  -22578.644      112.58298     -22466.061      199.9991       199.96818      124.03943    
       700  -22570.317      120.12451     -22450.193      199.99223      199.95529      124.10127    
       800  -22564.191      123.31828     -22440.873      199.98707      199.94253      124.1631     
       900  -22566.212      124.28994     -22441.922      199.99799      199.94784      124.22493    
      1000  -22567.742      117.54082     -22450.201      199.99105      199.93509      124.28677    
      1100  -22570.841      114.34449     -22456.496      199.98452      199.92119      124.3486     
      1200  -22572.715      116.8363      -22455.879      199.99485      199.92334      124.41044    
      1300  -22569.019      119.90827     -22449.111      199.98776      199.90911      124.47227    
      1400  -22564.038      121.87252     -22442.166      199.98284      199.89626      124.53411    
      1500  -22562.242      121.6209      -22440.621      199.99273      199.89683      124.59594    
      1600  -22563.819      119.21468     -22444.604      199.98788      199.88214      124.65777    
      1700  -22565.249      115.58441     -22449.664      199.98214      199.86758      124.71961    
      1800  -22566.104      115.58687     -22450.517      199.98964      199.86537      124.78144    
      1900  -22563.049      117.33685     -22445.712      199.98578      199.85001      124.84328    
      2000  -22561.001      121.2159      -22439.785      199.98236      199.83645      124.90511    
      2100  -22557.206      119.63091     -22437.575      199.98811      199.83264      124.96695    
      2200  -22558.559      119.00922     -22439.55       199.98205      199.81499      125.02878    
      2300  -22562.832      119.40619     -22443.426      199.98094      199.80227      125.09061    
      2400  -22559.015      114.66341     -22444.352      199.98488      199.79565      125.15245    
      2500  -22559.309      118.6543      -22440.655      199.97937      199.77887      125.21428    
      2600  -22556.637      121.37118     -22435.266      199.97949      199.76515      125.27612    
      2700  -22549.437      117.54279     -22431.894      199.98277      199.75576      125.33795    
      2800  -22552.906      121.11196     -22431.794      199.97606      199.73783      125.39978    
      2900  -22554.746      119.80837     -22434.938      199.97685      199.7269       125.46162    
      3000  -22550.52       113.73459     -22436.786      199.97755      199.71495      125.52345    
      3100  -22552.267      117.27428     -22434.993      199.96941      199.69657      125.58529    
      3200  -22549.108      118.91666     -22430.191      199.96947      199.68588      125.64712    
      3300  -22547.753      122.00898     -22425.744      199.96936      199.67405      125.70896    
      3400  -22545.032      120.65202     -22424.38       199.96144      199.6553       125.77079    
      3500  -22543.334      117.30438     -22426.029      199.96062      199.64437      125.83262    
      3600  -22543.419      115.17811     -22428.241      199.95965      199.63317      125.89446    
      3700  -22545.552      118.71137     -22426.841      199.94875      199.61098      125.95629    
      3800  -22540.874      118.79675     -22422.077      199.94832      199.60042      126.01813    
      3900  -22538.75       121.72087     -22417.03       199.94895      199.59093      126.07996    
      4000  -22534.656      119.44022     -22415.216      199.93549      199.56645      126.1418     
      4100  -22536.201      119.68723     -22416.514      199.93176      199.55235      126.20363    
      4200  -22537.912      119.69041     -22418.221      199.93316      199.54319      126.26546    
      4300  -22535.117      117.72653     -22417.39       199.92151      199.51984      126.3273     
      4400  -22530.829      117.27882     -22413.55       199.91701      199.50491      126.38913    
      4500  -22528.273      119.41626     -22408.857      199.91832      199.49488      126.45097    
      4600  -22523.85       118.22474     -22405.625      199.90423      199.47064      126.5128     
      4700  -22524.449      119.34115     -22405.107      199.89838      199.45349      126.57464    
      4800  -22522.451      116.41812     -22406.033      199.90025      199.44451      126.63647    
      4900  -22523.207      116.90156     -22406.306      199.88716      199.42089      126.6983     
      5000  -22522.999      118.61312     -22404.386      199.87737      199.40079      126.76014    
      5100  -22517.457      117.73596     -22399.722      199.87758      199.39053      126.82197    
      5200  -22514.323      119.11076     -22395.213      199.86605      199.36814      126.88381    
      5300  -22513.802      120.01679     -22393.786      199.8561       199.34606      126.94564    
      5400  -22514.788      120.29261     -22394.495      199.85468      199.3337       127.00747    
      5500  -22510.196      115.51497     -22394.682      199.84283      199.31021      127.06931    
      5600  -22509.407      117.27655     -22392.131      199.83161      199.28599      127.13114    
      5700  -22506.681      119.23983     -22387.441      199.83096      199.27371      127.19298    
      5800  -22504.114      121.27949     -22382.834      199.8198       199.25019      127.25481    
      5900  -22501.005      120.30661     -22380.698      199.80558      199.22303      127.31665    
      6000  -22502.323      120.51258     -22381.81       199.80466      199.20808      127.37848    
      6100  -22499.192      117.77937     -22381.413      199.79379      199.18278      127.44031    
      6200  -22496.224      117.49834     -22378.725      199.77877      199.15402      127.50215    
      6300  -22492.617      119.95401     -22372.663      199.77825      199.13886      127.56398    
      6400  -22488.368      121.42252     -22366.946      199.76742      199.11336      127.62582    
      6500  -22487.635      120.849       -22366.786      199.75006      199.0816       127.68765    
      6600  -22486.604      119.16754     -22367.437      199.7471       199.06386      127.74949    
      6700  -22486.32       120.26098     -22366.059      199.73766      199.03806      127.81132    
      6800  -22480.396      117.21548     -22363.181      199.71967      199.0041       127.87315    
      6900  -22476.831      118.22691     -22358.604      199.71681      198.98575      127.93499    
      7000  -22475.163      122.88797     -22352.275      199.70602      198.95828      127.99682    
      7100  -22472.169      120.87304     -22351.296      199.68617      198.92158      128.05866    
      7200  -22472.785      120.485       -22352.3        199.68044      198.90026      128.12049    
      7300  -22470.65       120.05441     -22350.595      199.67221      198.87519      128.18232    
      7400  -22466.449      118.02792     -22348.421      199.65041      198.83756      128.24416    
      7500  -22463.224      117.70436     -22345.519      199.64123      198.81184      128.30599    
      7600  -22461.956      121.6615      -22340.295      199.63407      198.78736      128.36783    
      7700  -22455.198      120.23562     -22334.962      199.61166      198.74898      128.42966    
      7800  -22452.788      118.16462     -22334.623      199.60096      198.72103      128.4915     
      7900  -22452.816      117.87174     -22334.944      199.59136      198.69455      128.55333    
      8000  -22448.791      116.71814     -22332.073      199.56725      198.65399      128.61516    
      8100  -22446.245      117.57904     -22328.666      199.55552      198.62496      128.677      
      8200  -22440.574      115.92549     -22324.648      199.54612      198.59865      128.73883    
      8300  -22436.855      118.13548     -22318.72       199.51895      198.55532      128.80067    
      8400  -22436.373      121.49117     -22314.882      199.50451      198.52439      128.8625     
      8500  -22434.638      118.5891      -22316.049      199.49547      198.49928      128.92434    
      8600  -22435.435      120.64618     -22314.789      199.46736      198.45518      128.98617    
      8700  -22430.714      119.0386      -22311.676      199.4489       198.42103      129.048      
      8800  -22425.069      118.20039     -22306.868      199.43841      198.39338      129.10984    
      8900  -22419.284      119.36675     -22299.917      199.41067      198.34981      129.17167    
      9000  -22417.461      120.82338     -22296.638      199.38925      198.3122       129.23351    
      9100  -22416.859      117.76702     -22299.092      199.37651      198.28288      129.29534    
      9200  -22413.078      116.24078     -22296.838      199.34876      198.23882      129.35717    
      9300  -22411.579      118.89983     -22292.679      199.32468      198.19772      129.41901    
      9400  -22406.722      119.24022     -22287.482      199.31131      198.16688      129.48084    
      9500  -22402.552      120.89265     -22281.659      199.28269      198.12131      129.54268    
      9600  -22398.486      119.88806     -22278.598      199.2571       198.07757      129.60451    
      9700  -22395.435      115.05468     -22280.38       199.24195      198.04506      129.66635    
      9800  -22394.565      116.81705     -22277.748      199.21179      197.99699      129.72818    
      9900  -22393.63       121.27811     -22272.352      199.18346      197.94903      129.79001    
     10000  -22384.868      118.58791     -22266.28       199.16785      197.91502      129.85185    
     10100  -22380.298      118.6931      -22261.605      199.1384       197.86643      129.91368    
     10200  -22381.162      118.95901     -22262.203      199.10727      197.81477      129.97552    
     10300  -22379.645      117.88045     -22261.765      199.0895       197.77554      130.03735    
     10400  -22375.157      118.37998     -22256.777      199.05964      197.72434      130.09919    
     10500  -22369.618      119.69025     -22249.928      199.0281       197.67064      130.16102    
     10600  -22364.885      119.49756     -22245.388      199.00998      197.6287       130.22285    
     10700  -22361.23       118.63164     -22242.598      198.97869      197.57378      130.28469    
     10800  -22360.965      117.40432     -22243.561      198.94395      197.51587      130.34652    
     10900  -22357.769      116.41839     -22241.351      198.9243       197.47117      130.40836    
     11000  -22351.744      117.1993      -22234.545      198.89301      197.41354      130.47019    
     11100  -22348.514      119.92737     -22228.587      198.85695      197.35134      130.53202    
     11200  -22343.111      118.44254     -22224.668      198.83657      197.30406      130.59386    
     11300  -22340.229      118.74774     -22221.481      198.80402      197.24275      130.65569    
     11400  -22337.407      116.81667     -22220.59       198.7659       197.17671      130.71753    
     11500  -22336.284      117.05811     -22219.225      198.74338      197.12535      130.77936    
     11600  -22330.293      117.69837     -22212.595      198.71174      197.06395      130.8412     
     11700  -22322.774      117.24746     -22205.526      198.6713       196.99254      130.90303    
     11800  -22319.696      118.82555     -22200.871      198.64588      196.93608      130.96486    
     11900  -22315.57       118.31496     -22197.255      198.61426      196.8737       131.0267     
     12000  -22312.132      117.08366     -22195.048      198.5723       196.79869      131.08853    
     12100  -22310.363      115.92736     -22194.436      198.54495      196.73881      131.15037    
     12200  -22306.131      116.38534     -22189.746      198.51234      196.67375      131.2122     
     12300  -22301.984      120.86188     -22181.122      198.46852      196.59559      131.27404    
     12400  -22295.582      119.21844     -22176.363      198.43975      196.53227      131.33587    
     12500  -22290.543      117.85317     -22172.69       198.40766      196.46614      131.3977     
     12600  -22288.749      118.37792     -22170.371      198.36216      196.38575      131.45954    
     12700  -22284.272      115.01112     -22169.261      198.32824      196.31736      131.52137    
     12800  -22280.055      114.83231     -22165.223      198.29459      196.24839      131.58321    
     12900  -22274.046      118.45743     -22155.588      198.2488       196.168        131.64504    
     13000  -22271.072      120.44592     -22150.626      198.2132       196.09731      131.70687    
     13100  -22266.595      118.57876     -22148.016      198.1782       196.02639      131.76871    
     13200  -22262.952      117.07348     -22145.878      198.12944      195.94241      131.83054    
     13300  -22259.207      116.03309     -22143.174      198.09069      195.86914      131.89238    
     13400  -22251.901      112.22538     -22139.676      198.05565      195.79854      131.95421    
     13500  -22250.516      119.11144     -22131.404      198.00544      195.71392      132.01605    
     13600  -22246.179      121.69295     -22124.486      197.96322      195.6379       132.07788    
     13700  -22237.491      117.53225     -22119.959      197.92643      195.5664       132.13971    
     13800  -22236.581      118.73924     -22117.842      197.87525      195.48033      132.20155    
     13900  -22232.234      115.10521     -22117.129      197.82998      195.40111      132.26338    
     14000  -22229.273      117.02514     -22112.248      197.7913       195.32835      132.32522    
     14100  -22223.06       117.57001     -22105.49       197.73995      195.24228      132.38705    
     14200  -22217.152      117.63943     -22099.512      197.6917       195.1604       132.44889    
     14300  -22213.828      120.05584     -22093.772      197.65185      195.08649      132.51072    
     14400  -22206.477      118.91715     -22087.56       197.60095      195.00148      132.57255    
     14500  -22200.933      119.81727     -22081.116      197.55207      194.91838      132.63439    
     14600  -22195.73       119.19533     -22076.535      197.50907      194.84265      132.69622    
     14700  -22194.19       118.41012     -22075.78       197.45676      194.75716      132.75806    
     14800  -22190.516      117.51432     -22073.002      197.40566      194.67248      132.81989    
     14900  -22189.318      120.7944      -22068.523      197.36429      194.59782      132.88172    
     15000  -22178.855      118.27734     -22060.578      197.3105       194.51165      132.94356    
     15100  -22172.555      120.28195     -22052.273      197.25818      194.42567      133.00539    
     15200  -22168.903      119.82567     -22049.078      197.21729      194.35096      133.06723    
     15300  -22165.622      119.12732     -22046.494      197.16413      194.26496      133.12906    
     15400  -22160.935      118.26805     -22042.667      197.11068      194.17905      133.1909     
     15500  -22155.588      117.76012     -22037.828      197.07043      194.10423      133.25273    
     15600  -22149.647      120.87641     -22028.771      197.01779      194.0185       133.31456    
     15700  -22141.954      120.55204     -22021.402      196.96505      193.93248      133.3764     
     15800  -22138.445      119.22224     -22019.223      196.92433      193.85761      133.43823    
     15900  -22136.9        119.77606     -22017.124      196.874        193.77263      133.50007    
     16000  -22132.146      118.77823     -22013.367      196.82221      193.68686      133.5619     
     16100  -22126.351      118.11858     -22008.232      196.78046      193.61106      133.62374    
     16200  -22116.876      117.34019     -21999.535      196.73125      193.52577      133.68557    
     16300  -22112.529      120.58367     -21991.945      196.68227      193.44302      133.7474     
     16400  -22108.741      120.08253     -21988.658      196.6415       193.36831      133.80924    
     16500  -22106.602      120.74864     -21985.854      196.59196      193.28356      133.87107    
     16600  -22099.311      117.60009     -21981.711      196.54416      193.20082      133.93291    
     16700  -22094.187      117.96424     -21976.223      196.50302      193.1257       133.99474    
     16800  -22088.863      118.72224     -21970.141      196.45648      193.04445      134.05657    
     16900  -22086.669      121.83738     -21964.832      196.41137      192.96455      134.11841    
     17000  -22077.474      117.26308     -21960.211      196.37005      192.88838      134.18024    
     17100  -22074.582      116.91913     -21957.663      196.32305      192.80781      134.24208    
     17200  -22069.525      115.63348     -21953.892      196.28069      192.73099      134.30391    
     17300  -22063.248      117.52975     -21945.719      196.24081      192.6566       134.36575    
     17400  -22055.933      119.11371     -21936.819      196.19487      192.5774       134.42758    
     17500  -22051.341      120.59952     -21930.741      196.15392      192.50301      134.48941    
     17600  -22043.737      116.86389     -21926.873      196.1142       192.43012      134.55125    
     17700  -22041.221      116.37792     -21924.843      196.06866      192.35187      134.61308    
     17800  -22036.757      115.08982     -21921.668      196.02893      192.28014      134.67492    
     17900  -22032.124      119.5537      -21912.57       195.99293      192.21152      134.73675    
     18000  -22020.573      116.99652     -21903.577      195.9492       192.13563      134.79859    
     18100  -22018.95       121.12365     -21897.826      195.9081       192.06363      134.86042    
     18200  -22011.965      117.87458     -21894.091      195.87412      191.99857      134.92225    
     18300  -22005.778      114.80339     -21890.975      195.83354      191.92667      134.98409    
     18400  -22004.731      118.72418     -21886.007      195.79235      191.85522      135.04592    
     18500  -21995.008      118.77068     -21876.237      195.75918      191.7922       135.10776    
     18600  -21989.994      121.94461     -21868.05       195.72022      191.72383      135.16959    
     18700  -21986.378      122.85629     -21863.521      195.68009      191.65476      135.23142    
     18800  -21977.56       116.50418     -21861.056      195.64752      191.59403      135.29326    
     18900  -21975.143      118.5754      -21856.568      195.61045      191.52981      135.35509    
     19000  -21967.126      117.13386     -21849.992      195.56998      191.46331      135.41693    
     19100  -21962.537      119.32216     -21843.215      195.53781      191.40514      135.47876    
     19200  -21955.512      119.14917     -21836.363      195.50359      191.34571      135.5406     
     19300  -21949.722      119.88718     -21829.834      195.46307      191.28195      135.60243    
     19400  -21943.045      118.98726     -21824.057      195.42977      191.22523      135.66426    
     19500  -21938.52       119.02032     -21819.499      195.39609      191.16924      135.7261     
     19600  -21933.998      119.03485     -21814.963      195.35685      191.10949      135.78793    
     19700  -21928.052      118.83769     -21809.214      195.32348      191.05443      135.84977    
     19800  -21920.325      119.79103     -21800.534      195.29231      191.00234      135.9116     
     19900  -21910.939      119.08649     -21791.852      195.25391      190.94542      135.97344    
     20000  -21906.077      119.66076     -21786.417      195.21888      190.89109      136.03527    
     20100  -21903.722      118.67596     -21785.046      195.18814      190.84142      136.0971     
     20200  -21898.316      117.48719     -21780.828      195.1541       190.79018      136.15894    
     20300  -21891.084      118.10373     -21772.98       195.11924      190.73803      136.22077    
     20400  -21881.623      117.3793      -21764.244      195.08827      190.6897       136.28261    
     20500  -21877.284      120.47911     -21756.805      195.05474      190.64043      136.34444    
     20600  -21869.896      118.57339     -21751.323      195.01959      190.59013      136.40627    
     20700  -21868.52       118.8752      -21749.645      194.98929      190.54443      136.46811    
     20800  -21860.23       115.24319     -21744.987      194.95884      190.49954      136.52994    
     20900  -21853.223      117.2989      -21735.924      194.92368      190.45069      136.59178    
     21000  -21847.331      120.03911     -21727.292      194.89254      190.40501      136.65361    
     21100  -21837.735      117.26219     -21720.472      194.86444      190.36238      136.71545    
     21200  -21833.969      119.35269     -21714.617      194.83259      190.31641      136.77728    
     21300  -21830.201      119.52845     -21710.673      194.8018       190.27224      136.83911    
     21400  -21825.125      117.00385     -21708.121      194.7737       190.23068      136.90095    
     21500  -21816.556      116.3242      -21700.232      194.74107      190.1845       136.96278    
     21600  -21810.124      119.12209     -21691.002      194.712        190.1418       137.02462    
     21700  -21803.755      120.09966     -21683.655      194.68731      190.10278      137.08645    
     21800  -21793.352      116.47513     -21676.877      194.65698      190.05953      137.14829    
     21900  -21790.432      120.2858      -21670.146      194.62776      190.01621      137.21012    
     22000  -21781.36       117.79521     -21663.565      194.60228      189.97738      137.27195    
     22100  -21775.703      118.38181     -21657.321      194.57375      189.9357       137.33379    
     22200  -21769.1        117.13469     -21651.965      194.54635      189.8943       137.39562    
     22300  -21765.128      117.77987     -21647.348      194.52166      189.85591      137.45746    
     22400  -21757.512      115.29131     -21642.221      194.49416      189.81451      137.51929    
     22500  -21750.609      117.28932     -21633.32       194.4662       189.7724       137.58113    
     22600  -21744.848      121.71566     -21623.132      194.44451      189.73598      137.64296    
     22700  -21734.007      117.45789     -21616.549      194.41829      189.69495      137.70479    
     22800  -21729.04       116.73792     -21612.302      194.39079      189.6537       137.76663    
     22900  -21726.247      118.07933     -21608.167      194.3686       189.6163       137.82846    
     23000  -21719.319      116.75681     -21602.562      194.3443       189.57625      137.8903     
     23100  -21711.158      117.50905     -21593.649      194.31779      189.53517      137.95213    
     23200  -21705.088      121.18789     -21583.901      194.29785      189.50043      138.01396    
     23300  -21694.398      117.98091     -21576.417      194.27318      189.46031      138.0758     
     23400  -21693.017      121.30992     -21571.707      194.24549      189.41737      138.13763    
     23500  -21688.237      119.6799      -21568.557      194.22618      189.38346      138.19947    
     23600  -21678.217      116.17339     -21562.044      194.20378      189.34573      138.2613     
     23700  -21672.503      119.337       -21553.166      194.17701      189.30395      138.32314    
     23800  -21663.396      118.29702     -21545.099      194.15729      189.26929      138.38497    
     23900  -21659.203      121.17591     -21538.027      194.13549      189.23187      138.4468     
     24000  -21648.479      117.37946     -21531.1        194.10999      189.19025      138.50864    
     24100  -21642.83       118.12874     -21524.701      194.09048      189.15638      138.57047    
     24200  -21636.283      116.70655     -21519.577      194.0703       189.12079      138.63231    
     24300  -21632.764      118.02954     -21514.735      194.04397      189.07841      138.69414    
     24400  -21624.569      117.0272      -21507.542      194.02228      189.04223      138.75598    
     24500  -21616.788      120.46732     -21496.32       194.004        189.00864      138.81781    
     24600  -21609.979      121.71489     -21488.264      193.98014      188.96934      138.87964    
     24700  -21601.317      118.70746     -21482.61       193.95688      188.93172      138.94148    
     24800  -21594.749      116.65574     -21478.093      193.9377       188.8984       139.00331    
     24900  -21590.879      115.70203     -21475.177      193.91458      188.86017      139.06515    
     25000  -21582.391      113.42225     -21468.969      193.88933      188.82134      139.12698    
     25100  -21575.439      119.1684      -21456.271      193.87078      188.78948      139.18881    
     25200  -21568.661      120.90095     -21447.76       193.85002      188.75474      139.25065    
     25300  -21561.021      120.93403     -21440.087      193.82183      188.71338      139.31248    
     25400  -21552.436      118.38257     -21434.054      193.80205      188.68213      139.37432    
     25500  -21546.268      116.51605     -21429.752      193.7823       188.64907      139.43615    
     25600  -21540.796      116.28133     -21424.515      193.75351      188.6091       139.49799    
     25700  -21530.223      115.45641     -21414.767      193.73163      188.57618      139.55982    
     25800  -21521.64       117.79271     -21403.847      193.71356      188.54618      139.62165    
     25900  -21517.011      120.68036     -21396.33       193.68414      188.5063       139.68349    
     26000  -21508.376      116.82943     -21391.546      193.66008      188.47191      139.74532    
     26100  -21504.357      117.11755     -21387.24       193.64089      188.44296      139.80716    
     26200  -21495.837      115.91455     -21379.923      193.61278      188.40496      139.86899    
     26300  -21487.485      120.39405     -21367.091      193.58809      188.37077      139.93083    
     26400  -21480.54       121.31031     -21359.229      193.56743      188.34237      139.99266    
     26500  -21474.864      120.08447     -21354.779      193.54004      188.306        140.05449    
     26600  -21467.082      116.86562     -21350.216      193.51309      188.27059      140.11633    
     26700  -21461.77       118.93693     -21342.833      193.49098      188.24157      140.17816    
     26800  -21450.851      118.63286     -21332.218      193.46569      188.20809      140.24       
     26900  -21443.49       120.78849     -21322.701      193.43854      188.1737       140.30183    
     27000  -21435.082      118.96154     -21316.121      193.41347      188.14271      140.36366    
     27100  -21429.524      118.57537     -21310.948      193.38824      188.1107       140.4255     
     27200  -21422.204      116.04732     -21306.156      193.36175      188.0766       140.48733    
     27300  -21416.797      117.4856      -21299.311      193.33495      188.0443       140.54917    
     27400  -21409.18       120.25983     -21288.92       193.31076      188.0148       140.611      
     27500  -21399.619      121.5842      -21278.035      193.28433      187.98092      140.67284    
     27600  -21392.138      120.13941     -21271.998      193.2563       187.94683      140.73467    
     27700  -21384.589      117.08847     -21267.5        193.23178      187.91666      140.7965     
     27800  -21379.996      118.60808     -21261.388      193.20677      187.88431      140.85834    
     27900  -21370.062      116.74082     -21253.321      193.17786      187.84842      140.92017    
     28000  -21363.786      118.56926     -21245.217      193.15372      187.81748      140.98201    
     28100  -21357.711      120.85909     -21236.852      193.12877      187.78515      141.04384    
     28200  -21348.563      120.04729     -21228.516      193.10126      187.75001      141.10568    
     28300  -21341.355      121.17863     -21220.177      193.07714      187.71784      141.16751    
     28400  -21333.058      120.05509     -21213.003      193.05109      187.68372      141.22934    
     28500  -21326.664      118.99641     -21207.667      193.0235       187.64826      141.29118    
     28600  -21319.394      117.20121     -21202.193      193.00002      187.61626      141.35301    
     28700  -21312.603      118.9231      -21193.68       192.97484      187.58133      141.41485    
     28800  -21300.732      119.0896      -21181.642      192.94738      187.54561      141.47668    
     28900  -21292.283      118.88701     -21173.396      192.92334      187.51238      141.53851    
     29000  -21285.831      118.6249      -21167.206      192.89781      187.47582      141.60035    
     29100  -21278.971      116.85734     -21162.113      192.87225      187.4404       141.66218    
     29200  -21275.088      119.01178     -21156.076      192.8484       187.40729      141.72402    
     29300  -21265.949      117.96679     -21147.983      192.8236       187.36958      141.78585    
     29400  -21257.997      118.61027     -21139.387      192.79784      187.33201      141.84769    
     29500  -21252.963      123.16151     -21129.801      192.77277      187.29765      141.90952    
     29600  -21239.85       119.69337     -21120.156      192.74944      187.26055      141.97135    
     29700  -21231.982      119.66599     -21112.316      192.72493      187.22317      142.03319    
     29800  -21226.824      117.8973      -21108.926      192.69936      187.1865       142.09502    
     29900  -21222.013      119.17983     -21102.833      192.67452      187.14722      142.15686    
     30000  -21211.654      118.48002     -21093.174      192.65203      187.11077      142.21869    
     30100  -21200.989      118.3338      -21082.656      192.62777      187.07421      142.28053    
     30200  -21195.71       121.46789     -21074.242      192.6016       187.03431      142.34236    
     30300  -21187.039      119.78108     -21067.258      192.579        186.99725      142.40419    
     30400  -21180.908      120.50625     -21060.402      192.55381      186.95943      142.46603    
     30500  -21173.182      119.405       -21053.777      192.528        186.92054      142.52786    
     30600  -21163.425      115.22865     -21048.196      192.50522      186.8827       142.5897     
     30700  -21156.901      116.38806     -21040.513      192.47839      186.84363      142.65153    
     30800  -21144.905      116.34738     -21028.557      192.4522       186.80419      142.71336    
     30900  -21137.696      118.61742     -21019.078      192.43054      186.76865      142.7752     
     31000  -21130.316      118.7992      -21011.517      192.40356      186.7299       142.83703    
     31100  -21125.309      118.74163     -21006.568      192.37561      186.68839      142.89887    
     31200  -21117.127      114.98852     -21002.138      192.3525       186.65283      142.9607     
     31300  -21109.759      116.93194     -20992.827      192.32533      186.61418      143.02254    
     31400  -21100.492      117.47441     -20983.018      192.29743      186.57446      143.08437    
     31500  -21093.351      120.20079     -20973.151      192.27235      186.53888      143.1462     
     31600  -21083.462      119.73628     -20963.726      192.2452       186.50173      143.20804    
     31700  -21073.231      118.32948     -20954.901      192.21458      186.46102      143.26987    
     31800  -21066.774      120.63884     -20946.136      192.18729      186.42387      143.33171    
     31900  -21058.884      119.70085     -20939.183      192.16111      186.38916      143.39354    
     32000  -21053.598      119.06711     -20934.531      192.13132      186.35033      143.45538    
     32100  -21044.264      116.32792     -20927.936      192.1003       186.31096      143.51721    
     32200  -21035.416      117.71648     -20917.699      192.07362      186.2766       143.57904    
     32300  -21025.178      119.2998      -20905.878      192.04531      186.24142      143.64088    
     32400  -21017.111      119.14359     -20897.967      192.01105      186.19972      143.70271    
     32500  -21006.573      114.87919     -20891.694      191.98129      186.16364      143.76455    
     32600  -21001.493      116.50981     -20884.983      191.95401      186.12962      143.82638    
     32700  -20994.535      117.53881     -20876.996      191.92036      186.08954      143.88821    
     32800  -20984.433      118.70656     -20865.726      191.88892      186.05218      143.95005    
     32900  -20977.138      121.34332     -20855.795      191.86132      186.01857      144.01188    
     33000  -20969.035      119.42001     -20849.614      191.82684      185.97856      144.07372    
     33100  -20963.247      118.06983     -20845.177      191.79405      185.94021      144.13555    
     33200  -20953.355      115.94302     -20837.412      191.76597      185.90738      144.19739    
     33300  -20946.065      118.15645     -20827.909      191.73313      185.87005      144.25922    
     33400  -20937.812      119.40253     -20818.41       191.69867      185.83085      144.32105    
     33500  -20928.095      118.75739     -20809.338      191.66663      185.79519      144.38289    
     33600  -20917.074      117.76359     -20799.31       191.63337      185.7581       144.44472    
     33700  -20909.923      121.6593      -20788.264      191.60058      185.71949      144.50656    
     33800  -20903.41       120.70577     -20782.704      191.56937      185.68392      144.56839    
     33900  -20896.72       118.38809     -20778.332      191.53608      185.64672      144.63023    
     34000  -20887.241      116.11543     -20771.126      191.50216      185.60633      144.69206    
     34100  -20882.245      120.27517     -20761.97       191.47099      185.57019      144.75389    
     34200  -20871.261      121.29306     -20749.968      191.43889      185.53379      144.81573    
     34300  -20860.19       119.71901     -20740.471      191.40436      185.49284      144.87756    
     34400  -20854.395      120.41989     -20733.975      191.37137      185.45382      144.9394     
     34500  -20844.049      116.49489     -20727.554      191.34152      185.41888      145.00123    
     34600  -20839.233      119.77074     -20719.463      191.30752      185.37719      145.06306    
     34700  -20829.5        118.13514     -20711.365      191.27342      185.33563      145.1249     
     34800  -20822.092      119.2396      -20702.852      191.24266      185.29918      145.18673    
     34900  -20811.955      119.51174     -20692.444      191.20984      185.25784      145.24857    
     35000  -20801.464      119.73363     -20681.731      191.17715      185.21509      145.3104     
     35100  -20796.627      121.15437     -20675.473      191.14777      185.17971      145.37224    
     35200  -20791.446      120.18968     -20671.256      191.11597      185.13722      145.43407    
     35300  -20779.196      116.3308      -20662.866      191.08145      185.09163      145.4959     
     35400  -20771.305      118.95578     -20652.349      191.05132      185.05433      145.55774    
     35500  -20760.07       118.30807     -20641.762      191.02177      185.0131       145.61957    
     35600  -20751.742      118.53927     -20633.203      190.98841      184.96696      145.68141    
     35700  -20745.33       119.02963     -20626.301      190.95852      184.92718      145.74324    
     35800  -20734.804      115.93312     -20618.871      190.92972      184.88527      145.80508    
     35900  -20728.848      118.34372     -20610.505      190.89779      184.83915      145.86691    
     36000  -20718.739      117.42403     -20601.315      190.86728      184.79627      145.92874    
     36100  -20709.52       117.84111     -20591.679      190.83907      184.75474      145.99058    
     36200  -20701.935      119.57481     -20582.36       190.80822      184.70892      146.05241    
     36300  -20693.601      119.18672     -20574.414      190.77649      184.66405      146.11425    
     36400  -20686.871      118.27443     -20568.596      190.74851      184.62276      146.17608    
     36500  -20680.059      117.47728     -20562.582      190.71935      184.57741      146.23791    
     36600  -20667.841      115.92918     -20551.911      190.68469      184.52994      146.29975    
     36700  -20660.29       120.62858     -20539.661      190.65613      184.48857      146.36158    
     36800  -20650.261      118.92004     -20531.341      190.63029      184.44669      146.42342    
     36900  -20643.098      118.57891     -20524.519      190.59546      184.39916      146.48525    
     37000  -20636.148      117.74485     -20518.403      190.5642       184.35544      146.54709    
     37100  -20626.389      114.43577     -20511.954      190.5381       184.31312      146.60892    
     37200  -20619.733      118.17924     -20501.554      190.50303      184.26633      146.67075    
     37300  -20607.899      119.06737     -20488.832      190.47043      184.22212      146.73259    
     37400  -20599.182      119.8592      -20479.323      190.44452      184.18154      146.79442    
     37500  -20592.257      120.98326     -20471.274      190.41027      184.13675      146.85626    
     37600  -20584.527      118.47773     -20466.049      190.37542      184.09146      146.91809    
     37700  -20573.789      114.13344     -20459.656      190.34819      184.04998      146.97993    
     37800  -20567.266      118.37242     -20448.894      190.31473      184.00694      147.04176    
     37900  -20555.897      118.96291     -20436.934      190.27956      183.96209      147.10359    
     38000  -20545.575      117.27131     -20428.304      190.24966      183.92016      147.16543    
     38100  -20538.608      117.88994     -20420.718      190.2166       183.87824      147.22726    
     38200  -20531.885      117.74432     -20414.141      190.18114      183.8356       147.2891     
     38300  -20523.284      116.14824     -20407.136      190.14931      183.7932       147.35093    
     38400  -20514.071      117.88997     -20396.181      190.11557      183.75209      147.41276    
     38500  -20501.787      118.14291     -20383.644      190.07849      183.70978      147.4746     
     38600  -20495.443      120.81543     -20374.628      190.04519      183.66711      147.53643    
     38700  -20486.574      118.28779     -20368.286      190.01255      183.62878      147.59827    
     38800  -20479.096      116.01501     -20363.081      189.97696      183.58843      147.6601     
     38900  -20470.572      116.41296     -20354.159      189.94001      183.5442       147.72194    
     39000  -20463.012      118.90499     -20344.107      189.9059       183.50615      147.78377    
     39100  -20451.31       117.2818      -20334.028      189.87169      183.46793      147.8456     
     39200  -20443.132      119.48801     -20323.644      189.83326      183.42404      147.90744    
     39300  -20433.841      120.0743      -20313.767      189.79674      183.38395      147.96927    
     39400  -20425.1        120.68569     -20304.415      189.7636       183.34763      148.03111    
     39500  -20417.679      120.37995     -20297.299      189.72621      183.30571      148.09294    
     39600  -20410.206      118.41427     -20291.792      189.68695      183.2648       148.15478    
     39700  -20401.763      118.08854     -20283.675      189.65248      183.22768      148.21661    
     39800  -20390.476      118.40792     -20272.068      189.61711      183.18825      148.27844    
     39900  -20381.443      121.62109     -20259.822      189.57758      183.14768      148.34028    
     40000  -20370.995      119.06576     -20251.93       189.54227      183.10914      148.40211    
     40100  -20365.846      120.40577     -20245.441      189.50923      183.07231      148.46395    
     40200  -20354.491      116.42373     -20238.068      189.46896      183.03076      148.52578    
     40300  -20346.222      117.21119     -20229.01       189.43001      182.98948      148.58762    
     40400  -20339.389      123.76752     -20215.621      189.39801      182.95376      148.64945    
     40500  -20326.979      121.89361     -20205.085      189.36142      182.91456      148.71128    
     40600  -20316.466      117.1213      -20199.344      189.32103      182.87169      148.77312    
     40700  -20312.633      119.52278     -20193.11       189.28892      182.83452      148.83495    
     40800  -20302.508      117.61605     -20184.892      189.25412      182.79636      148.89679    
     40900  -20294.893      119.98887     -20174.904      189.21348      182.75192      148.95862    
     41000  -20284.567      121.67794     -20162.889      189.18036      182.71279      149.02045    
     41100  -20270.742      119.70662     -20151.036      189.14846      182.67698      149.08229    
     41200  -20264.014      119.24457     -20144.769      189.10919      182.63094      149.14412    
     41300  -20258.601      118.37231     -20140.229      189.07481      182.59017      149.20596    
     41400  -20250.805      119.08973     -20131.715      189.04516      182.55424      149.26779    
     41500  -20241.42       120.10709     -20121.312      189.00794      182.50934      149.32963    
     41600  -20229.543      118.86319     -20110.68       188.97156      182.46443      149.39146    
     41700  -20220.612      120.30941     -20100.302      188.94154      182.4274       149.45329    
     41800  -20211.561      118.20585     -20093.355      188.90975      182.38652      149.51513    
     41900  -20206.592      117.90197     -20088.69       188.87318      182.34061      149.57696    
     42000  -20196.539      116.2893      -20080.25       188.84143      182.29981      149.6388     
     42100  -20187.134      118.47002     -20068.664      188.81199      182.25996      149.70063    
     42200  -20175.14       118.09978     -20057.04       188.77673      182.21365      149.76247    
     42300  -20168.02       119.67386     -20048.346      188.74305      182.17064      149.8243     
     42400  -20157.581      116.9241      -20040.657      188.71605      182.1318       149.88613    
     42500  -20148.659      115.58889     -20033.07       188.68316      182.08739      149.94797    
     42600  -20144.314      117.08563     -20027.228      188.64816      182.04378      150.0098     
     42700  -20135.319      114.62269     -20020.696      188.62119      182.00453      150.07164    
     42800  -20126.065      117.78819     -20008.277      188.59072      181.9621       150.13347    
     42900  -20116.952      120.60903     -19996.343      188.55397      181.91575      150.1953     
     43000  -20104.705      117.94999     -19986.755      188.52568      181.87457      150.25714    
     43100  -20097.097      119.57657     -19977.52       188.49846      181.8348       150.31897    
     43200  -20088.47       119.92067     -19968.549      188.46451      181.791        150.38081    
     43300  -20078.965      117.71313     -19961.252      188.43384      181.74721      150.44264    
     43400  -20071.348      117.49803     -19953.85       188.40702      181.70857      150.50448    
     43500  -20060.333      116.01388     -19944.319      188.37535      181.66721      150.56631    
     43600  -20053.724      122.40436     -19931.32       188.34195      181.62114      150.62814    
     43700  -20040.765      119.58195     -19921.183      188.31573      181.58379      150.68998    
     43800  -20035.142      120.71618     -19914.426      188.28584      181.54551      150.75181    
     43900  -20025.736      118.31511     -19907.421      188.25135      181.50009      150.81365    
     44000  -20015.703      117.44874     -19898.254      188.2212       181.46067      150.87548    
     44100  -20006.494      118.11765     -19888.376      188.19301      181.42477      150.93732    
     44200  -19998.428      120.3899      -19878.038      188.16001      181.38155      150.99915    
     44300  -19987.322      121.5366      -19865.786      188.12583      181.33934      151.06098    
     44400  -19975.196      120.64136     -19854.555      188.09953      181.30546      151.12282    
     44500  -19971.624      121.3054      -19850.319      188.06905      181.26633      151.18465    
     44600  -19962.015      118.21722     -19843.798      188.03242      181.2235       151.24649    
     44700  -19952.945      117.41291     -19835.532      188.00345      181.18893      151.30832    
     44800  -19943.03       117.73756     -19825.292      187.97353      181.15201      151.37015    
     44900  -19933.841      120.65943     -19813.182      187.93791      181.11105      151.43199    
     45000  -19921.982      119.06688     -19802.915      187.90649      181.0756       151.49382    
     45100  -19917.909      119.5075      -19798.402      187.87715      181.04091      151.55566    
     45200  -19910.955      119.66415     -19791.291      187.84142      181.0017       151.61749    
     45300  -19898.942      118.4139      -19780.528      187.80826      180.96567      151.67933    
     45400  -19887.615      118.91103     -19768.704      187.77913      180.93308      151.74116    
     45500  -19879.815      120.74458     -19759.071      187.74465      180.89633      151.80299    
     45600  -19870.389      116.48638     -19753.902      187.70907      180.85866      151.86483    
     45700  -19863.545      116.1119      -19747.433      187.67878      180.82644      151.92666    
     45800  -19853.011      116.96724     -19736.043      187.64798      180.79432      151.9885     
     45900  -19843.019      118.8487      -19724.171      187.61134      180.75686      152.05033    
     46000  -19833.853      119.90927     -19713.944      187.57754      180.72241      152.11217    
     46100  -19823.733      118.38046     -19705.352      187.548        180.69255      152.174      
     46200  -19815.614      117.98083     -19697.634      187.51178      180.65696      152.23583    
     46300  -19808.887      115.87193     -19693.015      187.47708      180.6208       152.29767    
     46400  -19801.901      117.75904     -19684.142      187.44948      180.59272      152.3595     
     46500  -19789.947      118.87847     -19671.068      187.41588      180.55914      152.42134    
     46600  -19779.494      119.17062     -19660.323      187.37976      180.52214      152.48317    
     46700  -19768.156      117.4416      -19650.715      187.34904      180.49093      152.545      
     46800  -19761.922      119.83846     -19642.084      187.31954      180.46153      152.60684    
     46900  -19751.135      114.97622     -19636.159      187.2834       180.42506      152.66867    
     47000  -19743.066      115.04292     -19628.023      187.24985      180.39087      152.73051    
     47100  -19734.35       119.32093     -19615.029      187.22279      180.36374      152.79234    
     47200  -19723.884      119.9936      -19603.89       187.19108      180.33085      152.85418    
     47300  -19715.193      119.63962     -19595.554      187.1546       180.2935       152.91601    
     47400  -19705.881      117.76337     -19588.117      187.12584      180.26343      152.97784    
     47500  -19697.616      116.87676     -19580.739      187.09865      180.23426      153.03968    
     47600  -19689.368      115.73471     -19573.633      187.06314      180.19711      153.10151    
     47700  -19681.749      117.65989     -19564.089      187.03257      180.16465      153.16335    
     47800  -19670.566      120.09082     -19550.475      187.00758      180.13613      153.22518    
     47900  -19658.979      119.59813     -19539.381      186.97415      180.10007      153.28702    
     48000  -19649.205      118.49686     -19530.708      186.94205      180.06424      153.34885    
     48100  -19642.394      117.69036     -19524.704      186.91714      180.03633      153.41068    
     48200  -19634.929      117.22409     -19517.705      186.88756      180.00309      153.47252    
     48300  -19622.053      115.37594     -19506.677      186.85561      179.96667      153.53435    
     48400  -19615.045      123.18805     -19491.857      186.82936      179.93466      153.59619    
     48500  -19602.146      119.19645     -19482.95       186.80379      179.90399      153.65802    
     48600  -19595.654      119.06012     -19476.594      186.77385      179.86792      153.71985    
     48700  -19586.113      116.558       -19469.555      186.7466       179.83342      153.78169    
     48800  -19576.427      116.60931     -19459.818      186.72084      179.80252      153.84352    
     48900  -19566.11       119.19676     -19446.913      186.69321      179.76707      153.90536    
     49000  -19555.81       120.6788      -19435.132      186.66497      179.73251      153.96719    
     49100  -19547.849      120.02354     -19427.825      186.64097      179.70136      154.02903    
     49200  -19539.5        119.29824     -19420.202      186.61649      179.66692      154.09086    
     49300  -19533.844      121.6319      -19412.212      186.58726      179.63096      154.15269    
     49400  -19521.643      117.60455     -19404.038      186.56434      179.59915      154.21453    
     49500  -19512.115      116.7275      -19395.387      186.54212      179.56677      154.27636    
     49600  -19503.737      117.70161     -19386.035      186.51353      179.53033      154.3382     
     49700  -19493.771      119.16635     -19374.605      186.48876      179.49522      154.40003    
     49800  -19481.684      119.34042     -19362.344      186.46914      179.46554      154.46187    
     49900  -19474.494      121.05139     -19353.442      186.4435       179.43049      154.5237     
     50000  -19466.125      117.75928     -19348.366      186.41686      179.39336      154.58553    
     50100  -19454.384      115.01032     -19339.374      186.39558      179.36107      154.64737    
     50200  -19447.787      118.78336     -19329.004      186.37264      179.33007      154.7092     
     50300  -19436.184      117.96048     -19318.223      186.34642      179.29346      154.77104    
     50400  -19427.922      122.30614     -19305.616      186.32446      179.26112      154.83287    
     50500  -19418.355      123.15827     -19295.197      186.30238      179.23184      154.8947     
     50600  -19407.256      116.88794     -19290.368      186.27704      179.19554      154.95654    
     50700  -19399.871      117.4503      -19282.421      186.25042      179.16123      155.01837    
     50800  -19391.584      118.848       -19272.736      186.23018      179.13289      155.08021    
     50900  -19382.969      119.91486     -19263.054      186.20638      179.09987      155.14204    
     51000  -19373.439      119.77904     -19253.659      186.17752      179.06478      155.20388    
     51100  -19364.598      119.72422     -19244.874      186.15733      179.03695      155.26571    
     51200  -19353.865      116.89424     -19236.97       186.13654      179.00907      155.32754    
     51300  -19347.458      118.92057     -19228.537      186.10742      178.97434      155.38938    
     51400  -19334.366      117.05837     -19217.308      186.08132      178.94273      155.45121    
     51500  -19323.008      119.24507     -19203.763      186.06067      178.91686      155.51305    
     51600  -19314.074      120.03218     -19194.042      186.03285      178.88559      155.57488    
     51700  -19306.396      119.18742     -19187.209      186.00534      178.85426      155.63672    
     51800  -19299.27       120.47747     -19178.792      185.9835       178.82869      155.69855    
     51900  -19290.68       121.34269     -19169.337      185.95735      178.80147      155.76038    
     52000  -19280.527      120.78031     -19159.746      185.92948      178.77033      155.82222    
     52100  -19270.098      119.28495     -19150.813      185.90395      178.74266      155.88405    
     52200  -19262.136      117.58634     -19144.55       185.87904      178.71786      155.94589    
     52300  -19249.983      114.29932     -19135.684      185.85161      178.68878      156.00772    
     52400  -19241.856      119.65984     -19122.196      185.82295      178.66062      156.06955    
     52500  -19229.151      118.63598     -19110.515      185.79933      178.63722      156.13139    
     52600  -19221.856      119.81569     -19102.041      185.77366      178.61246      156.19322    
     52700  -19214.464      119.99671     -19094.468      185.7424       178.58288      156.25506    
     52800  -19202.167      116.09202     -19086.075      185.71657      178.55837      156.31689    
     52900  -19196.617      120.65809     -19075.959      185.69268      178.53623      156.37873    
     53000  -19183.701      119.537       -19064.164      185.66163      178.50749      156.44056    
     53100  -19171.077      121.63936     -19049.438      185.63307      178.48175      156.50239    
     53200  -19161.583      119.09875     -19042.485      185.61164      178.46203      156.56423    
     53300  -19155.201      118.82211     -19036.379      185.58238      178.43611      156.62606    
     53400  -19146.026      117.25187     -19028.774      185.55257      178.40861      156.6879     
     53500  -19137.785      117.73317     -19020.052      185.52942      178.38836      156.74973    
     53600  -19130.719      120.45101     -19010.268      185.50238      178.3641       156.81157    
     53700  -19117.981      119.75903     -18998.222      185.47191      178.336        156.8734     
     53800  -19105.285      120.0849      -18985.2        185.44629      178.31435      156.93523    
     53900  -19096.601      119.41833     -18977.183      185.42367      178.29453      156.99707    
     54000  -19089.214      118.03471     -18971.179      185.39367      178.26788      157.0589     
     54100  -19078.354      115.99582     -18962.358      185.36609      178.24268      157.12074    
     54200  -19071.428      118.73478     -18952.693      185.34414      178.22291      157.18257    
     54300  -19060.583      117.34257     -18943.241      185.31638      178.19689      157.2444     
     54400  -19053.109      118.79952     -18934.309      185.2885       178.17056      157.30624    
     54500  -19042.217      116.93686     -18925.28       185.26584      178.15005      157.36807    
     54600  -19031.483      116.05751     -18915.425      185.24081      178.1248       157.42991    
     54700  -19021.769      117.43797     -18904.331      185.21263      178.09759      157.49174    
     54800  -19012.55       120.55927     -18891.99       185.19047      178.0754       157.55358    
     54900  -19003.772      121.3922      -18882.38       185.16851      178.05197      157.61541    
     55000  -18995.208      118.03659     -18877.172      185.14303      178.0258       157.67724    
     55100  -18983.598      115.6395      -18867.959      185.1181       177.99879      157.73908    
     55200  -18974.546      117.19208     -18857.354      185.09777      177.97659      157.80091    
     55300  -18966.2        119.91509     -18846.285      185.07365      177.95088      157.86275    
     55400  -18956.901      120.38249     -18836.518      185.04941      177.92169      157.92458    
     55500  -18946.603      117.48447     -18829.119      185.0279       177.89671      157.98642    
     55600  -18937.381      115.98052     -18821.4        185.00848      177.874        158.04825    
     55700  -18930.258      118.73859     -18811.52       184.98541      177.84547      158.11008    
     55800  -18917.767      118.73197     -18799.035      184.96127      177.81688      158.17192    
     55900  -18907.935      122.50136     -18785.434      184.94375      177.79479      158.23375    
     56000  -18898.98       121.39665     -18777.583      184.92281      177.76786      158.29559    
     56100  -18887.88       117.2097      -18770.671      184.89751      177.73774      158.35742    
     56200  -18880.14       118.58965     -18761.551      184.87915      177.7138       158.41925    
     56300  -18870.189      117.84415     -18752.345      184.86144      177.68939      158.48109    
     56400  -18861.21       118.26652     -18742.944      184.83584      177.6584       158.54292    
     56500  -18853.487      119.18593     -18734.301      184.81624      177.63354      158.60476    
     56600  -18843.949      118.93549     -18725.013      184.80099      177.61109      158.66659    
     56700  -18834.104      119.59255     -18714.511      184.77784      177.58107      158.72843    
     56800  -18820.257      118.16625     -18702.09       184.75531      177.55269      158.79026    
     56900  -18811.445      121.37837     -18690.066      184.73799      177.52763      158.85209    
     57000  -18801.958      119.10691     -18682.851      184.71793      177.50023      158.91393    
     57100  -18793.801      117.67401     -18676.127      184.69718      177.47358      158.97576    
     57200  -18782.9        117.47801     -18665.422      184.678        177.44643      159.0376     
     57300  -18774.33       120.12185     -18654.208      184.65943      177.42073      159.09943    
     57400  -18764.769      120.86599     -18643.903      184.63993      177.39434      159.16127    
     57500  -18753.782      117.33846     -18636.443      184.62012      177.36802      159.2231     
     57600  -18745.977      117.10566     -18628.872      184.60091      177.34205      159.28493    
     57700  -18737.022      118.76341     -18618.259      184.58062      177.31494      159.34677    
     57800  -18724.34       119.39857     -18604.942      184.55976      177.28863      159.4086     
     57900  -18714.906      124.29057     -18590.615      184.54093      177.26342      159.47044    
     58000  -18704.403      121.2713      -18583.132      184.52204      177.23739      159.53227    
     58100  -18695.24       118.48846     -18576.752      184.50081      177.21185      159.59411    
     58200  -18685.085      116.92868     -18568.157      184.48205      177.18645      159.65594    
     58300  -18677.006      118.25293     -18558.753      184.46255      177.1617       159.71777    
     58400  -18666.395      116.95163     -18549.443      184.4423       177.13806      159.77961    
     58500  -18657.338      117.01658     -18540.322      184.42092      177.11084      159.84144    
     58600  -18648.003      117.17978     -18530.823      184.39952      177.08651      159.90328    
     58700  -18637.543      117.74129     -18519.802      184.38044      177.06514      159.96511    
     58800  -18627.396      120.07417     -18507.322      184.35927      177.04         160.02694    
     58900  -18616.006      120.16105     -18495.845      184.33555      177.01388      160.08878    
     59000  -18607.913      119.76826     -18488.144      184.31499      176.99335      160.15061    
     59100  -18599.101      118.7537      -18480.347      184.29559      176.97107      160.21245    
     59200  -18587.504      117.44864     -18470.055      184.27052      176.94534      160.27428    
     59300  -18578.261      119.33336     -18458.928      184.25027      176.92498      160.33612    
     59400  -18566.124      117.67433     -18448.449      184.22993      176.90338      160.39795    
     59500  -18561.418      120.68371     -18440.734      184.20319      176.8774       160.45978    
     59600  -18549.002      116.81969     -18432.182      184.18254      176.85848      160.52162    
     59700  -18539.494      117.72795     -18421.766      184.16276      176.83918      160.58345    
     59800  -18528.654      118.64083     -18410.013      184.13527      176.81286      160.64529    
     59900  -18516.099      121.04494     -18395.054      184.11118      176.7912       160.70712    
     60000  -18508.194      123.60776     -18384.587      184.09181      176.77399      160.76896    
     60100  -18496.155      118.3498      -18377.805      184.06712      176.75066      160.83079    
     60200  -18488.762      120.27293     -18368.489      184.04222      176.72933      160.89262    
     60300  -18479.815      120.25511     -18359.559      184.02065      176.71024      160.95446    
     60400  -18468.661      118.00181     -18350.659      183.99599      176.68885      161.01629    
     60500  -18458.208      116.6956      -18341.513      183.97191      176.66834      161.07813    
     60600  -18447.323      115.19382     -18332.13       183.94956      176.64881      161.13996    
     60700  -18438.811      115.11292     -18323.698      183.92436      176.6269       161.20179    
     60800  -18429.299      117.74178     -18311.557      183.90007      176.60724      161.26363    
     60900  -18417.669      120.6919      -18296.978      183.87731      176.58774      161.32546    
     61000  -18403.204      118.34182     -18284.862      183.85108      176.56514      161.3873     
     61100  -18396.725      120.07005     -18276.655      183.82874      176.54712      161.44913    
     61200  -18386.609      118.40356     -18268.206      183.80701      176.52805      161.51097    
     61300  -18377.551      120.09452     -18257.457      183.77915      176.50286      161.5728     
     61400  -18365.457      118.18345     -18247.273      183.75779      176.48589      161.63463    
     61500  -18355.914      117.39814     -18238.515      183.73808      176.46786      161.69647    
     61600  -18347.045      117.18984     -18229.855      183.7104       176.4427       161.7583     
     61700  -18335.376      117.47089     -18217.905      183.68784      176.42372      161.82014    
     61800  -18325.337      123.8307      -18201.507      183.66766      176.40521      161.88197    
     61900  -18310.256      120.94345     -18189.312      183.64168      176.37994      161.94381    
     62000  -18302.224      120.39536     -18181.828      183.61836      176.35896      162.00564    
     62100  -18292.376      119.34809     -18173.028      183.59921      176.34129      162.06747    
     62200  -18284.168      119.80674     -18164.361      183.57568      176.31913      162.12931    
     62300  -18273.354      118.20051     -18155.154      183.55173      176.29576      162.19114    
     62400  -18262.687      118.53353     -18144.154      183.53234      176.27708      162.25298    
     62500  -18251.789      117.30925     -18134.48       183.50985      176.25529      162.31481    
     62600  -18244.628      117.5929      -18127.035      183.48567      176.23088      162.37664    
     62700  -18232.121      117.58897     -18114.532      183.4662       176.21125      162.43848    
     62800  -18218.076      117.82216     -18100.254      183.44455      176.1889       162.50031    
     62900  -18206.641      118.95032     -18087.691      183.4202       176.16279      162.56215    
     63000  -18197.076      120.47462     -18076.601      183.39988      176.14135      162.62398    
     63100  -18185.848      119.5345      -18066.313      183.38121      176.1214       162.68582    
     63200  -18179.065      121.23924     -18057.826      183.3604       176.09679      162.74765    
     63300  -18166.551      118.58228     -18047.968      183.33638      176.07145      162.80948    
     63400  -18154.946      117.74032     -18037.206      183.31933      176.05253      162.87132    
     63500  -18144.341      117.81286     -18026.528      183.29876      176.028        162.93315    
     63600  -18138.43       118.99968     -18019.43       183.27509      176.0007       162.99499    
     63700  -18126.866      119.4986      -18007.367      183.25831      175.98074      163.05682    
     63800  -18111.787      118.6784      -17993.108      183.23915      175.95729      163.11866    
     63900  -18099.36       118.96132     -17980.399      183.21494      175.92923      163.18049    
     64000  -18090.196      121.53188     -17968.664      183.19823      175.90837      163.24232    
     64100  -18077.632      119.03765     -17958.594      183.18112      175.8857       163.30416    
     64200  -18067.462      119.35133     -17948.11       183.15706      175.85772      163.36599    
     64300  -18055.215      118.83725     -17936.378      183.13829      175.83435      163.42783    
     64400  -18044.641      119.37949     -17925.261      183.12156      175.81142      163.48966    
     64500  -18033.689      118.46067     -17915.229      183.09848      175.78516      163.55149    
     64600  -18023.252      117.00024     -17906.252      183.07983      175.76239      163.61333    
     64700  -18013.201      119.46273     -17893.738      183.06219      175.7394       163.67516    
     64800  -17999.757      119.43739     -17880.32       183.04013      175.71212      163.737      
     64900  -17985.8        117.83146     -17867.969      183.02027      175.68793      163.79883    
     65000  -17977.623      119.0475      -17858.575      183.00253      175.6662       163.86067    
     65100  -17965.42       117.37134     -17848.048      182.98156      175.64024      163.9225     
     65200  -17953.596      118.37961     -17835.217      182.96148      175.61536      163.98433    
     65300  -17942.124      120.02208     -17822.102      182.94311      175.59245      164.04617    
     65400  -17929.043      118.15619     -17810.887      182.92307      175.56735      164.108      
     65500  -17919.035      116.8479      -17802.187      182.90358      175.54316      164.16984    
     65600  -17906.938      117.18163     -17789.756      182.88547      175.52056      164.23167    
     65700  -17894.279      118.06737     -17776.212      182.86544      175.4956       164.29351    
     65800  -17881.19       118.6635      -17762.526      182.84402      175.4703       164.35534    
     65900  -17869.965      119.13762     -17750.828      182.8251       175.44831      164.41717    
     66000  -17860.53       119.26586     -17741.264      182.80427      175.42279      164.47901    
     66100  -17847.654      117.9774      -17729.677      182.78496      175.3992       164.54084    
     66200  -17834.873      118.68478     -17716.188      182.76515      175.37714      164.60268    
     66300  -17822.901      118.66829     -17704.233      182.7427       175.35241      164.66451    
     66400  -17811.924      117.14691     -17694.778      182.72407      175.3294       164.72634    
     66500  -17799.869      117.8228      -17682.047      182.70397      175.30735      164.78818    
     66600  -17788.316      120.647       -17667.669      182.68055      175.28294      164.85001    
     66700  -17771.843      118.33032     -17653.513      182.66037      175.26002      164.91185    
     66800  -17761.419      118.35602     -17643.063      182.63916      175.23697      164.97368    
     66900  -17751.091      119.0119      -17632.079      182.61798      175.21432      165.03552    
     67000  -17739.716      120.40035     -17619.316      182.59644      175.19252      165.09735    
     67100  -17724.526      118.08309     -17606.443      182.57571      175.17045      165.15918    
     67200  -17714.814      118.12551     -17596.688      182.55309      175.147        165.22102    
     67300  -17702.513      118.69579     -17583.817      182.53086      175.12496      165.28285    
     67400  -17688.033      119.83465     -17568.199      182.50931      175.10343      165.34469    
     67500  -17673.985      120.25807     -17553.727      182.48643      175.08093      165.40652    
     67600  -17661.817      117.84417     -17543.973      182.46485      175.05939      165.46836    
     67700  -17649.016      117.46789     -17531.548      182.44225      175.0378       165.53019    
     67800  -17635.225      118.04724     -17517.177      182.41829      175.01581      165.59202    
     67900  -17620.372      118.51895     -17501.853      182.39556      174.99396      165.65386    
     68000  -17610.689      120.35181     -17490.337      182.37289      174.97299      165.71569    
     68100  -17597.258      119.67701     -17477.581      182.3504       174.95287      165.77753    
     68200  -17582.285      118.43416     -17463.851      182.32492      174.93079      165.83936    
     68300  -17570.95       119.64402     -17451.306      182.30245      174.90996      165.90119    
     68400  -17559.311      120.27811     -17439.033      182.2798       174.89015      165.96303    
     68500  -17545.51       121.07387     -17424.436      182.25437      174.86874      166.02486    
     68600  -17528.417      119.16123     -17409.256      182.23062      174.8485       166.0867     
     68700  -17517.462      121.40458     -17396.057      182.20779      174.82833      166.14853    
     68800  -17502.36       119.79031     -17382.57       182.18227      174.80732      166.21037    
     68900  -17486.927      117.66763     -17369.259      182.15762      174.78717      166.2722     
     69000  -17475.788      119.95844     -17355.83       182.13449      174.76753      166.33403    
     69100  -17464.714      121.2767      -17343.438      182.11079      174.74732      166.39587    
     69200  -17448.24       119.73824     -17328.502      182.08497      174.72609      166.4577     
     69300  -17435.583      120.78248     -17314.8        182.06157      174.70655      166.51954    
     69400  -17420.832      119.2655      -17301.566      182.03764      174.68623      166.58137    
     69500  -17408.316      121.03034     -17287.286      182.01194      174.66461      166.64321    
     69600  -17394.004      120.96891     -17273.035      181.98766      174.64433      166.70504    
     69700  -17376.707      118.29111     -17258.416      181.96492      174.62491      166.76687    
     69800  -17366.564      121.59201     -17244.972      181.94022      174.60352      166.82871    
     69900  -17351.467      120.16803     -17231.298      181.91558      174.58277      166.89054    
     70000  -17339.221      121.37559     -17217.846      181.89267      174.56341      166.95238    
     70100  -17325.965      123.88884     -17202.076      181.86819      174.54138      167.01421    
     70200  -17307.851      120.92956     -17186.921      181.84366      174.52003      167.07604    
     70300  -17294.425      120.82671     -17173.599      181.82083      174.49988      167.13788    
     70400  -17280.948      121.40378     -17159.544      181.79696      174.47827      167.19971    
     70500  -17265.829      120.27184     -17145.557      181.77294      174.45618      167.26155    
     70600  -17251.686      120.32134     -17131.365      181.74936      174.4349       167.32338    
     70700  -17235.851      119.1932      -17116.658      181.72655      174.41348      167.38522    
     70800  -17225.498      122.5637      -17102.934      181.70421      174.39175      167.44705    
     70900  -17210.019      122.46256     -17087.556      181.68023      174.36831      167.50888    
     71000  -17192.565      120.21051     -17072.355      181.65725      174.34645      167.57072    
     71100  -17176.834      120.37887     -17056.455      181.6345       174.32387      167.63255    
     71200  -17163.332      121.33524     -17041.996      181.61212      174.30063      167.69439    
     71300  -17148.545      120.95205     -17027.593      181.58865      174.27767      167.75622    
     71400  -17134.873      122.59877     -17012.274      181.56662      174.25516      167.81806    
     71500  -17117.408      122.30155     -16995.107      181.5451       174.23218      167.87989    
     71600  -17101.758      121.57724     -16980.181      181.52123      174.2075       167.94172    
     71700  -17087.111      122.96381     -16964.147      181.49961      174.18471      168.00356    
     71800  -17070.379      122.17668     -16948.203      181.47786      174.16138      168.06539    
     71900  -17056.816      122.81573     -16934          181.45433      174.13629      168.12723    
     72000  -17043.096      123.67145     -16919.424      181.43326      174.11356      168.18906    
     72100  -17025.471      122.13583     -16903.336      181.41167      174.08932      168.25089    
     72200  -17010.239      122.54732     -16887.692      181.3886       174.06399      168.31273    
     72300  -16996.763      123.34601     -16873.417      181.36747      174.04109      168.37456    
     72400  -16979.838      121.33511     -16858.503      181.34518      174.01629      168.4364     
     72500  -16963.97       121.16726     -16842.803      181.32289      173.99115      168.49823    
     72600  -16950.341      122.67164     -16827.67       181.30192      173.96786      168.56007    
     72700  -16932.897      120.2065      -16812.691      181.2796       173.94282      168.6219     
     72800  -16920.696      123.05507     -16797.64       181.25656      173.9168       168.68373    
     72900  -16903.449      121.59382     -16781.856      181.23581      173.89291      168.74557    
     73000  -16884.822      121.62181     -16763.2        181.21378      173.86815      168.8074     
     73100  -16872.113      125.20326     -16746.91       181.18999      173.84131      168.86924    
     73200  -16854.794      124.46122     -16730.333      181.16918      173.8171       168.93107    
     73300  -16838.749      126.22717     -16712.522      181.14749      173.79236      168.99291    
     73400  -16822.424      125.13919     -16697.284      181.12377      173.7655       169.05474    
     73500  -16804.298      124.18141     -16680.117      181.10251      173.74092      169.11657    
     73600  -16787.951      123.61291     -16664.338      181.08138      173.71649      169.17841    
     73700  -16773.119      124.03164     -16649.087      181.05787      173.69012      169.24024    
     73800  -16761.296      128.85272     -16632.444      181.03566      173.66444      169.30208    
     73900  -16740.022      125.58264     -16614.439      181.01393      173.63955      169.36391    
     74000  -16721.411      124.10145     -16597.31       180.99023      173.613        169.42574    
     74100  -16709.131      128.28808     -16580.843      180.96757      173.58702      169.48758    
     74200  -16690          125.79058     -16564.21       180.94582      173.56223      169.54941    
     74300  -16675.514      128.55172     -16546.963      180.92206      173.53606      169.61125    
     74400  -16661.311      130.27719     -16531.034      180.89811      173.509        169.67308    
     74500  -16640.974      128.89264     -16512.082      180.87611      173.48443      169.73492    
     74600  -16626.374      131.09983     -16495.274      180.8527       173.45846      169.79675    
     74700  -16606.294      127.76937     -16478.525      180.8279       173.43094      169.85858    
     74800  -16590.327      130.49252     -16459.835      180.80533      173.40615      169.92042    
     74900  -16572.397      129.87906     -16442.518      180.78203      173.38039      169.98225    
     75000  -16557.089      130.9266      -16426.162      180.75709      173.35314      170.04409    
     75100  -16536.867      127.77398     -16409.093      180.73346      173.32769      170.10592    
     75200  -16520.289      126.68828     -16393.6        180.71033      173.30224      170.16776    
     75300  -16501.861      126.37743     -16375.484      180.68523      173.27495      170.22959    
     75400  -16483.232      127.07938     -16356.153      180.66023      173.24858      170.29142    
     75500  -16472.298      132.03167     -16340.266      180.63644      173.22298      170.35326    
     75600  -16450.642      129.64834     -16320.994      180.61121      173.19587      170.41509    
     75700  -16432.463      132.14377     -16300.32       180.58558      173.16879      170.47693    
     75800  -16415.167      131.68106     -16283.486      180.56093      173.14287      170.53876    
     75900  -16394.843      132.79952     -16262.044      180.53564      173.11593      170.6006     
     76000  -16377.241      134.71354     -16242.528      180.50949      173.08842      170.66243    
     76100  -16359.643      134.59111     -16225.052      180.48383      173.06213      170.72426    
     76200  -16341.509      133.36792     -16208.141      180.4589       173.0358       170.7861     
     76300  -16321.493      133.91973     -16187.573      180.43253      173.00811      170.84793    
     76400  -16304.818      137.33695     -16167.481      180.4061       172.98129      170.90977    
     76500  -16282.732      137.01869     -16145.714      180.38026      172.95479      170.9716     
     76600  -16263.822      137.04626     -16126.776      180.35368      172.92701      171.03343    
     76700  -16246.038      138.64962     -16107.389      180.32635      172.89961      171.09527    
     76800  -16231.683      141.85983     -16089.823      180.30004      172.87304      171.1571     
     76900  -16209.75       134.87061     -16074.879      180.27299      172.84512      171.21894    
     77000  -16192.79       136.9886      -16055.801      180.24513      172.81731      171.28077    
     77100  -16176.3        139.42114     -16036.879      180.21814      172.79038      171.34261    
     77200  -16152.256      136.20463     -16016.052      180.1908       172.76262      171.40444    
     77300  -16129.417      135.28446     -15994.132      180.16196      172.73395      171.46627    
     77400  -16115.017      142.08993     -15972.927      180.13469      172.70652      171.52811    
     77500  -16094.923      141.655       -15953.268      180.10695      172.67888      171.58994    
     77600  -16075.224      146.82959     -15928.394      180.078        172.6499       171.65178    
     77700  -16052.517      147.38692     -15905.13       180.04945      172.62157      171.71361    
     77800  -16029.569      148.38581     -15881.183      180.02147      172.59388      171.77545    
     77900  -16007.584      149.94392     -15857.64       179.99208      172.56474      171.83728    
     78000  -15987.263      147.28235     -15839.981      179.96267      172.53585      171.89911    
     78100  -15971.895      155.80461     -15816.091      179.93412      172.50777      171.96095    
     78200  -15952.471      154.11265     -15798.358      179.90481      172.47899      172.02278    
     78300  -15965.217      178.75363     -15786.463      179.87569      172.44996      172.08462    
     78400  -16198.794      364.18971     -15834.604      179.84637      172.42066      172.14645    
     78500  -16910.466      761.47836     -16148.988      179.82527      172.39223      172.20828    
     78600  -18032.757      961.58852     -17071.168      179.82433      172.38802      172.27012    
     78700  -19048.971      849.10518     -18199.866      179.85103      172.42121      172.33195    
     78800  -19879.218      693.86703     -19185.35       179.86246      172.44073      172.39379    
     78900  -20526.161      562.04247     -19964.118      179.83752      172.43833      172.45562    
     79000  -21029.356      461.25023     -20568.106      179.81561      172.45098      172.51746    
     79100  -21385.135      363.94415     -21021.191      179.82153      172.49288      172.57929    
     79200  -21631.252      285.76397     -21345.488      179.82799      172.53655      172.64112    
     79300  -21790.218      221.18878     -21569.029      179.83559      172.59025      172.70296    
     79400  -21901.22       179.48071     -21721.739      179.85934      172.66423      172.76479    
     79500  -21966.545      143.43793     -21823.107      179.88451      172.74491      172.82663    
     79600  -21995.418      113.07557     -21882.342      179.91569      172.8286       172.88846    
     79700  -22001.767      98.328039     -21903.439      179.95737      172.91517      172.9503     
     79800  -21992.669      104.14105     -21888.528      179.99215      172.98406      173.01213    
     79900  -21983.75       129.84301     -21853.907      180.01524      173.03199      173.07396    
     80000  -21976.274      136.4891      -21839.785      180.0441       173.08214      173.1358     
     80100  -21973.23       116.10066     -21857.13       180.07557      173.1264       173.19763    
     80200  -21969.936      102.89749     -21867.038      180.10818      173.16287      173.25947    
     80300  -21959.138      107.7377      -21851.4        180.15659      173.21172      173.3213     
     80400  -21950.108      127.29126     -21822.817      180.20438      173.25646      173.38313    
     80500  -21937.732      127.86934     -21809.862      180.25132      173.29545      173.44497    
     80600  -21930.935      115.85185     -21815.083      180.29831      173.33267      173.5068     
     80700  -21936.112      115.6704      -21820.442      180.34062      173.37413      173.56864    
     80800  -21935.923      116.17547     -21819.748      180.38837      173.4159       173.63047    
     80900  -21929.329      116.47739     -21812.852      180.43777      173.45009      173.69231    
     81000  -21922.387      120.65039     -21801.737      180.47701      173.47989      173.75414    
     81100  -21916.117      121.36806     -21794.749      180.50702      173.51187      173.81597    
     81200  -21911.506      121.63095     -21789.875      180.53471      173.53915      173.87781    
     81300  -21913.526      124.22901     -21789.297      180.55251      173.56835      173.93964    
     81400  -21910.162      117.83963     -21792.323      180.56492      173.61032      174.00148    
     81500  -21910.472      116.5518      -21793.92       180.58441      173.67171      174.06331    
     81600  -21913.789      119.61671     -21794.172      180.62785      173.73911      174.12515    
     81700  -21914.253      117.44375     -21796.809      180.66197      173.80577      174.18698    
     81800  -21922.22       120.8406      -21801.379      180.66388      173.86433      174.24881    
     81900  -21926.762      118.05522     -21808.707      180.67161      173.92289      174.31065    
     82000  -21931.632      116.57018     -21815.061      180.68132      173.97939      174.37248    
     82100  -21932.143      116.4902      -21815.653      180.69181      174.03952      174.43432    
     82200  -21927.633      117.32327     -21810.31       180.69252      174.09555      174.49615    
     82300  -21923.69       121.56439     -21802.125      180.68306      174.15264      174.55798    
     82400  -21926.811      124.45387     -21802.357      180.67021      174.22018      174.61982    
     82500  -21931.555      117.10031     -21814.454      180.65444      174.28342      174.68165    
     82600  -21938.735      114.68668     -21824.048      180.63765      174.33673      174.74349    
     82700  -21935.717      112.76379     -21822.953      180.62604      174.40603      174.80532    
     82800  -21932.42       122.02746     -21810.393      180.59887      174.47884      174.86716    
     82900  -21928.894      126.92239     -21801.972      180.56061      174.54824      174.92899    
     83000  -21935.129      122.75783     -21812.371      180.51634      174.62905      174.99082    
     83100  -21946.258      114.76978     -21831.488      180.47332      174.71848      175.05266    
     83200  -21953.863      112.83313     -21841.03       180.44019      174.82079      175.11449    
     83300  -21955.555      115.97641     -21839.578      180.40617      174.9356       175.17633    
     83400  -21959.868      123.61914     -21836.249      180.35689      175.03919      175.23816    
     83500  -21962.989      122.32648     -21840.663      180.30398      175.14199      175.3        
     83600  -21969.198      118.44348     -21850.755      180.25509      175.24545      175.36183    
     83700  -21973.926      114.40169     -21859.524      180.20832      175.34265      175.42366    
     83800  -21972.706      114.17761     -21858.529      180.15648      175.43092      175.4855     
     83900  -21969.014      119.91237     -21849.101      180.11562      175.51856      175.54733    
     84000  -21971.733      125.87227     -21845.861      180.08104      175.60553      175.60917    
     84100  -21973.734      119.41158     -21854.322      180.0488       175.68164      175.671      
     84200  -21976.138      112.65826     -21863.479      180.02826      175.75285      175.73283    
     84300  -21977.403      113.66712     -21863.736      180.01787      175.8276       175.79467    
     84400  -21973.804      119.51597     -21854.288      180.01168      175.89453      175.8565     
     84500  -21968.573      122.35869     -21846.214      180.02161      175.95518      175.91834    
     84600  -21964.757      118.12759     -21846.629      180.0333       176.01185      175.98017    
     84700  -21966.136      115.69879     -21850.437      180.03881      176.04822      176.04201    
     84800  -21964.419      114.03284     -21850.387      180.05032      176.08966      176.10384    
     84900  -21959.936      117.84539     -21842.091      180.0577       176.12586      176.16567    
     85000  -21952.862      123.31443     -21829.547      180.05663      176.14898      176.22751    
     85100  -21946.689      124.20525     -21822.484      180.05773      176.17801      176.28934    
     85200  -21945.078      121.69196     -21823.386      180.0683       176.21157      176.35118    
     85300  -21948.647      117.74867     -21830.898      180.07871      176.22833      176.41301    
     85400  -21950.361      112.75069     -21837.61       180.08012      176.24851      176.47485    
     85500  -21951.726      116.0425      -21835.684      180.07203      176.28076      176.53668    
     85600  -21950.184      122.37438     -21827.81       180.0597       176.30656      176.59851    
     85700  -21946.195      122.49271     -21823.702      180.05778      176.33705      176.66035    
     85800  -21948.811      118.97817     -21829.832      180.05412      176.36456      176.72218    
     85900  -21956.049      116.10163     -21839.948      180.04784      176.3804       176.78402    
     86000  -21958.461      113.16307     -21845.298      180.04311      176.38836      176.84585    
     86100  -21956.986      116.41643     -21840.57       180.04256      176.38957      176.90768    
     86200  -21949.275      120.2384      -21829.036      180.04378      176.39989      176.96952    
     86300  -21946.684      126.1063      -21820.578      180.04017      176.4108       177.03135    
     86400  -21948.74       124.45688     -21824.283      180.03266      176.42252      177.09319    
     86500  -21954.207      117.17784     -21837.029      180.02664      176.44364      177.15502    
     86600  -21962.165      114.11108     -21848.054      180.02252      176.4641       177.21686    
     86700  -21963.048      114.09989     -21848.948      180.015        176.47491      177.27869    
     86800  -21960.472      118.73017     -21841.741      180.00892      176.49444      177.34052    
     86900  -21959.25       124.6253      -21834.624      180.01066      176.50962      177.40236    
     87000  -21960.106      124.09        -21836.016      180.01591      176.52015      177.46419    
     87100  -21965.465      120.00305     -21845.462      180.03029      176.53955      177.52603    
     87200  -21970.925      115.37121     -21855.554      180.05377      176.55127      177.58786    
     87300  -21974.957      115.28633     -21859.671      180.07286      176.5477       177.6497     
     87400  -21971.736      115.35297     -21856.383      180.09646      176.53926      177.71153    
     87500  -21971.869      122.94015     -21848.928      180.13251      176.53444      177.77336    
     87600  -21967.372      120.97826     -21846.394      180.17656      176.52792      177.8352     
     87700  -21970.809      119.53727     -21851.272      180.20933      176.50929      177.89703    
     87800  -21971.721      116.8173      -21854.903      180.23968      176.49517      177.95887    
     87900  -21972.33       117.63848     -21854.691      180.28839      176.49556      178.0207     
     88000  -21972.35       119.85227     -21852.497      180.3297       176.48133      178.08253    
     88100  -21971.365      120.1392      -21851.226      180.36566      176.46573      178.14437    
     88200  -21968.831      117.15351     -21851.677      180.41632      176.46492      178.2062     
     88300  -21972.413      119.81591     -21852.597      180.44885      176.44991      178.26804    
     88400  -21972.235      118.20669     -21854.029      180.47237      176.42832      178.32987    
     88500  -21968.93       114.60827     -21854.321      180.50396      176.41853      178.39171    
     88600  -21972.498      119.66809     -21852.83       180.52401      176.40673      178.45354    
     88700  -21969.115      118.02047     -21851.094      180.53266      176.3966       178.51537    
     88800  -21967.765      118.0672      -21849.697      180.55198      176.40291      178.57721    
     88900  -21969.499      120.05947     -21849.44       180.56379      176.41805      178.63904    
     89000  -21969.012      118.66647     -21850.346      180.55047      176.43417      178.70088    
     89100  -21969.364      117.23784     -21852.126      180.53834      176.4599       178.76271    
     89200  -21967.588      115.35427     -21852.234      180.52723      176.49454      178.82455    
     89300  -21966.991      117.7517      -21849.239      180.49952      176.53041      178.88638    
     89400  -21960.937      117.05541     -21843.881      180.4739       176.5666       178.94821    
     89500  -21959.427      121.25884     -21838.168      180.44815      176.60557      179.01005    
     89600  -21958.289      121.9447      -21836.345      180.41791      176.64283      179.07188    
     89700  -21963.996      123.00711     -21840.989      180.38896      176.68207      179.13372    
     89800  -21967.881      118.7435      -21849.138      180.35362      176.71443      179.19555    
     89900  -21970.715      116.24985     -21854.465      180.32047      176.75199      179.25738    
     90000  -21968.925      115.26978     -21853.655      180.29151      176.79824      179.31922    
     90100  -21968.665      120.06043     -21848.604      180.25551      176.83393      179.38105    
     90200  -21969.813      124.28759     -21845.525      180.22738      176.87368      179.44289    
     90300  -21971.045      121.53839     -21849.507      180.20433      176.91422      179.50472    
     90400  -21972.186      115.86619     -21856.32       180.16863      176.93806      179.56656    
     90500  -21975.249      116.53363     -21858.715      180.13895      176.96621      179.62839    
     90600  -21973.684      119.22277     -21854.461      180.11503      176.99459      179.69022    
     90700  -21971.859      121.88167     -21849.978      180.08819      177.01702      179.75206    
     90800  -21970.521      121.29186     -21849.229      180.06759      177.04166      179.81389    
     90900  -21973.585      118.82855     -21854.756      180.0517       177.06708      179.87573    
     91000  -21978.422      118.0029      -21860.419      180.0306       177.08795      179.93756    
     91100  -21975.236      114.47109     -21860.765      180.01093      177.10856      179.9994     
     91200  -21969.898      116.70914     -21853.189      179.99549      177.12287      180.06123    
     91300  -21965.52       121.46579     -21844.055      179.98118      177.13362      180.12306    
     91400  -21963.695      122.68886     -21841.007      179.96197      177.1314       180.1849     
     91500  -21965.683      120.28365     -21845.399      179.95409      177.13345      180.24673    
     91600  -21969.1        117.6501      -21851.45       179.95293      177.13941      180.30857    
     91700  -21970.626      115.76361     -21854.862      179.94954      177.13681      180.3704     
     91800  -21970.317      117.80148     -21852.516      179.95129      177.13495      180.43223    
     91900  -21965.911      118.86333     -21847.048      179.95488      177.13635      180.49407    
     92000  -21964.263      120.39732     -21843.866      179.95373      177.13267      180.5559     
     92100  -21964.584      119.4851      -21845.099      179.95686      177.13279      180.61774    
     92200  -21969.39       119.02196     -21850.368      179.96813      177.13931      180.67957    
     92300  -21972.344      115.8289      -21856.515      179.9672       177.13071      180.74141    
     92400  -21974.717      116.42495     -21858.292      179.9707       177.12618      180.80324    
     92500  -21972.22       119.20763     -21853.012      179.97576      177.12274      180.86507    
     92600  -21965.751      120.05659     -21845.694      179.97568      177.11435      180.92691    
     92700  -21970.757      127.49112     -21843.265      179.98726      177.11732      180.98874    
     92800  -21970.367      118.81168     -21851.555      179.99631      177.11634      181.05058    
     92900  -21976.818      113.46319     -21863.355      180.00131      177.10715      181.11241    
     93000  -21979.664      112.36169     -21867.302      180.01656      177.10273      181.17425    
     93100  -21976.754      115.96551     -21860.789      180.03601      177.0952       181.23608    
     93200  -21974.212      123.68836     -21850.523      180.0552       177.07584      181.29791    
     93300  -21970.837      123.98772     -21846.849      180.08332      177.06091      181.35975    
     93400  -21973.359      120.74208     -21852.617      180.10749      177.04097      181.42158    
     93500  -21977.863      116.19434     -21861.669      180.12971      177.02181      181.48342    
     93600  -21979.418      113.40329     -21866.014      180.16         177.00803      181.54525    
     93700  -21979.16       117.4105      -21861.75       180.1796       176.98811      181.60709    
     93800  -21975.718      122.47228     -21853.246      180.19568      176.97155      181.66892    
     93900  -21968.859      119.77186     -21849.087      180.21667      176.9654       181.73075    
     94000  -21970.645      119.50268     -21851.143      180.22524      176.95775      181.79259    
     94100  -21973.565      117.41368     -21856.151      180.23271      176.95882      181.85442    
     94200  -21975.763      116.12999     -21859.633      180.23323      176.96531      181.91626    
     94300  -21973.931      116.11998     -21857.811      180.21007      176.97014      181.97809    
     94400  -21973.087      120.12823     -21852.958      180.18814      176.98863      182.03992    
     94500  -21970.51       121.22203     -21849.288      180.15842      177.01392      182.10176    
     94600  -21971.219      121.31921     -21849.9        180.11618      177.03533      182.16359    
     94700  -21971.523      118.21537     -21853.308      180.091        177.06831      182.22543    
     94800  -21969.499      113.55126     -21855.948      180.06702      177.09724      182.28726    
     94900  -21973.17       118.99906     -21854.171      180.03408      177.11499      182.3491     
     95000  -21972.31       122.18641     -21850.124      180.01228      177.14483      182.41093    
     95100  -21971.519      122.26038     -21849.259      179.99134      177.17304      182.47276    
     95200  -21972.071      117.12654     -21854.945      179.96078      177.19258      182.5346     
     95300  -21976.032      115.00215     -21861.03       179.93454      177.21667      182.59643    
     95400  -21974.647      113.16959     -21861.478      179.90542      177.2343       182.65827    
     95500  -21976.906      119.67029     -21857.235      179.86934      177.24804      182.7201     
     95600  -21974.234      121.55978     -21852.674      179.84016      177.27058      182.78194    
     95700  -21973.063      121.6148      -21851.449      179.80973      177.28702      182.84377    
     95800  -21973.269      118.23587     -21855.034      179.77592      177.30349      182.9056     
     95900  -21978.219      117.90925     -21860.31       179.74572      177.32188      182.96744    
     96000  -21979.039      116.36421     -21862.674      179.71905      177.33364      183.02927    
     96100  -21976.651      116.26743     -21860.384      179.69603      177.34024      183.09111    
     96200  -21974.461      119.74331     -21854.717      179.67771      177.34789      183.15294    
     96300  -21970.399      119.73864     -21850.66       179.66257      177.35641      183.21477    
     96400  -21973.051      121.0549      -21851.997      179.64423      177.36183      183.27661    
     96500  -21974.868      118.13557     -21856.732      179.63244      177.36526      183.33844    
     96600  -21974.163      114.8074      -21859.356      179.61553      177.35755      183.40028    
     96700  -21972.784      116.03951     -21856.744      179.60626      177.34844      183.46211    
     96800  -21969.917      118.69204     -21851.225      179.60361      177.3477       183.52395    
     96900  -21971.814      123.43334     -21848.381      179.59582      177.34065      183.58578    
     97000  -21972.912      121.66982     -21851.242      179.58997      177.32601      183.64761    
     97100  -21974.882      118.42183     -21856.46       179.59734      177.3206       183.70945    
     97200  -21974.771      115.41333     -21859.357      179.6045       177.30805      183.77128    
     97300  -21972.883      115.21634     -21857.667      179.60781      177.29332      183.83312    
     97400  -21971.915      119.50239     -21852.412      179.61737      177.28647      183.89495    
     97500  -21972.405      123.90826     -21848.497      179.61811      177.27263      183.95679    
     97600  -21972.189      122.01933     -21850.17       179.6212       177.25832      184.01862    
     97700  -21972.322      115.63388     -21856.688      179.62985      177.24732      184.08045    
     97800  -21977.131      114.33945     -21862.792      179.63341      177.23304      184.14229    
     97900  -21977.458      113.82136     -21863.637      179.63793      177.22035      184.20412    
     98000  -21976.732      118.93874     -21857.793      179.65195      177.21057      184.26596    
     98100  -21971.477      121.2602      -21850.217      179.65968      177.18757      184.32779    
     98200  -21971.857      123.15475     -21848.703      179.67155      177.1638       184.38962    
     98300  -21976.398      121.5598      -21854.838      179.69121      177.15011      184.45146    
     98400  -21977.424      115.49973     -21861.925      179.69727      177.13068      184.51329    
     98500  -21979.557      115.61499     -21863.942      179.69972      177.10671      184.57513    
     98600  -21976.734      117.81883     -21858.916      179.71208      177.09111      184.63696    
     98700  -21972.452      121.49612     -21850.956      179.71165      177.07567      184.6988     
     98800  -21974.056      126.69651     -21847.36       179.70585      177.06114      184.76063    
     98900  -21976.79       122.58573     -21854.204      179.70848      177.06119      184.82246    
     99000  -21980.479      115.90179     -21864.577      179.69763      177.05296      184.8843     
     99100  -21983.327      113.97018     -21869.357      179.68097      177.04107      184.94613    
     99200  -21981.926      116.60842     -21865.318      179.67076      177.04527      185.00797    
     99300  -21977.429      121.05762     -21856.371      179.65296      177.04414      185.0698     
     99400  -21974.491      123.76837     -21850.723      179.62922      177.03792      185.13164    
     99500  -21972.781      119.87834     -21852.903      179.62015      177.04223      185.19347    
     99600  -21977.678      118.05601     -21859.622      179.59589      177.04372      185.2553     
     99700  -21978.332      114.52275     -21863.81       179.57093      177.04583      185.31714    
     99800  -21978.176      116.37521     -21861.8        179.5558       177.0583       185.37897    
     99900  -21976.703      121.23922     -21855.464      179.53207      177.06416      185.44081    
    100000  -21971.672      120.48372     -21851.188      179.50558      177.07318      185.50264    
Loop time of 32538 on 12 procs for 100000 steps with 3060 atoms

Performance: 0.266 ns/day, 90.383 hours/ns, 3.073 timesteps/s, 9.404 katom-step/s
41.0% CPU use with 12 MPI tasks x 1 OpenMP threads

MPI task timing breakdown:
Section |  min time  |  avg time  |  max time  |%varavg| %total
---------------------------------------------------------------
Pair    | 0.62077    | 871.41     | 2897.7     |4199.3 |  2.68
Neigh   | 0.0085605  | 2.9944     | 12.531     | 270.7 |  0.01
Comm    | 37.516     | 1310.6     | 3932.7     |4586.3 |  4.03
Output  | 117.07     | 120.77     | 123.97     |  20.0 |  0.37
Modify  | 22663      | 26821      | 28971      |1764.2 | 82.43
Other   |            | 3411       |            |       | 10.48

Nlocal:            255 ave        1186 max           0 min
Histogram: 8 0 1 1 0 0 0 0 0 2
Nghost:        459.583 ave        1741 max           0 min
Histogram: 8 0 0 0 0 1 1 0 0 2
Neighs:              0 ave           0 max           0 min
Histogram: 12 0 0 0 0 0 0 0 0 0

Total # of neighbors = 0
Ave neighs/atom = 0
Neighbor list builds = 475
Dangerous builds = 0
Total wall time: 9:02:30
