LAMMPS (2 Aug 2023 - Update 3)
OMP_NUM_THREADS environment is not set. Defaulting to 1 thread. (src/comm.cpp:98)
  using 1 OpenMP thread(s) per MPI task

# 1------general---------------
units                             metal      #单位为lammps 中的metel 类型
dimension                    3          #模拟的维度 三维
boundary                    p p p      #周期边界条件
atom_style                  atomic   #原子类型自动
atom_modify              map array sort 100 2.0
neighbor                    3.0 bin
neigh_modify            every 1 delay 0 check yes
#2 -----global variable-------定义全局变量，方便统一修改；
variable temperature equal 300
variable tstep equal 0.001
variable pressure equal 0
variable thermalstep equal 100
variable dumpstep equal 1000
variable relaxtime equal 0
variable totaltime equal 200000
variable deformrate equal 5e-3
#3 -------model------------
#box tilt large
read_data     1.lmp
Reading data file ...
  orthogonal box = (-100 -100 -2.3312515) to (100 100 46.166171)
  3 by 4 by 1 MPI processor grid
  reading atoms ...
  1320 atoms
  read_data CPU = 0.860 seconds
group sr type 2 3
360 atoms in group sr
delete_atoms group sr
Deleted 360 atoms, new total = 960
replicate 1 1 7
Replication is creating a 1x1x7 = 7 times larger system...
  orthogonal box = (-100 -100 -2.3312515) to (100 100 337.15071)
  2 by 2 by 3 MPI processor grid
  6720 atoms
  replicate CPU = 0.956 seconds
write_data z.data
System init for write_data ...
WARNING: Communication cutoff is 0.0. No ghost atoms will be generated. Atoms may get lost. (src/comm_brick.cpp:210)
pair_style hybrid airebo 3.0 airebo 3.0 airebo 3.0 lj/cut 10
pair_coeff * * airebo 1 CH.airebo C NULL NULL
Reading airebo potential file CH.airebo with DATE: 2011-10-25
pair_coeff * * airebo 2 CH.airebo NULL C NULL
Reading airebo potential file CH.airebo with DATE: 2011-10-25
pair_coeff * * airebo 3 CH.airebo NULL NULL C
Reading airebo potential file CH.airebo with DATE: 2011-10-25
pair_coeff 1 2 lj/cut 0.00456 3.431
pair_coeff 1 3 lj/cut 0.00456 3.431
pair_coeff 2 3 lj/cut 0.00456 3.431

# 5------minimize -----------
min_style      sd
minimize       1.0e-4 1.0e-6 100 1000
Neighbor list info ...
  update: every = 1 steps, delay = 0 steps, check = yes
  max neighbors/atom: 2000, page size: 100000
  master list distance cutoff = 13.2
  ghost atom cutoff = 13.2
  binsize = 6.6, bins = 31 31 52
  6 neighbor lists, perpetual/occasional/extra = 6 0 0
  (1) pair airebo, perpetual, skip from (5)
      attributes: full, newton on, ghost
      pair build: skip/ghost
      stencil: none
      bin: none
  (2) pair airebo, perpetual, skip from (5)
      attributes: full, newton on, ghost
      pair build: skip/ghost
      stencil: none
      bin: none
  (3) pair airebo, perpetual, skip from (5)
      attributes: full, newton on, ghost
      pair build: skip/ghost
      stencil: none
      bin: none
  (4) pair lj/cut, perpetual, skip from (6)
      attributes: half, newton on, cut 13
      pair build: skip
      stencil: none
      bin: none
  (5) neighbor class addition, perpetual
      attributes: full, newton on, ghost
      pair build: full/bin/ghost
      stencil: full/ghost/bin/3d
      bin: standard
  (6) neighbor class addition, perpetual
      attributes: half, newton on, cut 13
      pair build: half/bin/atomonly/newton
      stencil: half/bin/3d
      bin: standard
Per MPI rank memory allocation (min/avg/max) = 10.86 | 11.44 | 11.63 Mbytes
   Step          Temp          E_pair         E_mol          TotEng         Press     
         0   0             -49779.633      0             -49779.633     -25.745857    
         1   0             -49779.756      0             -49779.756     -25.739335    
Loop time of 1.25734 on 12 procs for 1 steps with 6720 atoms

34.5% CPU use with 12 MPI tasks x 1 OpenMP threads

Minimization stats:
  Stopping criterion = energy tolerance
  Energy initial, next-to-last, final = 
     -49779.6328962065  -49779.6328962065  -49779.7562613513
  Force two-norm initial, final = 5.730577 0.57734428
  Force max component initial, final = 0.069876905 0.0070494245
  Final line search alpha, max atom move = 1 0.0070494245
  Iterations, force evaluations = 1 2

MPI task timing breakdown:
Section |  min time  |  avg time  |  max time  |%varavg| %total
---------------------------------------------------------------
Pair    | 0.019897   | 0.03389    | 0.068031   |   8.0 |  2.70
Neigh   | 0          | 0          | 0          |   0.0 |  0.00
Comm    | 0.24673    | 0.35079    | 0.40957    |   7.7 | 27.90
Output  | 0          | 0          | 0          |   0.0 |  0.00
Modify  | 0          | 0          | 0          |   0.0 |  0.00
Other   |            | 0.8727     |            |       | 69.41

Nlocal:            560 ave         611 max         511 min
Histogram: 3 0 0 0 4 2 0 0 0 3
Nghost:           2200 ave        2249 max        2149 min
Histogram: 3 0 0 0 2 4 0 0 0 3
Neighs:              0 ave           0 max           0 min
Histogram: 12 0 0 0 0 0 0 0 0 0

Total # of neighbors = 0
Ave neighs/atom = 0
Neighbor list builds = 0
Dangerous builds = 0
#6----define computes------
variable nums equal count(all) #计算原子数目
variable toval equal 16.0428*16.0428*lz #计算系统总体积，单层石墨烯厚度为0.335nm
variable vol equal ${toval} #体系的初始体积
variable vol equal 87372.958386421 
variable vatom equal v_vol/v_nums #单个原子体积
compute 1 all stress/atom NULL #计算体系中单原子应力
compute xalls all reduce sum c_1[1]
variable xstress equal (c_xalls)/(v_toval*10000)
compute yalls all reduce sum c_1[2]
variable ystress equal (c_yalls)/(v_toval*10000)
compute zalls all reduce sum c_1[3]
variable zstress equal (c_zalls)/(v_toval*10000)
#7---------relaxation-------------------------
timestep ${tstep}
timestep 0.001
velocity all create ${temperature} 231743 units box dist gaussian
velocity all create 300 231743 units box dist gaussian
dump   1 all atom 100 all-cy.lammpstrj
#fix    1 all npt temp 300 300  0.1 aniso 0 0 10 drag 1  #三个方向独立控压
fix  1 all npt temp ${temperature} ${temperature} 0.1 x ${pressure} ${pressure} 10 y ${pressure} ${pressure} 10
fix  1 all npt temp 300 ${temperature} 0.1 x ${pressure} ${pressure} 10 y ${pressure} ${pressure} 10
fix  1 all npt temp 300 300 0.1 x ${pressure} ${pressure} 10 y ${pressure} ${pressure} 10
fix  1 all npt temp 300 300 0.1 x 0 ${pressure} 10 y ${pressure} ${pressure} 10
fix  1 all npt temp 300 300 0.1 x 0 0 10 y ${pressure} ${pressure} 10
fix  1 all npt temp 300 300 0.1 x 0 0 10 y 0 ${pressure} 10
fix  1 all npt temp 300 300 0.1 x 0 0 10 y 0 0 10
compute  2 all pe/atom
compute  pe all reduce sum c_2
variable PE equal "c_pe"
fix    pe all print 100 "${PE} " file PE.txt screen no
thermo  ${thermalstep}
thermo  100
#thermo_style  custom step pe ke etotal lx ly lz
run   ${relaxtime}
run   0
Per MPI rank memory allocation (min/avg/max) = 12.25 | 12.25 | 12.25 Mbytes
   Step          Temp          E_pair         E_mol          TotEng         Press          Volume    
         1   300           -49779.756      0             -49519.207     -5.2450422      13579278     
Loop time of 0.0983295 on 12 procs for 0 steps with 6720 atoms

31.5% CPU use with 12 MPI tasks x 1 OpenMP threads

MPI task timing breakdown:
Section |  min time  |  avg time  |  max time  |%varavg| %total
---------------------------------------------------------------
Pair    | 0          | 0          | 0          |   0.0 |  0.00
Neigh   | 0          | 0          | 0          |   0.0 |  0.00
Comm    | 0          | 0          | 0          |   0.0 |  0.00
Output  | 0          | 0          | 0          |   0.0 |  0.00
Modify  | 0          | 0          | 0          |   0.0 |  0.00
Other   |            | 0.09833    |            |       |100.00

Nlocal:            560 ave         564 max         558 min
Histogram: 8 0 0 0 0 0 0 0 0 4
Nghost:           2200 ave        2202 max        2196 min
Histogram: 4 0 0 0 0 0 0 0 0 8
Neighs:              0 ave           0 max           0 min
Histogram: 12 0 0 0 0 0 0 0 0 0

Total # of neighbors = 0
Ave neighs/atom = 0
Neighbor list builds = 0
Dangerous builds = 0
#8 -------tension-----------------------------
unfix  1
undump  1
unfix  pe
reset_timestep 0
fix avestress all ave/atom 1 ${dumpstep} ${dumpstep} c_1[1] c_1[2] c_1[3] c_1[4] c_1[5] c_1[6]
fix avestress all ave/atom 1 1000 ${dumpstep} c_1[1] c_1[2] c_1[3] c_1[4] c_1[5] c_1[6]
fix avestress all ave/atom 1 1000 1000 c_1[1] c_1[2] c_1[3] c_1[4] c_1[5] c_1[6]

#-----calculation of strain and Cumulative compression--------
variable                tmp equal "lz"
variable                L0 equal ${tmp}
variable                L0 equal 339.481961
variable                strain equal "(lz - v_L0)/v_L0"
variable                Cumulativels equal "(lz - v_L0)/10"
fix Step all print 100 "${strain} ${Cumulativels} ${zstress}" file grapoten.txt screen no

dump 2 all custom ${dumpstep} tension.xyz type x y z f_avestress[1] f_avestress[2] f_avestress[3] f_avestress[4] f_avestress[5] f_avestress[6]
dump 2 all custom 1000 tension.xyz type x y z f_avestress[1] f_avestress[2] f_avestress[3] f_avestress[4] f_avestress[5] f_avestress[6]

fix  1 all npt temp ${temperature} ${temperature} 0.1 y ${pressure} ${pressure} 10 x ${pressure} ${pressure} 10
fix  1 all npt temp 300 ${temperature} 0.1 y ${pressure} ${pressure} 10 x ${pressure} ${pressure} 10
fix  1 all npt temp 300 300 0.1 y ${pressure} ${pressure} 10 x ${pressure} ${pressure} 10
fix  1 all npt temp 300 300 0.1 y 0 ${pressure} 10 x ${pressure} ${pressure} 10
fix  1 all npt temp 300 300 0.1 y 0 0 10 x ${pressure} ${pressure} 10
fix  1 all npt temp 300 300 0.1 y 0 0 10 x 0 ${pressure} 10
fix  1 all npt temp 300 300 0.1 y 0 0 10 x 0 0 10

thermo_style custom step pe ke etotal lx ly lz
fix   2 all deform 1 z erate ${deformrate} remap x units box
fix   2 all deform 1 z erate 0.005 remap x units box
fix   3 all ave/time 2 500 1000 v_xstress v_ystress v_zstress file pressure.out
run   ${totaltime}
run   200000
WARNING: Dump 2 includes no atom IDs and is not sorted by ID. This may complicate post-processing tasks or visualization (src/dump.cpp:221)
Per MPI rank memory allocation (min/avg/max) = 13.75 | 13.75 | 13.75 Mbytes
   Step         PotEng         KinEng         TotEng           Lx             Ly             Lz      
         0  -49779.756      260.54967     -49519.207      200            200            339.48196    
       100  -49628.449      129.5432      -49498.906      199.99817      199.99813      339.6517     
       200  -49635.935      165.6166      -49470.318      199.99632      199.99599      339.82144    
       300  -49602.556      166.48261     -49436.073      199.99802      199.99723      339.99118    
       400  -49591.224      192.56779     -49398.657      199.99429      199.99269      340.16092    
       500  -49564.141      204.7077      -49359.433      199.9972       199.99481      340.33067    
       600  -49553.023      232.4856      -49320.538      199.99385      199.99073      340.50041    
       700  -49531.27       246.18335     -49285.087      199.99553      199.99189      340.67015    
       800  -49520.412      264.0214      -49256.391      199.99157      199.98645      340.83989    
       900  -49505.614      265.7511      -49239.863      199.9919       199.9854       341.00963    
      1000  -49510.698      270.03853     -49240.659      199.99185      199.98352      341.17937    
      1100  -49514.175      258.92596     -49255.249      199.98891      199.97918      341.34911    
      1200  -49520.727      254.19761     -49266.529      199.99034      199.97872      341.51885    
      1300  -49520.826      253.97577     -49266.851      199.98871      199.97441      341.68859    
      1400  -49513.645      257.47692     -49256.168      199.98765      199.97093      341.85833    
      1500  -49504.246      261.08344     -49243.163      199.98657      199.96714      342.02808    
      1600  -49506.589      269.1964      -49237.392      199.9844       199.96198      342.19782    
      1700  -49508.051      265.10553     -49242.946      199.98599      199.96014      342.36756    
      1800  -49509.745      257.51384     -49252.231      199.98253      199.95268      342.5373     
      1900  -49512.752      256.76841     -49255.984      199.98404      199.95026      342.70704    
      2000  -49511.739      261.60421     -49250.135      199.98167      199.9433       342.87678    
      2100  -49501.996      263.17219     -49238.824      199.97934      199.93685      343.04652    
      2200  -49492.819      263.67388     -49229.145      199.97817      199.93181      343.21626    
      2300  -49491.866      264.07656     -49227.789      199.97563      199.92544      343.386      
      2400  -49495.235      260.7395      -49234.495      199.97479      199.9207       343.55574    
      2500  -49498.538      258.53964     -49239.998      199.9707       199.91317      343.72549    
      2600  -49497.813      259.47711     -49238.336      199.96949      199.90854      343.89523    
      2700  -49489.262      259.87668     -49229.386      199.96538      199.90152      344.06497    
      2800  -49480.787      261.99765     -49218.789      199.96033      199.89406      344.23471    
      2900  -49477.749      265.03397     -49212.715      199.95768      199.89023      344.40445    
      3000  -49479.292      264.40942     -49214.883      199.95175      199.88371      344.57419    
      3100  -49478.772      257.83895     -49220.933      199.94731      199.87849      344.74393    
      3200  -49477.204      254.10451     -49223.1        199.94139      199.87251      344.91367    
      3300  -49475.317      257.63182     -49217.685      199.93482      199.86586      345.08341    
      3400  -49467.097      259.77174     -49207.326      199.92875      199.86015      345.25315    
      3500  -49461.978      263.64767     -49198.33       199.92016      199.85244      345.4229     
      3600  -49462.909      266.95713     -49195.952      199.91485      199.8482       345.59264    
      3700  -49460.184      260.26293     -49199.921      199.90586      199.84045      345.76238    
      3800  -49459.988      256.24406     -49203.744      199.89777      199.83379      345.93212    
      3900  -49456.139      255.22455     -49200.914      199.8897       199.82695      346.10186    
      4000  -49454.407      262.64944     -49191.758      199.88044      199.81868      346.2716     
      4100  -49446.12       265.10254     -49181.017      199.87147      199.81064      346.44134    
      4200  -49441.296      266.21852     -49175.077      199.86341      199.80273      346.61108    
      4300  -49441.819      265.5038      -49176.315      199.8545       199.79362      346.78082    
      4400  -49440.945      260.15096     -49180.794      199.84682      199.78517      346.95056    
      4500  -49437.927      257.32163     -49180.606      199.83633      199.77378      347.12031    
      4600  -49427.564      254.7287      -49172.835      199.82932      199.76523      347.29005    
      4700  -49426.509      265.58571     -49160.924      199.81901      199.75337      347.45979    
      4800  -49415.399      261.98844     -49153.411      199.81109      199.74363      347.62953    
      4900  -49415.214      262.7781      -49152.435      199.80234      199.73234      347.79927    
      5000  -49417.791      261.73689     -49156.054      199.79302      199.72033      347.96901    
      5100  -49413.061      255.52303     -49157.538      199.78501      199.70897      348.13875    
      5200  -49411.7        259.64264     -49152.058      199.77452      199.695        348.30849    
      5300  -49403.386      262.59773     -49140.788      199.76615      199.68275      348.47823    
      5400  -49392.383      262.10015     -49130.283      199.75699      199.67004      348.64797    
      5500  -49390.716      265.07619     -49125.64       199.74676      199.65582      348.81771    
      5600  -49390.628      263.50597     -49127.122      199.73851      199.64382      348.98746    
      5700  -49384.195      254.90442     -49129.29       199.72683      199.62815      349.1572     
      5800  -49381.841      255.85504     -49125.986      199.71794      199.61513      349.32694    
      5900  -49377.071      261.18308     -49115.888      199.70604      199.60005      349.49668    
      6000  -49368.064      263.83427     -49104.23       199.69565      199.58606      349.66642    
      6100  -49362.076      264.94136     -49097.135      199.6853       199.5725       349.83616    
      6200  -49359.421      262.24982     -49097.171      199.67243      199.55672      350.0059     
      6300  -49360.712      261.42871     -49099.283      199.66181      199.5433       350.17564    
      6400  -49354.425      257.4419      -49096.983      199.64854      199.52754      350.34538    
      6500  -49346.731      259.18134     -49087.55       199.63539      199.51221      350.51512    
      6600  -49335.626      260.48602     -49075.14       199.62343      199.49783      350.68487    
      6700  -49329.052      262.63959     -49066.412      199.6091       199.48128      350.85461    
      6800  -49327.177      262.41706     -49064.76       199.59642      199.46662      351.02435    
      6900  -49325.122      259.56367     -49065.558      199.58045      199.44839      351.19409    
      7000  -49321.18       257.51613     -49063.664      199.56687      199.43308      351.36383    
      7100  -49316.955      260.96665     -49055.988      199.55128      199.41577      351.53357    
      7200  -49306.506      261.48499     -49045.021      199.53513      199.39773      351.70331    
      7300  -49299.456      264.25917     -49035.197      199.52025      199.38129      351.87305    
      7400  -49296.907      266.31911     -49030.588      199.50267      199.36149      352.04279    
      7500  -49288.395      258.59439     -49029.801      199.48734      199.3437       352.21253    
      7600  -49285.807      258.0516      -49027.755      199.4689       199.32298      352.38228    
      7700  -49278.353      256.93874     -49021.414      199.45204      199.30309      352.55202    
      7800  -49267.992      257.08459     -49010.907      199.43482      199.28297      352.72176    
      7900  -49262.013      261.5909      -49000.423      199.41472      199.26029      352.8915     
      8000  -49251.7        257.40574     -48994.295      199.39761      199.24044      353.06124    
      8100  -49254.711      262.55709     -48992.154      199.37629      199.21685      353.23098    
      8200  -49247.845      257.81628     -48990.029      199.357        199.19493      353.40072    
      8300  -49243.321      259.43858     -48983.883      199.33653      199.17165      353.57046    
      8400  -49237.162      263.47976     -48973.682      199.31483      199.14721      353.7402     
      8500  -49228.802      264.9167      -48963.885      199.29483      199.12429      353.90994    
      8600  -49217.085      259.61461     -48957.471      199.27084      199.09722      354.07969    
      8700  -49212.544      257.74904     -48954.795      199.24982      199.07345      354.24943    
      8800  -49213.94       262.58313     -48951.357      199.22604      199.04659      354.41917    
      8900  -49202.353      257.76055     -48944.592      199.2012       199.01944      354.58891    
      9000  -49193.133      260.34232     -48932.791      199.17945      198.99488      354.75865    
      9100  -49185.103      263.18918     -48921.914      199.15192      198.9649       354.92839    
      9200  -49181.593      264.16552     -48917.427      199.12826      198.93802      355.09813    
      9300  -49173.4        260.05963     -48913.34       199.1021       198.90895      355.26787    
      9400  -49167.098      259.98623     -48907.111      199.07473      198.87815      355.43761    
      9500  -49157.448      257.32541     -48900.123      199.04992      198.85045      355.60735    
      9600  -49151.547      259.3933      -48892.154      199.02102      198.81812      355.7771     
      9700  -49144.97       261.9382      -48883.032      198.99504      198.78903      355.94684    
      9800  -49136.12       260.53504     -48875.585      198.96605      198.75657      356.11658    
      9900  -49132.502      260.97259     -48871.53       198.93685      198.72382      356.28632    
     10000  -49126.314      258.71911     -48867.595      198.90976      198.6928       356.45606    
     10100  -49118.745      259.03736     -48859.707      198.87885      198.65765      356.6258     
     10200  -49103.792      258.9672      -48844.824      198.85068      198.62492      356.79554    
     10300  -49099.374      263.96153     -48835.412      198.82098      198.5904       356.96528    
     10400  -49091.213      259.73979     -48831.474      198.78991      198.55415      357.13502    
     10500  -49087.758      260.92039     -48826.837      198.75919      198.51854      357.30476    
     10600  -49075.3        256.21813     -48819.082      198.72648      198.48109      357.4745     
     10700  -49069.742      260.84022     -48808.902      198.69495      198.44443      357.64425    
     10800  -49057.023      263.23221     -48793.791      198.66192      198.40615      357.81399    
     10900  -49047.222      264.3152      -48782.907      198.62918      198.36806      357.98373    
     11000  -49044.542      264.70698     -48779.835      198.59551      198.32892      358.15347    
     11100  -49040.26       264.30254     -48775.957      198.55972      198.28817      358.32321    
     11200  -49028.813      258.65289     -48770.16       198.52542      198.2484       358.49295    
     11300  -49017.213      255.94843     -48761.265      198.48815      198.20616      358.66269    
     11400  -49010.967      264.32042     -48746.647      198.45261      198.16567      358.83243    
     11500  -49000.547      264.52027     -48736.027      198.41611      198.12408      359.00217    
     11600  -48992.951      262.22762     -48730.723      198.37668      198.07977      359.17191    
     11700  -48985.018      259.90731     -48725.111      198.3393       198.03767      359.34166    
     11800  -48979.944      262.00965     -48717.935      198.29816      197.99196      359.5114     
     11900  -48968.575      259.66864     -48708.906      198.25804      197.94715      359.68114    
     12000  -48959.366      263.4726      -48695.893      198.21792      197.90316      359.85088    
     12100  -48947.494      265.10484     -48682.389      198.17539      197.85628      360.02062    
     12200  -48939.921      262.25883     -48677.662      198.13517      197.81269      360.19036    
     12300  -48934.302      261.7053      -48672.596      198.08936      197.76289      360.3601     
     12400  -48926.145      261.23136     -48664.913      198.04778      197.71756      360.52984    
     12500  -48915.374      258.87449     -48656.499      198.00379      197.66952      360.69958    
     12600  -48906.59       261.05427     -48645.536      197.95747      197.61928      360.86932    
     12700  -48894.692      263.10905     -48631.583      197.9168       197.57467      361.03907    
     12800  -48886.216      263.96708     -48622.249      197.86924      197.5232       361.20881    
     12900  -48880.455      260.7178      -48619.737      197.82488      197.47485      361.37855    
     13000  -48871.235      258.87875     -48612.356      197.77907      197.42545      361.54829    
     13100  -48861.121      259.86215     -48601.259      197.73101      197.37354      361.71803    
     13200  -48848.391      259.54985     -48588.841      197.68838      197.32675      361.88777    
     13300  -48838.541      263.74474     -48574.797      197.6389       197.27348      362.05751    
     13400  -48829.191      265.84654     -48563.344      197.59522      197.22575      362.22725    
     13500  -48820.587      259.18181     -48561.406      197.54856      197.17468      362.39699    
     13600  -48811.983      256.81569     -48555.168      197.49948      197.12146      362.56673    
     13700  -48804.827      260.16522     -48544.662      197.45633      197.0734       362.73648    
     13800  -48790.838      260.15685     -48530.681      197.40695      197.01937      362.90622    
     13900  -48780.61       262.98351     -48517.627      197.36377      196.97045      363.07596    
     14000  -48772.779      262.89806     -48509.88       197.3181       196.91881      363.2457     
     14100  -48767.712      259.79265     -48507.919      197.2711       196.86506      363.41544    
     14200  -48758.134      260.58726     -48497.546      197.22877      196.816        363.58518    
     14300  -48746.574      263.63801     -48482.936      197.18028      196.76071      363.75492    
     14400  -48730.274      260.92973     -48469.344      197.13684      196.71037      363.92466    
     14500  -48717.73       258.84966     -48458.881      197.09273      196.65921      364.0944     
     14600  -48712.254      260.00712     -48452.247      197.04608      196.60534      364.26414    
     14700  -48707.084      258.25693     -48448.827      197.00456      196.55579      364.43389    
     14800  -48696.178      259.05189     -48437.126      196.95879      196.50234      364.60363    
     14900  -48678.16       255.71495     -48422.445      196.91414      196.45023      364.77337    
     15000  -48670.104      261.64589     -48408.458      196.87143      196.40012      364.94311    
     15100  -48657.474      261.5392      -48395.934      196.82543      196.3476       365.11285    
     15200  -48647.901      262.10181     -48385.799      196.78339      196.29978      365.28259    
     15300  -48638.051      257.06953     -48380.982      196.73701      196.24837      365.45233    
     15400  -48629.391      255.50211     -48373.889      196.69299      196.19979      365.62207    
     15500  -48615.346      255.73816     -48359.608      196.64883      196.15147      365.79181    
     15600  -48607.43       262.68586     -48344.744      196.60351      196.10142      365.96155    
     15700  -48594.281      261.98941     -48332.292      196.56132      196.05565      366.13129    
     15800  -48579.441      257.74693     -48321.694      196.51655      196.0081       366.30104    
     15900  -48576.52       261.92509     -48314.595      196.47248      195.96208      366.47078    
     16000  -48564.006      254.6426      -48309.363      196.42896      195.91753      366.64052    
     16100  -48553.905      257.57032     -48296.335      196.38442      195.87253      366.81026    
     16200  -48539.317      258.14799     -48281.169      196.34222      195.82939      366.98       
     16300  -48530.185      261.70771     -48268.477      196.29905      195.78545      367.14974    
     16400  -48515.231      259.26882     -48255.962      196.25772      195.74269      367.31948    
     16500  -48502.982      259.38498     -48243.597      196.21708      195.70038      367.48922    
     16600  -48497.138      263.36373     -48233.774      196.1758       195.65779      367.65896    
     16700  -48483.926      256.79563     -48227.131      196.13633      195.61662      367.8287     
     16800  -48476.302      259.02266     -48217.279      196.09727      195.57573      367.99845    
     16900  -48461.296      260.69454     -48200.601      196.05802      195.53493      368.16819    
     17000  -48445.675      260.64356     -48185.031      196.02117      195.49555      368.33793    
     17100  -48434.751      260.71871     -48174.032      195.98455      195.45555      368.50767    
     17200  -48426.091      260.74176     -48165.349      195.94865      195.41563      368.67741    
     17300  -48415.535      258.75965     -48156.775      195.91439      195.37671      368.84715    
     17400  -48407.466      259.37505     -48148.091      195.88076      195.33784      369.01689    
     17500  -48395.554      261.276       -48134.278      195.84767      195.29972      369.18663    
     17600  -48378.717      262.72414     -48115.993      195.81584      195.26285      369.35637    
     17700  -48365.047      263.3404      -48101.707      195.78318      195.22501      369.52611    
     17800  -48348.634      258.95273     -48089.682      195.75248      195.18907      369.69586    
     17900  -48342.622      260.58665     -48082.035      195.7214       195.15256      369.8656     
     18000  -48332.698      258.07838     -48074.62       195.69092      195.11616      370.03534    
     18100  -48313.882      253.1975      -48060.685      195.66208      195.08138      370.20508    
     18200  -48299.524      255.39805     -48044.126      195.6315       195.04534      370.37482    
     18300  -48289.985      259.10937     -48030.876      195.60283      195.01196      370.54456    
     18400  -48279.414      261.55806     -48017.856      195.57309      194.97783      370.7143     
     18500  -48264.288      259.52631     -48004.762      195.54337      194.94421      370.88404    
     18600  -48252.396      260.41146     -47991.985      195.51535      194.91254      371.05378    
     18700  -48239.381      260.20407     -47979.177      195.48567      194.87934      371.22352    
     18800  -48229.215      261.69751     -47967.517      195.4585       194.84918      371.39327    
     18900  -48213.763      255.83206     -47957.931      195.42943      194.81777      371.56301    
     19000  -48204.527      256.72313     -47947.804      195.40081      194.78715      371.73275    
     19100  -48193.946      259.86217     -47934.084      195.37418      194.75917      371.90249    
     19200  -48174.064      259.09251     -47914.972      195.34433      194.72833      372.07223    
     19300  -48163.39       262.88778     -47900.503      195.3185       194.70172      372.24197    
     19400  -48151.085      260.09274     -47890.992      195.29132      194.6743       372.41171    
     19500  -48143.442      261.40389     -47882.038      195.26295      194.64573      372.58145    
     19600  -48128.879      259.27792     -47869.601      195.23855      194.62128      372.75119    
     19700  -48118.948      263.53515     -47855.413      195.20984      194.59278      372.92093    
     19800  -48102.847      261.9845      -47840.862      195.18538      194.56839      373.09068    
     19900  -48087.311      261.25362     -47826.057      195.15983      194.54299      373.26042    
     20000  -48069.68       261.86883     -47807.811      195.13368      194.5172       373.43016    
     20100  -48057.093      262.69365     -47794.4        195.11148      194.49574      373.5999     
     20200  -48051.017      263.21999     -47787.797      195.08437      194.46907      373.76964    
     20300  -48041.385      264.051       -47777.334      195.0616       194.4462       373.93938    
     20400  -48023.588      259.59087     -47763.997      195.03864      194.42327      374.10912    
     20500  -48008.1        260.29481     -47747.805      195.01329      194.39693      374.27886    
     20600  -47991.459      262.7326      -47728.727      194.99424      194.37657      374.4486     
     20700  -47976.77       261.49468     -47715.275      194.97041      194.35142      374.61834    
     20800  -47967.311      262.18268     -47705.128      194.94946      194.32912      374.78808    
     20900  -47952.131      259.11073     -47693.02       194.92883      194.30664      374.95783    
     21000  -47939.757      259.82551     -47679.932      194.90557      194.28103      375.12757    
     21100  -47924.802      258.36517     -47666.437      194.88771      194.26058      375.29731    
     21200  -47910.704      261.04498     -47649.659      194.86569      194.23514      375.46705    
     21300  -47899.827      267.80976     -47632.018      194.84711      194.21273      375.63679    
     21400  -47881.267      260.63859     -47620.629      194.82873      194.19057      375.80653    
     21500  -47867.322      254.07928     -47613.243      194.80633      194.16419      375.97627    
     21600  -47856.441      256.24651     -47600.194      194.78997      194.14392      376.14601    
     21700  -47846.334      261.97637     -47584.357      194.76771      194.11773      376.31575    
     21800  -47827.296      260.54243     -47566.754      194.74896      194.0951       376.48549    
     21900  -47814.179      264.05649     -47550.122      194.73205      194.07377      376.65524    
     22000  -47796.213      263.90171     -47532.311      194.70906      194.04709      376.82498    
     22100  -47781.202      262.27344     -47518.929      194.69378      194.028        376.99472    
     22200  -47776.042      264.3969      -47511.645      194.67128      194.00208      377.16446    
     22300  -47762.27       261.40039     -47500.87       194.65216      193.97962      377.3342     
     22400  -47744.754      257.78374     -47486.97       194.63486      193.9595       377.50394    
     22500  -47730.24       261.61631     -47468.623      194.61096      193.93346      377.67368    
     22600  -47714.467      264.44262     -47450.024      194.59634      193.91673      377.84342    
     22700  -47700.26       262.40698     -47437.853      194.5731       193.89215      378.01316    
     22800  -47692.364      260.41279     -47431.951      194.55375      193.87144      378.1829     
     22900  -47674.182      257.09762     -47417.084      194.53628      193.85284      378.35265    
     23000  -47658.817      259.69542     -47399.122      194.51215      193.82824      378.52239    
     23100  -47642.866      261.54386     -47381.322      194.49676      193.81241      378.69213    
     23200  -47628.963      262.94539     -47366.018      194.4743       193.78986      378.86187    
     23300  -47615.692      259.55654     -47356.136      194.45426      193.77008      379.03161    
     23400  -47604.712      258.16463     -47346.547      194.43777      193.75422      379.20135    
     23500  -47585.631      256.14013     -47329.491      194.41258      193.73003      379.37109    
     23600  -47568.878      258.4041      -47310.473      194.39794      193.71625      379.54083    
     23700  -47557.946      263.76286     -47294.183      194.37529      193.69497      379.71057    
     23800  -47540.041      260.13389     -47279.908      194.35462      193.67531      379.88031    
     23900  -47526.85       259.93371     -47266.916      194.33864      193.66076      380.05006    
     24000  -47514.586      258.88399     -47255.702      194.31249      193.63623      380.2198     
     24100  -47498.535      254.73009     -47243.804      194.29745      193.62269      380.38954    
     24200  -47485.843      261.77721     -47224.066      194.27524      193.60168      380.55928    
     24300  -47470.572      265.7094      -47204.863      194.25333      193.58105      380.72902    
     24400  -47447.03       258.90183     -47188.129      194.23788      193.56678      380.89876    
     24500  -47434.241      261.42306     -47172.817      194.21245      193.54182      381.0685     
     24600  -47421.871      260.66531     -47161.206      194.19557      193.52562      381.23824    
     24700  -47408.651      257.86782     -47150.784      194.17523      193.50549      381.40798    
     24800  -47395.148      260.55052     -47134.597      194.15271      193.48231      381.57772    
     24900  -47376.064      263.34876     -47112.715      194.13774      193.46614      381.74747    
     25000  -47359.059      262.79597     -47096.263      194.11329      193.44055      381.91721    
     25100  -47345.234      262.17122     -47083.063      194.09652      193.42192      382.08695    
     25200  -47326.524      255.64639     -47070.878      194.07696      193.40055      382.25669    
     25300  -47316.368      257.92103     -47058.447      194.05442      193.37513      382.42643    
     25400  -47301.209      255.45944     -47045.749      194.04018      193.35814      382.59617    
     25500  -47286.777      260.51425     -47026.262      194.01679      193.33114      382.76591    
     25600  -47267.119      261.3786      -47005.74       194.00052      193.31137      382.93565    
     25700  -47248.177      259.32483     -46988.852      193.98245      193.28988      383.10539    
     25800  -47238.401      263.36506     -46975.036      193.96007      193.26376      383.27513    
     25900  -47224.455      258.72751     -46965.727      193.9469       193.24651      383.44487    
     26000  -47207.913      256.20703     -46951.706      193.9233       193.21924      383.61462    
     26100  -47188.856      255.32226     -46933.534      193.90684      193.19933      383.78436    
     26200  -47176.54       261.21643     -46915.323      193.88992      193.17898      383.9541     
     26300  -47157.88       260.26616     -46897.614      193.86666      193.15253      384.12384    
     26400  -47141.443      260.6666      -46880.776      193.8537       193.13642      384.29358    
     26500  -47124.168      261.45463     -46862.714      193.82984      193.1097       384.46332    
     26600  -47106.193      263.04514     -46843.148      193.81232      193.08913      384.63306    
     26700  -47088.882      261.39703     -46827.485      193.79547      193.06961      384.8028     
     26800  -47082.317      264.46327     -46817.854      193.77037      193.04291      384.97254    
     26900  -47059.411      254.68151     -46804.729      193.75636      193.0275       385.14228    
     27000  -47045.944      259.27519     -46786.669      193.73248      193.00309      385.31203    
     27100  -47028.592      261.07324     -46767.519      193.71129      192.9821       385.48177    
     27200  -47012.873      262.83151     -46750.041      193.69355      192.96463      385.65151    
     27300  -46993.602      259.0976      -46734.505      193.66714      192.93851      385.82125    
     27400  -46975.603      256.42626     -46719.176      193.64967      192.92197      385.99099    
     27500  -46963.863      260.93537     -46702.927      193.62576      192.89959      386.16073    
     27600  -46950.014      263.08184     -46686.932      193.60189      192.87792      386.33047    
     27700  -46931.089      258.56484     -46672.525      193.58255      192.86113      386.50021    
     27800  -46918.427      260.80057     -46657.626      193.55376      192.83522      386.66995    
     27900  -46903.939      263.52462     -46640.414      193.53383      192.81785      386.83969    
     28000  -46883.157      263.63326     -46619.524      193.50902      192.7954       387.00944    
     28100  -46864.168      263.49843     -46600.67       193.48365      192.77165      387.17918    
     28200  -46846.285      258.80546     -46587.48       193.46465      192.75444      387.34892    
     28300  -46838.205      261.04078     -46577.164      193.43593      192.72769      387.51866    
     28400  -46820.104      259.1554      -46560.948      193.41468      192.70816      387.6884     
     28500  -46799.679      257.98211     -46541.697      193.39157      192.68644      387.85814    
     28600  -46782.125      259.96888     -46522.156      193.36523      192.66059      388.02788    
     28700  -46767.79       264.00548     -46503.784      193.34615      192.64119      388.19762    
     28800  -46745.059      257.44828     -46487.611      193.32108      192.61518      388.36736    
     28900  -46734.08       257.56345     -46476.516      193.29927      192.59209      388.5371     
     29000  -46720.486      258.17718     -46462.309      193.27933      192.5703       388.70685    
     29100  -46703.251      261.00738     -46442.243      193.25441      192.54327      388.87659    
     29200  -46684.413      263.41059     -46421.003      193.23594      192.52243      389.04633    
     29300  -46668.596      264.26936     -46404.326      193.21347      192.49675      389.21607    
     29400  -46649.789      260.62622     -46389.163      193.19132      192.47049      389.38581    
     29500  -46634.199      259.8193      -46374.379      193.17386      192.44843      389.55555    
     29600  -46620.194      259.8482      -46360.346      193.14961      192.41947      389.72529    
     29700  -46602.627      257.07993     -46345.547      193.13138      192.39654      389.89503    
     29800  -46582.159      257.97983     -46324.179      193.11023      192.37101      390.06477    
     29900  -46563.714      260.83634     -46302.878      193.08641      192.34303      390.23451    
     30000  -46546.63       262.25776     -46284.372      193.06861      192.32111      390.40426    
     30100  -46529.279      261.95349     -46267.326      193.04361      192.2921       390.574      
     30200  -46511.333      259.93738     -46251.395      193.02219      192.26697      390.74374    
     30300  -46501.315      263.89518     -46237.42       193.0021       192.24289      390.91348    
     30400  -46478.487      257.21165     -46221.275      192.97537      192.21308      391.08322    
     30500  -46460.426      259.67864     -46200.747      192.95588      192.19155      391.25296    
     30600  -46443.321      264.49781     -46178.823      192.92983      192.16406      391.4227     
     30700  -46424.589      261.88179     -46162.707      192.9049       192.1379       391.59244    
     30800  -46408.511      259.79472     -46148.717      192.88301      192.11523      391.76218    
     30900  -46394.998      260.82937     -46134.168      192.85474      192.08678      391.93192    
     31000  -46375.699      257.84451     -46117.854      192.83095      192.0633       392.10166    
     31100  -46358.195      260.65456     -46097.54       192.80538      192.03872      392.27141    
     31200  -46342.602      266.39341     -46076.208      192.77708      192.01218      392.44115    
     31300  -46320.668      261.26137     -46059.407      192.75387      191.99119      392.61089    
     31400  -46304.514      258.15149     -46046.362      192.72407      191.96359      392.78063    
     31500  -46290.916      258.27882     -46032.637      192.69804      191.93975      392.95037    
     31600  -46274.106      259.3459      -46014.761      192.67349      191.91735      393.12011    
     31700  -46252.125      262.13957     -45989.985      192.64293      191.88944      393.28985    
     31800  -46234.263      262.67937     -45971.583      192.61909      191.86858      393.45959    
     31900  -46216.262      259.22791     -45957.034      192.59099      191.84353      393.62933    
     32000  -46204.792      261.35422     -45943.438      192.56347      191.81893      393.79907    
     32100  -46187.024      259.87816     -45927.146      192.53909      191.79688      393.96882    
     32200  -46164.103      261.09116     -45903.012      192.50968      191.76937      394.13856    
     32300  -46140.867      259.07693     -45881.79       192.48579      191.74643      394.3083     
     32400  -46128.509      261.54191     -45866.967      192.45904      191.72085      394.47804    
     32500  -46115.673      262.58208     -45853.091      192.43142      191.69398      394.64778    
     32600  -46090.879      253.0004      -45837.878      192.40886      191.6725       394.81752    
     32700  -46074.718      259.95878     -45814.759      192.37954      191.64349      394.98726    
     32800  -46055.076      262.44207     -45792.634      192.3566       191.61992      395.157      
     32900  -46040.247      263.64445     -45776.603      192.33115      191.59318      395.32674    
     33000  -46023.434      260.78215     -45762.652      192.30315      191.56254      395.49648    
     33100  -46001.31       253.56175     -45747.748      192.28226      191.53922      395.66623    
     33200  -45985.943      259.79664     -45726.147      192.25406      191.50861      395.83597    
     33300  -45964.697      262.47772     -45702.219      192.22949      191.48201      396.00571    
     33400  -45945.183      259.97584     -45685.207      192.20561      191.45516      396.17545    
     33500  -45932.295      260.44492     -45671.85       192.17757      191.42311      396.34519    
     33600  -45915.789      258.91783     -45656.871      192.15577      191.39646      396.51493    
     33700  -45897.323      259.63225     -45637.691      192.12932      191.36469      396.68467    
     33800  -45874.958      261.82674     -45613.131      192.10344      191.33471      396.85441    
     33900  -45860.134      268.09621     -45592.038      192.08123      191.30829      397.02415    
     34000  -45842.384      264.66061     -45577.724      192.05249      191.27537      397.19389    
     34100  -45823.091      257.83236     -45565.258      192.02921      191.24761      397.36364    
     34200  -45808.535      260.07612     -45548.459      192.00404      191.21765      397.53338    
     34300  -45790.043      261.59703     -45528.446      191.97797      191.18692      397.70312    
     34400  -45768.488      263.38856     -45505.1        191.95436      191.15923      397.87286    
     34500  -45747.425      263.0935      -45484.331      191.92614      191.12815      398.0426     
     34600  -45731.822      262.42693     -45469.395      191.90152      191.10145      398.21234    
     34700  -45712.277      258.26944     -45454.008      191.87579      191.07369      398.38208    
     34800  -45696.773      260.70806     -45436.065      191.84683      191.0429       398.55182    
     34900  -45682.607      265.07436     -45417.532      191.8242       191.01834      398.72156    
     35000  -45656.367      258.92644     -45397.441      191.79568      190.98899      398.8913     
     35100  -45635.826      260.31993     -45375.507      191.76815      190.96203      399.06105    
     35200  -45617.4        262.03666     -45355.364      191.74285      190.93797      399.23079    
     35300  -45603.481      263.36004     -45340.121      191.71169      190.90888      399.40053    
     35400  -45588.759      260.9469      -45327.812      191.68576      190.88512      399.57027    
     35500  -45565.9        256.0354      -45309.865      191.65807      190.85938      399.74001    
     35600  -45548.124      260.69591     -45287.428      191.62741      190.83167      399.90975    
     35700  -45526.547      261.12999     -45265.417      191.6015       190.80955      400.07949    
     35800  -45507.754      260.50496     -45247.249      191.56928      190.782        400.24923    
     35900  -45490.268      260.42005     -45229.847      191.5396       190.75719      400.41897    
     36000  -45475.598      262.50976     -45213.088      191.51219      190.73439      400.58871    
     36100  -45455.906      257.60422     -45198.302      191.47886      190.70479      400.75845    
     36200  -45439.687      256.7339      -45182.953      191.45161      190.6813       400.9282     
     36300  -45417.204      256.59987     -45160.605      191.42195      190.65568      401.09794    
     36400  -45397.423      260.54565     -45136.878      191.38939      190.62638      401.26768    
     36500  -45376.013      258.92349     -45117.089      191.36303      190.60368      401.43742    
     36600  -45360.399      261.98993     -45098.409      191.331        190.57405      401.60716    
     36700  -45343.802      259.72094     -45084.081      191.30304      190.54729      401.7769     
     36800  -45327.922      257.68715     -45070.235      191.27598      190.52106      401.94664    
     36900  -45308.27       258.94531     -45049.324      191.24445      190.48978      402.11638    
     37000  -45286.609      260.10028     -45026.508      191.22009      190.46511      402.28612    
     37100  -45267.766      260.85833     -45006.908      191.19213      190.43623      402.45586    
     37200  -45245.888      257.85829     -44988.03       191.16355      190.40567      402.62561    
     37300  -45234.967      265.47086     -44969.496      191.14173      190.38059      402.79535    
     37400  -45212.859      261.01083     -44951.848      191.11295      190.34746      402.96509    
     37500  -45193.283      258.19435     -44935.089      191.0893       190.31932      403.13483    
     37600  -45177.888      261.28395     -44916.604      191.06638      190.29167      403.30457    
     37700  -45156.032      262.22387     -44893.808      191.03876      190.25871      403.47431    
     37800  -45136.598      265.53399     -44871.064      191.01859      190.23281      403.64405    
     37900  -45115.351      262.27168     -44853.08       190.99332      190.20148      403.81379    
     38000  -45099.113      257.80874     -44841.305      190.96867      190.1705       403.98353    
     38100  -45082.527      257.60734     -44824.919      190.94752      190.14338      404.15327    
     38200  -45060.808      258.79592     -44802.012      190.92005      190.11011      404.32302    
     38300  -45037.298      258.12758     -44779.17       190.89908      190.08377      404.49276    
     38400  -45017.013      258.79363     -44758.219      190.87446      190.05429      404.6625     
     38500  -44999.845      262.23233     -44737.613      190.84761      190.02281      404.83224    
     38600  -44978.803      261.38672     -44717.416      190.82698      189.99804      405.00198    
     38700  -44960.583      261.37899     -44699.204      190.79851      189.96662      405.17172    
     38800  -44942.08       257.52797     -44684.552      190.77259      189.9391       405.34146    
     38900  -44927.355      259.28116     -44668.073      190.74808      189.91372      405.5112     
     39000  -44908.056      260.87078     -44647.185      190.71875      189.88391      405.68094    
     39100  -44880.136      258.43219     -44621.704      190.69374      189.85921      405.85068    
     39200  -44864.389      262.31724     -44602.072      190.66559      189.83217      406.02043    
     39300  -44845.969      259.73526     -44586.234      190.63583      189.80515      406.19017    
     39400  -44830.047      260.48781     -44569.559      190.60961      189.78195      406.35991    
     39500  -44811.486      259.85847     -44551.628      190.5795       189.75511      406.52965    
     39600  -44794.386      262.50543     -44531.881      190.55082      189.73006      406.69939    
     39700  -44771.069      259.29331     -44511.775      190.52333      189.70654      406.86913    
     39800  -44754.046      261.35852     -44492.687      190.49351      189.68124      407.03887    
     39900  -44733.985      260.27445     -44473.71       190.46488      189.65717      407.20861    
     40000  -44713.696      260.18153     -44453.515      190.4371       189.6337       407.37835    
     40100  -44696.521      263.78736     -44432.734      190.40955      189.60993      407.54809    
     40200  -44674.255      260.43741     -44413.817      190.38065      189.58488      407.71784    
     40300  -44661.598      264.27331     -44397.325      190.35374      189.56202      407.88758    
     40400  -44636.938      255.7023      -44381.236      190.32644      189.53867      408.05732    
     40500  -44618.44       257.94818     -44360.492      190.29845      189.5136       408.22706    
     40600  -44594.901      260.57454     -44334.326      190.27335      189.49113      408.3968     
     40700  -44576.578      262.88137     -44313.697      190.24654      189.46627      408.56654    
     40800  -44559.924      262.00368     -44297.92       190.2219       189.44273      408.73628    
     40900  -44539.252      257.59781     -44281.655      190.19619      189.41761      408.90602    
     41000  -44521.788      260.02666     -44261.761      190.17099      189.39242      409.07576    
     41100  -44498.573      260.91554     -44237.658      190.14789      189.3689       409.2455     
     41200  -44476.754      265.33985     -44211.414      190.12265      189.34197      409.41524    
     41300  -44459.008      264.53552     -44194.473      190.09987      189.31683      409.58499    
     41400  -44442.585      262.24172     -44180.344      190.07615      189.29056      409.75473    
     41500  -44424.624      260.79349     -44163.831      190.05132      189.26345      409.92447    
     41600  -44403.216      259.17294     -44144.043      190.02949      189.2387       410.09421    
     41700  -44383.261      263.02851     -44120.233      190.00526      189.21041      410.26395    
     41800  -44360.992      264.4898      -44096.502      189.98242      189.1834       410.43369    
     41900  -44341.922      263.41929     -44078.502      189.96197      189.15809      410.60343    
     42000  -44323.719      261.03059     -44062.689      189.93718      189.12862      410.77317    
     42100  -44302.691      257.96082     -44044.73       189.91542      189.10207      410.94291    
     42200  -44284.085      258.33777     -44025.747      189.89365      189.07573      411.11265    
     42300  -44263.251      257.14458     -44006.106      189.86931      189.04719      411.2824     
     42400  -44248.052      262.68278     -43985.37       189.84942      189.02239      411.45214    
     42500  -44227.775      262.88175     -43964.894      189.82704      188.99517      411.62188    
     42600  -44206.308      259.32876     -43946.98       189.80358      188.96735      411.79162    
     42700  -44187.916      256.26968     -43931.647      189.78405      188.94406      411.96136    
     42800  -44171.76       258.11813     -43913.642      189.75968      188.9167       412.1311     
     42900  -44147.932      258.574       -43889.358      189.73764      188.89184      412.30084    
     43000  -44127.357      263.22819     -43864.129      189.71691      188.86781      412.47058    
     43100  -44110.784      265.03895     -43845.745      189.69399      188.84187      412.64032    
     43200  -44086.678      256.14699     -43830.531      189.6728       188.81917      412.81006    
     43300  -44070.854      258.43763     -43812.416      189.64966      188.79522      412.97981    
     43400  -44047.549      256.98468     -43790.564      189.62717      188.77213      413.14955    
     43500  -44023.634      260.70235     -43762.931      189.6053       188.75084      413.31929    
     43600  -44009.808      265.70232     -43744.106      189.58119      188.72788      413.48903    
     43700  -43990.07       261.62016     -43728.45       189.55763      188.70596      413.65877    
     43800  -43969.846      258.64642     -43711.199      189.53528      188.68593      413.82851    
     43900  -43951.385      260.23473     -43691.15       189.51001      188.66413      413.99825    
     44000  -43927.843      259.92351     -43667.919      189.4867       188.64416      414.16799    
     44100  -43905.192      265.62002     -43639.572      189.46229      188.62414      414.33773    
     44200  -43885.005      263.92696     -43621.078      189.43665      188.60309      414.50747    
     44300  -43870.11       263.00281     -43607.108      189.41351      188.58521      414.67722    
     44400  -43852.309      261.32342     -43590.985      189.38642      188.56424      414.84696    
     44500  -43829.089      256.21867     -43572.87       189.36059      188.54382      415.0167     
     44600  -43812.956      260.41914     -43552.537      189.33716      188.52552      415.18644    
     44700  -43790.51       261.18786     -43529.322      189.31087      188.50428      415.35618    
     44800  -43772.301      267.01471     -43505.287      189.28576      188.48432      415.52592    
     44900  -43750.296      262.53981     -43487.756      189.26221      188.46594      415.69566    
     45000  -43731.457      257.59221     -43473.865      189.23575      188.44334      415.8654     
     45100  -43714.361      259.60825     -43454.753      189.21313      188.42395      416.03514    
     45200  -43692.673      259.6196      -43433.054      189.19021      188.40294      416.20488    
     45300  -43671.503      262.06233     -43409.44       189.16537      188.38015      416.37463    
     45400  -43649.334      264.02569     -43385.309      189.14536      188.36155      416.54437    
     45500  -43630.541      264.84094     -43365.7        189.12224      188.33902      416.71411    
     45600  -43615.361      262.01367     -43353.347      189.10095      188.31727      416.88385    
     45700  -43591.183      255.88062     -43335.303      189.08251      188.29691      417.05359    
     45800  -43576.91       262.01355     -43314.896      189.06098      188.27284      417.22333    
     45900  -43554.373      262.56491     -43291.808      189.04299      188.25184      417.39307    
     46000  -43529.619      262.44087     -43267.179      189.02439      188.22959      417.56281    
     46100  -43511.807      264.20843     -43247.599      189.00531      188.20577      417.73255    
     46200  -43493.926      258.62117     -43235.304      188.98889      188.18389      417.90229    
     46300  -43475.857      260.58231     -43215.274      188.96987      188.15897      418.07203    
     46400  -43452.903      261.46616     -43191.437      188.95404      188.13748      418.24178    
     46500  -43430.961      262.66524     -43168.296      188.93705      188.11491      418.41152    
     46600  -43409.646      260.30365     -43149.342      188.91834      188.0901       418.58126    
     46700  -43392.229      255.43395     -43136.795      188.9025       188.06803      418.751      
     46800  -43375.549      258.81643     -43116.733      188.88477      188.04478      418.92074    
     46900  -43351.778      259.25423     -43092.523      188.86623      188.02133      419.09048    
     47000  -43331.354      262.25172     -43069.102      188.84916      187.99994      419.26022    
     47100  -43309.327      261.46795     -43047.859      188.82893      187.97572      419.42996    
     47200  -43289.462      260.25992     -43029.202      188.81215      187.95501      419.5997     
     47300  -43273.028      259.45618     -43013.572      188.79269      187.93277      419.76944    
     47400  -43253.085      253.26438     -42999.82       188.77162      187.90978      419.93919    
     47500  -43236.918      259.63552     -42977.282      188.75417      187.89081      420.10893    
     47600  -43211.413      259.69862     -42951.714      188.73297      187.86858      420.27867    
     47700  -43192.577      264.38817     -42928.189      188.71246      187.84754      420.44841    
     47800  -43170.809      262.54805     -42908.261      188.69419      187.82941      420.61815    
     47900  -43152.505      259.08187     -42893.423      188.67056      187.80699      420.78789    
     48000  -43130.892      255.08642     -42875.806      188.65175      187.78983      420.95763    
     48100  -43116.754      262.46829     -42854.286      188.63118      187.77102      421.12737    
     48200  -43092.164      260.60691     -42831.557      188.6087       187.75063      421.29711    
     48300  -43068.902      259.11182     -42809.79       188.59087      187.7358       421.46685    
     48400  -43050.454      261.21392     -42789.24       188.5674       187.71569      421.6366     
     48500  -43030.338      260.55466     -42769.783      188.54638      187.69837      421.80634    
     48600  -43010.979      261.42927     -42749.55       188.52755      187.68298      421.97608    
     48700  -42986.233      257.50152     -42728.731      188.50354      187.66268      422.14582    
     48800  -42967.532      260.01927     -42707.513      188.48469      187.64794      422.31556    
     48900  -42951.179      265.52178     -42685.658      188.46496      187.63254      422.4853     
     49000  -42926.692      262.09633     -42664.595      188.441        187.61306      422.65504    
     49100  -42905.314      258.85196     -42646.462      188.42345      187.59975      422.82478    
     49200  -42889.23       258.93288     -42630.297      188.40192      187.58209      422.99452    
     49300  -42866.277      256.02029     -42610.257      188.37912      187.56322      423.16426    
     49400  -42848.136      263.83826     -42584.298      188.36228      187.55019      423.33401    
     49500  -42824.008      264.31644     -42559.691      188.33919      187.53052      423.50375    
     49600  -42803.693      263.12425     -42540.569      188.31881      187.51268      423.67349    
     49700  -42784.173      260.72615     -42523.447      188.30182      187.49781      423.84323    
     49800  -42764.856      259.41286     -42505.444      188.27798      187.47582      424.01297    
     49900  -42743.537      258.22831     -42485.309      188.26108      187.46016      424.18271    
     50000  -42723.376      260.9106      -42462.465      188.2417       187.44197      424.35245    
     50100  -42701.133      264.10633     -42437.027      188.21865      187.41937      424.52219    
     50200  -42682.059      264.71238     -42417.346      188.20319      187.40366      424.69193    
     50300  -42666.321      263.74724     -42402.574      188.1834       187.38304      424.86167    
     50400  -42640.969      257.28738     -42383.682      188.16312      187.36127      425.03142    
     50500  -42623.481      260.55197     -42362.929      188.14824      187.34476      425.20116    
     50600  -42602.782      262.07554     -42340.707      188.12794      187.32238      425.3709     
     50700  -42582.055      263.53668     -42318.518      188.11136      187.30283      425.54064    
     50800  -42560.597      260.0358      -42300.561      188.09666      187.28422      425.71038    
     50900  -42544.516      260.1685      -42284.347      188.07701      187.26015      425.88012    
     51000  -42521.763      257.33473     -42264.428      188.06321      187.24174      426.04986    
     51100  -42503.156      263.19443     -42239.961      188.04713      187.22074      426.2196     
     51200  -42476.027      263.08033     -42212.946      188.02997      187.19905      426.38934    
     51300  -42455.162      261.49373     -42193.668      188.01706      187.18025      426.55908    
     51400  -42438.009      261.86121     -42176.148      188.00079      187.1579       426.72882    
     51500  -42419.955      261.67518     -42158.28       187.98668      187.13813      426.89857    
     51600  -42401.228      261.05441     -42140.174      187.97293      187.11893      427.06831    
     51700  -42380.619      260.92563     -42119.693      187.95453      187.09605      427.23805    
     51800  -42358.425      263.0411      -42095.384      187.94149      187.07834      427.40779    
     51900  -42331.94       264.53882     -42067.402      187.92522      187.05794      427.57753    
     52000  -42310.278      261.52968     -42048.748      187.90719      187.0362       427.74727    
     52100  -42291.011      258.81931     -42032.191      187.89361      187.01968      427.91701    
     52200  -42274.633      261.89842     -42012.735      187.87528      186.99923      428.08675    
     52300  -42252.289      260.37933     -41991.909      187.85732      186.97961      428.25649    
     52400  -42232.231      260.97188     -41971.259      187.84166      186.96331      428.42623    
     52500  -42213.375      259.62854     -41953.746      187.82193      186.94323      428.59598    
     52600  -42191.586      256.65372     -41934.933      187.8033       186.92558      428.76572    
     52700  -42173.805      261.94839     -41911.857      187.78515      186.9099       428.93546    
     52800  -42149.193      264.73678     -41884.457      187.76305      186.8904       429.1052     
     52900  -42129.375      266.53702     -41862.838      187.74449      186.87464      429.27494    
     53000  -42107.423      261.96437     -41845.459      187.72509      186.8584       429.44468    
     53100  -42087.355      261.05438     -41826.301      187.70364      186.84079      429.61442    
     53200  -42070.318      262.84348     -41807.474      187.68442      186.82618      429.78416    
     53300  -42049.799      260.46179     -41789.337      187.66337      186.80967      429.9539     
     53400  -42030.196      260.09921     -41770.097      187.64195      186.79319      430.12364    
     53500  -42007.168      257.08676     -41750.082      187.62257      186.77858      430.29339    
     53600  -41985.439      258.50942     -41726.93       187.60071      186.76204      430.46313    
     53700  -41962.099      260.94154     -41701.158      187.58082      186.74746      430.63287    
     53800  -41942.476      263.85056     -41678.625      187.5597       186.73184      430.80261    
     53900  -41922.311      260.03548     -41662.276      187.53991      186.71667      430.97235    
     54000  -41903.343      259.33189     -41644.011      187.5214       186.70229      431.14209    
     54100  -41880.078      257.51481     -41622.563      187.49976      186.68471      431.31183    
     54200  -41861.068      262.148       -41598.92       187.48169      186.66983      431.48157    
     54300  -41836.845      261.69378     -41575.151      187.464        186.65462      431.65131    
     54400  -41816.581      263.35351     -41553.227      187.44322      186.63562      431.82105    
     54500  -41797.58       261.25171     -41536.329      187.42668      186.62084      431.9908     
     54600  -41776.702      258.50987     -41518.192      187.40835      186.60387      432.16054    
     54700  -41752.929      256.13821     -41496.791      187.38988      186.58509      432.33028    
     54800  -41734.748      263.03658     -41471.711      187.37386      186.569        432.50002    
     54900  -41708.838      264.78925     -41444.049      187.35552      186.55009      432.66976    
     55000  -41690.661      264.92758     -41425.733      187.33821      186.53166      432.8395     
     55100  -41671.863      262.56567     -41409.298      187.3221       186.51369      433.00924    
     55200  -41651.867      261.66037     -41390.207      187.30402      186.49364      433.17898    
     55300  -41632.765      261.53067     -41371.235      187.2874       186.47418      433.34872    
     55400  -41610.591      259.80093     -41350.79       187.27087      186.45464      433.51846    
     55500  -41588.588      259.08546     -41329.502      187.25368      186.43466      433.68821    
     55600  -41566.618      259.66097     -41306.957      187.23766      186.41498      433.85795    
     55700  -41545.38       261.94226     -41283.438      187.22127      186.39403      434.02769    
     55800  -41525.691      262.81392     -41262.877      187.20453      186.3731       434.19743    
     55900  -41511.457      265.22533     -41246.232      187.18909      186.35226      434.36717    
     56000  -41485.407      259.31792     -41226.089      187.17334      186.33147      434.53691    
     56100  -41464.276      260.74039     -41203.536      187.15786      186.31124      434.70665    
     56200  -41444.234      262.77295     -41181.461      187.14173      186.29054      434.87639    
     56300  -41421.886      259.35426     -41162.532      187.12623      186.26962      435.04613    
     56400  -41404.578      260.59446     -41143.984      187.11204      186.25012      435.21587    
     56500  -41381.601      259.65433     -41121.946      187.0951       186.22869      435.38561    
     56600  -41359.125      263.72334     -41095.401      187.07985      186.20955      435.55536    
     56700  -41332.883      264.04638     -41068.836      187.06473      186.19061      435.7251     
     56800  -41314.028      262.49914     -41051.528      187.04734      186.16956      435.89484    
     56900  -41293.687      260.33682     -41033.35       187.03188      186.1505       436.06458    
     57000  -41275.194      263.19247     -41012.002      187.01632      186.13255      436.23432    
     57100  -41249.891      258.60932     -40991.282      186.99813      186.11281      436.40406    
     57200  -41232.605      261.71812     -40970.887      186.98151      186.09526      436.5738     
     57300  -41214.431      262.32249     -40952.108      186.96371      186.07698      436.74354    
     57400  -41189.012      256.99975     -40932.012      186.9452       186.05869      436.91328    
     57500  -41167.934      261.98267     -40905.951      186.92741      186.04192      437.08302    
     57600  -41139.946      263.14236     -40876.803      186.90734      186.02397      437.25277    
     57700  -41118.288      262.55932     -40855.728      186.88652      186.00609      437.42251    
     57800  -41099.644      261.78839     -40837.855      186.86857      185.99082      437.59225    
     57900  -41080.438      262.62061     -40817.817      186.84709      185.973        437.76199    
     58000  -41058.817      261.21284     -40797.604      186.82654      185.95726      437.93173    
     58100  -41035.053      257.2686      -40777.785      186.80608      185.94177      438.10147    
     58200  -41013.389      256.53508     -40756.854      186.7831       185.92456      438.27121    
     58300  -40995.936      260.35156     -40735.584      186.76296      185.90987      438.44095    
     58400  -40978.462      257.69232     -40720.77       186.74131      185.89425      438.61069    
     58500  -40958.944      262.11206     -40696.832      186.71831      185.87715      438.78043    
     58600  -40928.57       259.17678     -40669.394      186.6987       185.86318      438.95018    
     58700  -40907.757      262.77809     -40644.978      186.67585      185.84498      439.11992    
     58800  -40886.983      260.25529     -40626.728      186.65549      185.82952      439.28966    
     58900  -40868.75       260.81247     -40607.938      186.63544      185.81405      439.4594     
     59000  -40844.127      259.29668     -40584.83       186.61343      185.79546      439.62914    
     59100  -40822.584      260.65253     -40561.931      186.59439      185.77969      439.79888    
     59200  -40801.596      259.555       -40542.041      186.5746       185.76246      439.96862    
     59300  -40779.742      256.75371     -40522.988      186.55507      185.74429      440.13836    
     59400  -40758.41       258.93868     -40499.472      186.53743      185.72717      440.3081     
     59500  -40732.611      258.34327     -40474.268      186.51789      185.70741      440.47784    
     59600  -40714.049      263.97168     -40450.077      186.50067      185.68982      440.64759    
     59700  -40693.337      259.76562     -40433.572      186.48243      185.67151      440.81733    
     59800  -40671.585      259.37123     -40412.214      186.46466      185.65205      440.98707    
     59900  -40651.028      262.95821     -40388.07       186.44811      185.63313      441.15681    
     60000  -40624.347      261.88034     -40362.466      186.42956      185.61156      441.32655    
     60100  -40597.58       259.05233     -40338.528      186.41376      185.59244      441.49629    
     60200  -40580.823      259.67548     -40321.147      186.39649      185.57205      441.66603    
     60300  -40555.943      256.61997     -40299.323      186.37834      185.55119      441.83577    
     60400  -40536.627      260.08496     -40276.542      186.3628       185.53233      442.00551    
     60500  -40515.971      260.43822     -40255.533      186.34315      185.50966      442.17525    
     60600  -40493.825      257.35458     -40236.47       186.32711      185.48947      442.345      
     60700  -40471.163      257.74499     -40213.418      186.3104       185.46871      442.51474    
     60800  -40447.4        258.91785     -40188.482      186.29188      185.44606      442.68448    
     60900  -40426.576      261.64499     -40164.931      186.27467      185.42558      442.85422    
     61000  -40406.792      262.84875     -40143.943      186.25681      185.40443      443.02396    
     61100  -40383.468      258.54957     -40124.919      186.23953      185.3836       443.1937     
     61200  -40360.539      259.43468     -40101.104      186.22173      185.3625       443.36344    
     61300  -40338.627      262.78409     -40075.843      186.20473      185.34187      443.53318    
     61400  -40314.263      260.47952     -40053.783      186.18622      185.32071      443.70292    
     61500  -40294.142      258.89227     -40035.25       186.1691       185.30111      443.87266    
     61600  -40271.112      259.25309     -40011.859      186.15154      185.28112      444.0424     
     61700  -40248.477      262.31606     -39986.161      186.1327       185.26028      444.21215    
     61800  -40224.417      261.66665     -39962.75       186.11494      185.2404       444.38189    
     61900  -40204.949      261.15344     -39943.795      186.09739      185.22087      444.55163    
     62000  -40180.184      258.91016     -39921.274      186.07902      185.20117      444.72137    
     62100  -40156.166      261.28069     -39894.886      186.06092      185.18228      444.89111    
     62200  -40132.717      262.07196     -39870.645      186.0419       185.16332      445.06085    
     62300  -40109.216      257.65833     -39851.558      186.02289      185.14449      445.23059    
     62400  -40091.751      262.07228     -39829.678      186.00394      185.12623      445.40033    
     62500  -40062.587      259.71576     -39802.871      185.98364      185.10735      445.57007    
     62600  -40038.914      263.44447     -39775.469      185.96391      185.08871      445.73981    
     62700  -40010.693      259.76347     -39750.929      185.9432       185.06988      445.90956    
     62800  -39994.816      263.06744     -39731.748      185.92334      185.05249      446.0793     
     62900  -39965.97       256.97098     -39708.999      185.90316      185.03543      446.24904    
     63000  -39946.494      261.00681     -39685.487      185.88034      185.01624      446.41878    
     63100  -39923.323      261.10244     -39662.221      185.86074      185.00009      446.58852    
     63200  -39898.246      256.45588     -39641.791      185.8384       184.98179      446.75826    
     63300  -39876.634      259.62462     -39617.009      185.81643      184.9639       446.928      
     63400  -39851.507      261.35034     -39590.157      185.79617      184.94732      447.09774    
     63500  -39824.417      259.78522     -39564.632      185.77269      184.92787      447.26748    
     63600  -39801.602      259.13596     -39542.466      185.75241      184.91123      447.43722    
     63700  -39778.136      257.93067     -39520.205      185.73141      184.894        447.60697    
     63800  -39757.128      263.12418     -39494.004      185.7091       184.8752       447.77671    
     63900  -39729.969      260.6728      -39469.297      185.68855      184.85807      447.94645    
     64000  -39708.38       261.63617     -39446.743      185.66835      184.84092      448.11619    
     64100  -39684.819      262.05627     -39422.762      185.647        184.82203      448.28593    
     64200  -39660.556      263.10253     -39397.454      185.62752      184.80433      448.45567    
     64300  -39630.462      257.78365     -39372.678      185.60729      184.78534      448.62541    
     64400  -39608.162      258.38376     -39349.778      185.58783      184.76682      448.79515    
     64500  -39582.358      257.26801     -39325.09       185.56874      184.74851      448.96489    
     64600  -39558.37       261.01259     -39297.357      185.54852      184.7284       449.13463    
     64700  -39533.344      261.43181     -39271.912      185.53031      184.71013      449.30438    
     64800  -39512.678      263.55826     -39249.12       185.51173      184.69067      449.47412    
     64900  -39479.708      255.12974     -39224.578      185.4927       184.67051      449.64386    
     65000  -39458.943      261.15173     -39197.792      185.47522      184.65181      449.8136     
     65100  -39429.875      259.34843     -39170.526      185.45591      184.63126      449.98334    
     65200  -39408.919      263.50402     -39145.415      185.43791      184.61172      450.15308    
     65300  -39382.855      261.61056     -39121.244      185.41999      184.59199      450.32282    
     65400  -39355.434      260.38114     -39095.052      185.40065      184.57019      450.49256    
     65500  -39328.984      260.89872     -39068.085      185.38362      184.55085      450.6623     
     65600  -39305.399      261.75542     -39043.643      185.36557      184.52994      450.83204    
     65700  -39276.707      258.74226     -39017.965      185.34721      184.50923      451.00179    
     65800  -39253.264      262.56333     -38990.701      185.32983      184.489        451.17153    
     65900  -39227.201      261.64823     -38965.553      185.31124      184.4675       451.34127    
     66000  -39202.515      262.92312     -38939.592      185.29454      184.44772      451.51101    
     66100  -39176.922      264.07406     -38912.848      185.27575      184.42627      451.68075    
     66200  -39146.51       260.01476     -38886.496      185.25839      184.40631      451.85049    
     66300  -39122.007      261.71673     -38860.29       185.24086      184.38616      452.02023    
     66400  -39097.699      264.06933     -38833.63       185.22244      184.36485      452.18997    
     66500  -39070.507      263.31893     -38807.188      185.20681      184.34633      452.35971    
     66600  -39042.429      261.96766     -38780.462      185.18826      184.32488      452.52945    
     66700  -39013.68       260.75649     -38752.924      185.17137      184.30517      452.69919    
     66800  -38989.369      263.21486     -38726.154      185.15406      184.28573      452.86894    
     66900  -38964.399      265.24436     -38699.154      185.13603      184.26591      453.03868    
     67000  -38933.925      262.26483     -38671.66       185.11901      184.24778      453.20842    
     67100  -38907.126      263.64109     -38643.485      185.10021      184.228        453.37816    
     67200  -38875.232      260.04361     -38615.188      185.08317      184.21048      453.5479     
     67300  -38848.084      260.71535     -38587.369      185.06412      184.19108      453.71764    
     67400  -38820.564      261.11999     -38559.444      185.0462       184.1735       453.88738    
     67500  -38794.966      263.33858     -38531.627      185.02788      184.15568      454.05712    
     67600  -38764.667      260.53906     -38504.128      185.00834      184.13738      454.22686    
     67700  -38738.666      261.63745     -38477.029      184.99007      184.12069      454.3966     
     67800  -38709.154      260.93063     -38448.223      184.97056      184.10307      454.56635    
     67900  -38683.444      263.92886     -38419.515      184.95114      184.08593      454.73609    
     68000  -38653.83       263.05468     -38390.776      184.93121      184.06861      454.90583    
     68100  -38623.513      261.4176      -38362.095      184.91178      184.05195      455.07557    
     68200  -38597.885      264.35401     -38333.531      184.89247      184.03553      455.24531    
     68300  -38568.477      264.38866     -38304.088      184.87236      184.01842      455.41505    
     68400  -38539.508      264.58012     -38274.928      184.85307      184.00197      455.58479    
     68500  -38511.543      265.03652     -38246.506      184.83409      183.98581      455.75453    
     68600  -38480.144      262.5515      -38217.593      184.81442      183.96902      455.92427    
     68700  -38451.126      263.64125     -38187.485      184.7959       183.95304      456.09401    
     68800  -38420.279      262.07178     -38158.207      184.77694      183.93663      456.26376    
     68900  -38390.965      262.03331     -38128.931      184.75796      183.92028      456.4335     
     69000  -38362.134      262.89143     -38099.243      184.73965      183.90476      456.60324    
     69100  -38334.404      264.54061     -38069.863      184.72086      183.88822      456.77298    
     69200  -38306.955      267.94966     -38039.005      184.70329      183.87262      456.94272    
     69300  -38270.751      263.23436     -38007.517      184.68478      183.85549      457.11246    
     69400  -38237.952      261.37412     -37976.578      184.66789      183.83987      457.2822     
     69500  -38211.795      265.13702     -37946.658      184.65006      183.82302      457.45194    
     69600  -38180.68       264.66308     -37916.017      184.6324       183.806        457.62168    
     69700  -38149.466      263.7121      -37885.754      184.61648      183.79052      457.79142    
     69800  -38119.163      264.54114     -37854.622      184.5982       183.77267      457.96117    
     69900  -38086.836      264.18847     -37822.648      184.58208      183.75675      458.13091    
     70000  -38058.081      266.57524     -37791.505      184.56535      183.73988      458.30065    
     70100  -38027.297      267.18499     -37760.112      184.54813      183.7222       458.47039    
     70200  -37993.509      264.48656     -37729.022      184.53283      183.70641      458.64013    
     70300  -37963.27       264.87358     -37698.396      184.5157       183.68837      458.80987    
     70400  -37932.529      265.19238     -37667.336      184.49978      183.67171      458.97961    
     70500  -37894.732      260.8313      -37633.901      184.48438      183.65525      459.14935    
     70600  -37869.504      265.91594     -37603.588      184.46716      183.63684      459.31909    
     70700  -37841.877      269.3183      -37572.559      184.45306      183.62155      459.48883    
     70800  -37806.833      266.99609     -37539.837      184.43673      183.6036       459.65858    
     70900  -37772.656      265.31828     -37507.338      184.42115      183.58627      459.82832    
     71000  -37742.359      266.38047     -37475.978      184.40698      183.5703       459.99806    
     71100  -37708.647      265.19697     -37443.45       184.39124      183.55233      460.1678     
     71200  -37678.879      267.58425     -37411.295      184.37743      183.53627      460.33754    
     71300  -37643.133      265.61365     -37377.519      184.36225      183.51866      460.50728    
     71400  -37611.811      266.91365     -37344.897      184.34796      183.50207      460.67702    
     71500  -37578.004      266.98321     -37311.021      184.334        183.48602      460.84676    
     71600  -37543.28       266.51726     -37276.762      184.31846      183.46847      461.0165     
     71700  -37509.298      266.12722     -37243.171      184.30518      183.45337      461.18624    
     71800  -37475.245      266.88805     -37208.357      184.28985      183.43613      461.35598    
     71900  -37441.184      266.66316     -37174.52       184.27552      183.41998      461.52573    
     72000  -37414.021      275.14816     -37138.873      184.26167      183.40455      461.69547    
     72100  -37375.332      271.64715     -37103.685      184.24583      183.3875       461.86521    
     72200  -37340.707      269.79644     -37070.911      184.23207      183.37298      462.03495    
     72300  -37303.583      267.01194     -37036.571      184.21613      183.35648      462.20469    
     72400  -37274.162      271.56126     -37002.601      184.20203      183.34167      462.37443    
     72500  -37244.386      274.47806     -36969.908      184.18749      183.32657      462.54417    
     72600  -37213.599      274.5275      -36939.071      184.17139      183.31018      462.71391    
     72700  -37172.638      269.27406     -36903.364      184.15742      183.29622      462.88365    
     72800  -37134.837      268.40369     -36866.434      184.14145      183.28038      463.05339    
     72900  -37102.173      273.42796     -36828.745      184.12658      183.26589      463.22314    
     73000  -37066.359      272.84136     -36793.518      184.11166      183.25152      463.39288    
     73100  -37034.41       275.75439     -36758.656      184.09558      183.23628      463.56262    
     73200  -37000.282      278.44718     -36721.834      184.0813       183.22292      463.73236    
     73300  -36964.716      277.66733     -36687.049      184.06537      183.20804      463.9021     
     73400  -36927.176      275.02278     -36652.154      184.05079      183.1942       464.07184    
     73500  -36889.466      273.43823     -36616.028      184.03572      183.17997      464.24158    
     73600  -36859.493      278.81675     -36580.676      184.02036      183.16549      464.41132    
     73700  -36816.804      275.79246     -36541.012      184.00562      183.15187      464.58106    
     73800  -36785.454      280.49949     -36504.955      183.99022      183.13783      464.7508     
     73900  -36745.982      278.67055     -36467.312      183.9749       183.12401      464.92055    
     74000  -36708.833      277.6104      -36431.223      183.95997      183.11051      465.09029    
     74100  -36674.711      281.46972     -36393.241      183.94459      183.09647      465.26003    
     74200  -36637.129      281.94963     -36355.18       183.92974      183.08282      465.42977    
     74300  -36602.277      283.97708     -36318.3        183.91458      183.0688       465.59951    
     74400  -36562.948      282.72957     -36280.218      183.89949      183.05501      465.76925    
     74500  -36523.973      279.59756     -36244.375      183.88443      183.04132      465.93899    
     74600  -36490.966      283.92303     -36207.043      183.86919      183.02769      466.10873    
     74700  -36458.504      291.56264     -36166.941      183.85388      183.01392      466.27847    
     74800  -36412.444      286.9328      -36125.511      183.83869      183.00006      466.44821    
     74900  -36369.836      283.28958     -36086.547      183.82373      182.98631      466.61796    
     75000  -36334.095      287.89618     -36046.199      183.80887      182.97243      466.7877     
     75100  -36299.783      289.31045     -36010.472      183.79379      182.95825      466.95744    
     75200  -36259.065      291.32067     -35967.745      183.77898      182.9443       467.12718    
     75300  -36222.245      292.13364     -35930.111      183.76391      182.9302       467.29692    
     75400  -36184.574      292.3505      -35892.223      183.74916      182.91618      467.46666    
     75500  -36148.44       293.79368     -35854.646      183.73458      182.90222      467.6364     
     75600  -36104.744      293.34011     -35811.403      183.71965      182.88753      467.80614    
     75700  -36067.085      296.26768     -35770.818      183.70531      182.87348      467.97588    
     75800  -36023.721      296.47405     -35727.247      183.69025      182.85873      468.14562    
     75900  -35990.517      301.91373     -35688.603      183.67568      182.84455      468.31537    
     76000  -35944.728      301.58334     -35643.145      183.66123      182.8304       468.48511    
     76100  -35901.376      302.61888     -35598.757      183.64584      182.81503      468.65485    
     76200  -35862.432      309.81048     -35552.622      183.63208      182.80118      468.82459    
     76300  -35824.223      315.13871     -35509.084      183.61692      182.78584      468.99433    
     76400  -35776.406      314.96512     -35461.441      183.6023       182.77115      469.16407    
     76500  -35737.528      315.22825     -35422.3        183.58761      182.75648      469.33381    
     76600  -35698.281      312.38298     -35385.898      183.57239      182.74128      469.50355    
     76700  -35663.691      316.87188     -35346.819      183.55799      182.72679      469.67329    
     76800  -35616.721      314.0229      -35302.699      183.54327      182.7117       469.84303    
     76900  -35570.956      319.58154     -35251.374      183.52792      182.69598      470.01278    
     77000  -35526.822      319.65935     -35207.163      183.5138       182.68166      470.18252    
     77100  -35491.177      324.94451     -35166.233      183.49808      182.66598      470.35226    
     77200  -35439.965      317.66586     -35122.299      183.48315      182.65077      470.522      
     77300  -35400.531      322.7365      -35077.795      183.4686       182.63592      470.69174    
     77400  -35419.546      376.33964     -35043.206      183.45284      182.61967      470.86148    
     77500  -35680.437      600.98578     -35079.451      183.44029      182.60542      471.03122    
     77600  -36360.686      1042.8905     -35317.795      183.4301       182.59541      471.20096    
     77700  -37525.758      1420.0309     -36105.727      183.43059      182.60211      471.3707     
     77800  -38727.232      1426.5619     -37300.67       183.45937      182.63988      471.54044    
     77900  -39710.79       1249.6311     -38461.159      183.4809       182.66946      471.71018    
     78000  -40589.4        1091.4576     -39497.942      183.4948       182.68373      471.87993    
     78100  -41348.086      963.44736     -40384.639      183.53073      182.72022      472.04967    
     78200  -42016.292      861.89173     -41154.401      183.56306      182.75395      472.21941    
     78300  -42603.864      778.32419     -41825.539      183.59862      182.79113      472.38915    
     78400  -43122.668      709.45657     -42413.212      183.63911      182.8344       472.55889    
     78500  -43586.865      653.75603     -42933.109      183.67631      182.87643      472.72863    
     78600  -44005.516      607.89677     -43397.619      183.71698      182.92219      472.89837    
     78700  -44391.978      573.39349     -43818.585      183.75296      182.96352      473.06811    
     78800  -44753.467      546.60904     -44206.858      183.78776      183.00414      473.23785    
     78900  -45093.762      524.34513     -44569.417      183.82037      183.04288      473.40759    
     79000  -45415.466      505.01916     -44910.447      183.85178      183.08105      473.57734    
     79100  -45721.222      488.48648     -45232.735      183.8838       183.12044      473.74708    
     79200  -46013.107      474.12636     -45538.981      183.91327      183.15759      473.91682    
     79300  -46293.242      461.81676     -45831.425      183.94323      183.19542      474.08656    
     79400  -46563.48       451.35795     -46112.123      183.972        183.23212      474.2563     
     79500  -46824.86       442.11123     -46382.749      183.99969      183.26787      474.42604    
     79600  -47078.533      433.97111     -46644.562      184.02743      183.30382      474.59578    
     79700  -47325.275      426.68453     -46898.591      184.05375      183.33843      474.76552    
     79800  -47565.682      420.03766     -47145.644      184.07982      183.37286      474.93526    
     79900  -47800.561      414.09519     -47386.466      184.10513      183.40647      475.105      
     80000  -48030.584      408.87503     -47621.709      184.12977      183.43935      475.27475    
     80100  -48243.447      395.15941     -47848.288      184.15424      183.472        475.44449    
     80200  -48435.697      377.99439     -48057.703      184.17912      183.50496      475.61423    
     80300  -48610.458      361.4894      -48248.968      184.20386      183.53773      475.78397    
     80400  -48767.979      345.27806     -48422.7        184.22874      183.5705       475.95371    
     80500  -48909.532      330.06617     -48579.466      184.25403      183.60358      476.12345    
     80600  -49034.827      315.25809     -48719.569      184.27943      183.63663      476.29319    
     80700  -49144.049      300.94724     -48843.102      184.30555      183.67025      476.46293    
     80800  -49237.079      287.1587      -48949.921      184.33209      183.70417      476.63267    
     80900  -49313.779      274.1946      -49039.584      184.35945      183.73874      476.80241    
     81000  -49373.428      262.29504     -49111.133      184.38775      183.77416      476.97216    
     81100  -49416.369      253.45713     -49162.912      184.41658      183.81         477.1419     
     81200  -49445.551      251.34506     -49194.206      184.44495      183.84501      477.31164    
     81300  -49460.761      253.20955     -49207.552      184.47326      183.87974      477.48138    
     81400  -49461.827      254.60618     -49207.221      184.50151      183.91433      477.65112    
     81500  -49446.848      251.55487     -49195.293      184.52839      183.9473       477.82086    
     81600  -49413.034      245.30524     -49167.729      184.55285      183.9775       477.9906     
     81700  -49358.304      238.28493     -49120.019      184.57762      184.00781      478.16034    
     81800  -49283.643      227.64596     -49055.997      184.60013      184.0356       478.33008    
     81900  -49193.06       210.39461     -48982.665      184.62329      184.06393      478.49982    
     82000  -49086.421      180.63983     -48905.781      184.64419      184.09002      478.66957    
     82100  -48972.384      139.56996     -48832.814      184.66544      184.11641      478.83931    
     82200  -48873.81       100.20286     -48773.607      184.68426      184.14042      479.00905    
     82300  -48872.119      162.0575      -48710.061      184.69664      184.15752      479.17879    
     82400  -48909.589      291.47101     -48618.118      184.68185      184.14832      479.34853    
     82500  -48941.959      327.11946     -48614.839      184.70164      184.17421      479.51827    
     82600  -48959.098      249.53433     -48709.564      184.71729      184.19991      479.68801    
     82700  -48962.557      219.18812     -48743.369      184.72573      184.22125      479.85775    
     82800  -48979.969      264.34791     -48715.621      184.73644      184.25226      480.02749    
     82900  -48982.847      289.93656     -48692.91       184.76136      184.30126      480.19723    
     83000  -49015.672      286.93691     -48728.735      184.77901      184.32884      480.36697    
     83100  -49067.251      267.05712     -48800.194      184.80799      184.35949      480.53672    
     83200  -49114.825      256.54248     -48858.283      184.83765      184.39143      480.70646    
     83300  -49130.06       238.98652     -48891.073      184.85825      184.41783      480.8762     
     83400  -49127.065      241.39426     -48885.671      184.88225      184.43916      481.04594    
     83500  -49117.743      266.06568     -48851.677      184.90055      184.45525      481.21568    
     83600  -49109.9        281.95603     -48827.944      184.92068      184.47353      481.38542    
     83700  -49121.895      276.56052     -48845.334      184.93304      184.48431      481.55516    
     83800  -49142.184      255.16964     -48887.015      184.95125      184.49831      481.7249     
     83900  -49161.796      245.92041     -48915.876      184.97127      184.51962      481.89464    
     84000  -49168.443      251.14433     -48917.299      184.9892       184.53834      482.06438    
     84100  -49172.438      270.16057     -48902.278      185.0059       184.5586       482.23413    
     84200  -49183.425      277.41845     -48906.007      185.02628      184.5825       482.40387    
     84300  -49202.873      262.25853     -48940.614      185.04234      184.60419      482.57361    
     84400  -49217.929      246.63824     -48971.291      185.05983      184.62694      482.74335    
     84500  -49223.79       247.91891     -48975.871      185.07496      184.65526      482.91309    
     84600  -49225.771      267.40643     -48958.364      185.08769      184.68584      483.08283    
     84700  -49229.047      277.41141     -48951.635      185.09597      184.71234      483.25257    
     84800  -49238.165      263.22618     -48974.938      185.1063       184.73916      483.42231    
     84900  -49251.573      251.68911     -48999.884      185.12052      184.77021      483.59205    
     85000  -49250.153      247.11069     -49003.043      185.12959      184.79725      483.76179    
     85100  -49244.764      261.99497     -48982.769      185.14364      184.82668      483.93154    
     85200  -49235.417      272.47527     -48962.942      185.15229      184.84795      484.10128    
     85300  -49234.081      267.17732     -48966.904      185.16807      184.87054      484.27102    
     85400  -49235.688      253.97583     -48981.712      185.1816       184.8889       484.44076    
     85500  -49235.531      251.99676     -48983.534      185.19504      184.90531      484.6105     
     85600  -49222.447      257.23688     -48965.21       185.21097      184.92292      484.78024    
     85700  -49212.173      270.20609     -48941.967      185.22246      184.93436      484.94998    
     85800  -49211.32       272.02872     -48939.292      185.24396      184.95485      485.11972    
     85900  -49222.525      265.64667     -48956.878      185.25739      184.96422      485.28946    
     86000  -49219.212      245.64589     -48973.566      185.27726      184.97771      485.4592     
     86100  -49228.051      256.84522     -48971.206      185.29717      184.99515      485.62895    
     86200  -49228.621      267.65503     -48960.966      185.31662      185.01091      485.79869    
     86300  -49226.007      264.16081     -48961.847      185.335        185.02172      485.96843    
     86400  -49236.847      263.94269     -48972.905      185.35237      185.02642      486.13817    
     86500  -49236.4        252.22226     -48984.178      185.37429      185.03578      486.30791    
     86600  -49243.474      257.83135     -48985.642      185.3954       185.04535      486.47765    
     86700  -49240.344      261.06971     -48979.274      185.41591      185.05402      486.64739    
     86800  -49228.864      259.31473     -48969.549      185.43889      185.06628      486.81713    
     86900  -49224.104      261.62414     -48962.48       185.45091      185.07211      486.98687    
     87000  -49213.818      258.91486     -48954.904      185.46555      185.0912       487.15661    
     87100  -49203.973      258.85746     -48945.116      185.47587      185.10207      487.32636    
     87200  -49187.692      256.87106     -48930.821      185.49226      185.11936      487.4961     
     87300  -49174.349      261.35955     -48912.99       185.5073       185.13334      487.66584    
     87400  -49166.514      265.64007     -48900.874      185.51553      185.14578      487.83558    
     87500  -49162.948      264.79238     -48898.155      185.52684      185.15869      488.00532    
     87600  -49159.669      260.78433     -48898.885      185.53223      185.16678      488.17506    
     87700  -49161.779      263.91846     -48897.861      185.54476      185.18536      488.3448     
     87800  -49166.326      265.99282     -48900.333      185.5473       185.19722      488.51454    
     87900  -49176.336      262.77455     -48913.561      185.5561       185.21688      488.68428    
     88000  -49189.095      255.66159     -48933.433      185.55715      185.23427      488.85402    
     88100  -49198.552      250.9371      -48947.615      185.56469      185.25763      489.02376    
     88200  -49204.068      256.85862     -48947.209      185.56465      185.27675      489.19351    
     88300  -49204.1        267.13388     -48936.966      185.56062      185.29931      489.36325    
     88400  -49205.59       269.65963     -48935.931      185.56133      185.32669      489.53299    
     88500  -49212.276      263.45041     -48948.826      185.56181      185.34982      489.70273    
     88600  -49221.146      256.47718     -48964.669      185.56912      185.37188      489.87247    
     88700  -49220.722      249.53908     -48971.183      185.57792      185.38703      490.04221    
     88800  -49220.065      257.80299     -48962.262      185.59111      185.4035       490.21195    
     88900  -49213.233      265.68207     -48947.55       185.59828      185.412        490.38169    
     89000  -49208.709      267.26695     -48941.442      185.60555      185.42079      490.55143    
     89100  -49213.808      265.1018      -48948.707      185.61694      185.43383      490.72117    
     89200  -49216.396      256.50859     -48959.888      185.6201       185.438        490.89092    
     89300  -49220.305      255.79762     -48964.507      185.62611      185.44822      491.06066    
     89400  -49221.679      258.5426      -48963.136      185.62757      185.456        491.2304     
     89500  -49223.65       260.7882      -48962.862      185.62873      185.46447      491.40014    
     89600  -49228.24       261.29682     -48966.943      185.63593      185.4721       491.56988    
     89700  -49230.042      256.76725     -48973.275      185.64168      185.47761      491.73962    
     89800  -49232.192      256.6163      -48975.575      185.65193      185.4837       491.90936    
     89900  -49229.924      258.67969     -48971.245      185.6605       185.48765      492.0791     
     90000  -49230.7        264.97782     -48965.722      185.67402      185.49698      492.24884    
     90100  -49231.99       265.34046     -48966.649      185.68181      185.50627      492.41858    
     90200  -49234.1        259.26173     -48974.839      185.68684      185.51596      492.58833    
     90300  -49236.56       256.76626     -48979.794      185.69558      185.52959      492.75807    
     90400  -49234.548      259.24053     -48975.307      185.697        185.53941      492.92781    
     90500  -49223.504      260.72664     -48962.777      185.7025       185.55382      493.09755    
     90600  -49217.471      263.41559     -48954.055      185.70569      185.56498      493.26729    
     90700  -49220.197      263.18273     -48957.014      185.70638      185.57286      493.43703    
     90800  -49223.839      258.26998     -48965.569      185.71088      185.58531      493.60677    
     90900  -49216.554      252.23017     -48964.324      185.71136      185.59242      493.77651    
     91000  -49218.061      265.40537     -48952.656      185.71921      185.60598      493.94625    
     91100  -49211.99       265.92062     -48946.07       185.72359      185.61097      494.11599    
     91200  -49215.804      265.16778     -48950.636      185.73049      185.6154       494.28574    
     91300  -49217.815      256.36967     -48961.445      185.73879      185.61884      494.45548    
     91400  -49223.459      256.81162     -48966.647      185.74655      185.61838      494.62522    
     91500  -49227.066      261.06575     -48966          185.75952      185.62424      494.79496    
     91600  -49224.738      259.49259     -48965.246      185.76829      185.62446      494.9647     
     91700  -49228.597      262.27001     -48966.327      185.78286      185.62791      495.13444    
     91800  -49232.788      263.77348     -48969.014      185.79387      185.63121      495.30418    
     91900  -49235.213      260.64591     -48974.567      185.8025       185.6319       495.47392    
     92000  -49231.419      253.99109     -48977.428      185.80936      185.63518      495.64366    
     92100  -49229.263      256.75416     -48972.509      185.81134      185.63634      495.8134     
     92200  -49222.931      260.12369     -48962.807      185.81281      185.64065      495.98315    
     92300  -49225.784      269.06404     -48956.72       185.81395      185.64679      496.15289    
     92400  -49219.97       260.25576     -48959.714      185.81396      185.65075      496.32263    
     92500  -49227.49       260.22378     -48967.266      185.81282      185.65532      496.49237    
     92600  -49226.826      255.70961     -48971.117      185.81104      185.65925      496.66211    
     92700  -49219.89       254.31592     -48965.574      185.80894      185.66449      496.83185    
     92800  -49218.694      265.3927      -48953.302      185.80493      185.67084      497.00159    
     92900  -49216.078      270.23333     -48945.845      185.80304      185.6781       497.17133    
     93000  -49218.994      266.63136     -48952.363      185.79991      185.68138      497.34107    
     93100  -49233.892      262.75812     -48971.134      185.79865      185.68714      497.51081    
     93200  -49248.936      256.04644     -48992.89       185.79729      185.69438      497.68055    
     93300  -49253.781      249.82851     -49003.952      185.79333      185.70066      497.8503     
     93400  -49258.572      258.60745     -48999.964      185.79347      185.71306      498.02004    
     93500  -49250.494      262.27479     -48988.219      185.78995      185.72057      498.18978    
     93600  -49251.569      269.55944     -48982.01       185.79239      185.73245      498.35952    
     93700  -49247.799      260.27166     -48987.527      185.79288      185.74025      498.52926    
     93800  -49250.388      254.38587     -48996.003      185.79424      185.74898      498.699      
     93900  -49245.313      250.91898     -48994.394      185.79512      185.7581       498.86874    
     94000  -49235.172      255.99956     -48979.172      185.79474      185.76353      499.03848    
     94100  -49222.761      264.58472     -48958.176      185.79793      185.77267      499.20822    
     94200  -49215.91       271.32