LAMMPS (2 Aug 2023 - Update 3)
OMP_NUM_THREADS environment is not set. Defaulting to 1 thread. (src/comm.cpp:98)
  using 1 OpenMP thread(s) per MPI task

# 1------general---------------
units                             metal      #单位为lammps 中的metel 类型
dimension                    3          #模拟的维度 三维
boundary                    p p p      #周期边界条件
atom_style                  atomic   #原子类型自动
atom_modify              map array sort 100 2.0
neighbor                    3.0 bin
neigh_modify            every 1 delay 0 check yes
#2 -----global variable-------定义全局变量，方便统一修改；
variable temperature equal 300
variable tstep equal 0.001
variable pressure equal 0
variable thermalstep equal 100
variable dumpstep equal 1000
variable relaxtime equal 0
variable totaltime equal 100000
variable deformrate equal 5e-3
#3 -------model------------
#box tilt large
read_data     1.lmp
Reading data file ...
  orthogonal box = (-100 -100 -2.3312512) to (100 100 41.316429)
  3 by 4 by 1 MPI processor grid
  reading atoms ...
  1824 atoms
  read_data CPU = 0.006 seconds
replicate 1 1 15
Replication is creating a 1x1x15 = 15 times larger system...
  orthogonal box = (-100 -100 -2.3312512) to (100 100 652.38395)
  1 by 2 by 6 MPI processor grid
  27360 atoms
  replicate CPU = 0.002 seconds
write_data h.data
System init for write_data ...
WARNING: Communication cutoff is 0.0. No ghost atoms will be generated. Atoms may get lost. (src/comm_brick.cpp:210)
pair_style hybrid airebo 3.0 airebo 3.0 airebo 3.0 lj/cut 10
pair_coeff * * airebo 1 CH.airebo C NULL NULL
Reading airebo potential file CH.airebo with DATE: 2011-10-25
pair_coeff * * airebo 2 CH.airebo NULL C NULL
Reading airebo potential file CH.airebo with DATE: 2011-10-25
pair_coeff * * airebo 3 CH.airebo NULL NULL C
Reading airebo potential file CH.airebo with DATE: 2011-10-25
pair_coeff 1 2 lj/cut 0.00456 3.431
pair_coeff 1 3 lj/cut 0.00456 3.431
pair_coeff 2 3 lj/cut 0.00456 3.431

# 5------minimize -----------
min_style      sd
minimize       1.0e-4 1.0e-6 100 1000
Neighbor list info ...
  update: every = 1 steps, delay = 0 steps, check = yes
  max neighbors/atom: 2000, page size: 100000
  master list distance cutoff = 13.2
  ghost atom cutoff = 13.2
  binsize = 6.6, bins = 31 31 100
  6 neighbor lists, perpetual/occasional/extra = 6 0 0
  (1) pair airebo, perpetual, skip from (5)
      attributes: full, newton on, ghost
      pair build: skip/ghost
      stencil: none
      bin: none
  (2) pair airebo, perpetual, skip from (5)
      attributes: full, newton on, ghost
      pair build: skip/ghost
      stencil: none
      bin: none
  (3) pair airebo, perpetual, skip from (5)
      attributes: full, newton on, ghost
      pair build: skip/ghost
      stencil: none
      bin: none
  (4) pair lj/cut, perpetual, skip from (6)
      attributes: half, newton on, cut 13
      pair build: skip
      stencil: none
      bin: none
  (5) neighbor class addition, perpetual
      attributes: full, newton on, ghost
      pair build: full/bin/ghost
      stencil: full/ghost/bin/3d
      bin: standard
  (6) neighbor class addition, perpetual
      attributes: half, newton on, cut 13
      pair build: half/bin/atomonly/newton
      stencil: half/bin/3d
      bin: standard
Per MPI rank memory allocation (min/avg/max) = 18.09 | 18.27 | 18.46 Mbytes
   Step          Temp          E_pair         E_mol          TotEng         Press     
         0   0             -197105.47      0             -197105.47      705.43265    
         4   0             -197777.68      0             -197777.68      93.415916    
Loop time of 0.310376 on 12 procs for 4 steps with 27360 atoms

97.8% CPU use with 12 MPI tasks x 1 OpenMP threads

Minimization stats:
  Stopping criterion = energy tolerance
  Energy initial, next-to-last, final = 
      -197105.46953678  -197760.846152581  -197777.675656172
  Force two-norm initial, final = 267.46349 44.591224
  Force max component initial, final = 3.4318528 0.54749295
  Final line search alpha, max atom move = 0.13695896 0.074984064
  Iterations, force evaluations = 4 8

MPI task timing breakdown:
Section |  min time  |  avg time  |  max time  |%varavg| %total
---------------------------------------------------------------
Pair    | 0.27596    | 0.28887    | 0.29945    |   1.3 | 93.07
Neigh   | 0          | 0          | 0          |   0.0 |  0.00
Comm    | 0.0035887  | 0.013599   | 0.022971   |   5.2 |  4.38
Output  | 0          | 0          | 0          |   0.0 |  0.00
Modify  | 0          | 0          | 0          |   0.0 |  0.00
Other   |            | 0.00791    |            |       |  2.55

Nlocal:           2280 ave        2337 max        2224 min
Histogram: 6 0 0 0 0 0 0 0 0 6
Nghost:           3362 ave        3422 max        3301 min
Histogram: 3 3 0 0 0 0 0 0 3 3
Neighs:              0 ave           0 max           0 min
Histogram: 12 0 0 0 0 0 0 0 0 0

Total # of neighbors = 0
Ave neighs/atom = 0
Neighbor list builds = 0
Dangerous builds = 0
#6----define computes------
variable nums equal count(all) #计算原子数目
variable toval equal 22.7273*22.7165*lz #计算系统总体积，单层石墨烯厚度为0.335nm
variable vol equal ${toval} #体系的初始体积
variable vol equal 338019.450175904 
variable vatom equal v_vol/v_nums #单个原子体积
compute 1 all stress/atom NULL #计算体系中单原子应力
compute xalls all reduce sum c_1[1]
variable xstress equal (c_xalls)/(v_toval*10000)
compute yalls all reduce sum c_1[2]
variable ystress equal (c_yalls)/(v_toval*10000)
compute zalls all reduce sum c_1[3]
variable zstress equal (c_zalls)/(v_toval*10000)
#7---------relaxation-------------------------
timestep ${tstep}
timestep 0.001
velocity all create ${temperature} 231743 units box dist gaussian
velocity all create 300 231743 units box dist gaussian
dump   1 all atom 100 all-cy.lammpstrj
#fix    1 all npt temp 300 300  0.1 aniso 0 0 10 drag 1  #三个方向独立控压
fix  1 all npt temp ${temperature} ${temperature} 0.1 x ${pressure} ${pressure} 10 y ${pressure} ${pressure} 10
fix  1 all npt temp 300 ${temperature} 0.1 x ${pressure} ${pressure} 10 y ${pressure} ${pressure} 10
fix  1 all npt temp 300 300 0.1 x ${pressure} ${pressure} 10 y ${pressure} ${pressure} 10
fix  1 all npt temp 300 300 0.1 x 0 ${pressure} 10 y ${pressure} ${pressure} 10
fix  1 all npt temp 300 300 0.1 x 0 0 10 y ${pressure} ${pressure} 10
fix  1 all npt temp 300 300 0.1 x 0 0 10 y 0 ${pressure} 10
fix  1 all npt temp 300 300 0.1 x 0 0 10 y 0 0 10
compute  2 all pe/atom
compute  pe all reduce sum c_2
variable PE equal "c_pe"
fix    pe all print 100 "${PE} " file PE.txt screen no
thermo  ${thermalstep}
thermo  100
#thermo_style  custom step pe ke etotal lx ly lz
run   ${relaxtime}
run   0
Per MPI rank memory allocation (min/avg/max) = 18.71 | 18.9 | 19.09 Mbytes
   Step          Temp          E_pair         E_mol          TotEng         Press          Volume    
         4   300           -197777.68      0             -196716.75      136.6865       26188608     
Loop time of 2.49383e-05 on 12 procs for 0 steps with 27360 atoms

96.9% CPU use with 12 MPI tasks x 1 OpenMP threads

MPI task timing breakdown:
Section |  min time  |  avg time  |  max time  |%varavg| %total
---------------------------------------------------------------
Pair    | 0          | 0          | 0          |   0.0 |  0.00
Neigh   | 0          | 0          | 0          |   0.0 |  0.00
Comm    | 0          | 0          | 0          |   0.0 |  0.00
Output  | 0          | 0          | 0          |   0.0 |  0.00
Modify  | 0          | 0          | 0          |   0.0 |  0.00
Other   |            | 2.494e-05  |            |       |100.00

Nlocal:           2280 ave        2302 max        2261 min
Histogram: 6 0 0 0 0 0 0 3 0 3
Nghost:         3361.5 ave        3383 max        3337 min
Histogram: 3 0 0 3 0 0 0 0 3 3
Neighs:              0 ave           0 max           0 min
Histogram: 12 0 0 0 0 0 0 0 0 0

Total # of neighbors = 0
Ave neighs/atom = 0
Neighbor list builds = 0
Dangerous builds = 0
#8 -------tension-----------------------------
unfix  1
undump  1
unfix  pe
reset_timestep 0
fix avestress all ave/atom 1 ${dumpstep} ${dumpstep} c_1[1] c_1[2] c_1[3] c_1[4] c_1[5] c_1[6]
fix avestress all ave/atom 1 1000 ${dumpstep} c_1[1] c_1[2] c_1[3] c_1[4] c_1[5] c_1[6]
fix avestress all ave/atom 1 1000 1000 c_1[1] c_1[2] c_1[3] c_1[4] c_1[5] c_1[6]

#-----calculation of strain and Cumulative compression--------
variable                tmp equal "lz"
variable                L0 equal ${tmp}
variable                L0 equal 654.715205262
variable                strain equal "(lz - v_L0)/v_L0"
variable                Cumulativels equal "(lz - v_L0)/10"
fix Step all print 100 "${strain} ${Cumulativels} ${zstress}" file grapoten.txt screen no

dump 2 all custom ${dumpstep} tension.xyz type x y z f_avestress[1] f_avestress[2] f_avestress[3] f_avestress[4] f_avestress[5] f_avestress[6]
dump 2 all custom 1000 tension.xyz type x y z f_avestress[1] f_avestress[2] f_avestress[3] f_avestress[4] f_avestress[5] f_avestress[6]

fix  1 all npt temp ${temperature} ${temperature} 0.1 y ${pressure} ${pressure} 10 x ${pressure} ${pressure} 10
fix  1 all npt temp 300 ${temperature} 0.1 y ${pressure} ${pressure} 10 x ${pressure} ${pressure} 10
fix  1 all npt temp 300 300 0.1 y ${pressure} ${pressure} 10 x ${pressure} ${pressure} 10
fix  1 all npt temp 300 300 0.1 y 0 ${pressure} 10 x ${pressure} ${pressure} 10
fix  1 all npt temp 300 300 0.1 y 0 0 10 x ${pressure} ${pressure} 10
fix  1 all npt temp 300 300 0.1 y 0 0 10 x 0 ${pressure} 10
fix  1 all npt temp 300 300 0.1 y 0 0 10 x 0 0 10

thermo_style custom step pe ke etotal lx ly lz
fix   2 all deform 1 z erate ${deformrate} remap x units box
fix   2 all deform 1 z erate 0.005 remap x units box
fix   3 all ave/time 2 500 1000 v_xstress v_ystress v_zstress file pressure.out
run   ${totaltime}
run   100000
WARNING: Dump 2 includes no atom IDs and is not sorted by ID. This may complicate post-processing tasks or visualization (src/dump.cpp:221)
Per MPI rank memory allocation (min/avg/max) = 20.21 | 20.4 | 20.59 Mbytes
   Step         PotEng         KinEng         TotEng           Lx             Ly             Lz      
         0  -197777.68      1060.9285     -196716.75      200            200            654.71521    
       100  -197179.55      530.52526     -196649.02      199.99178      199.99141      655.04256    
       200  -197228.04      668.37516     -196559.67      199.98392      199.98597      655.36992    
       300  -197162.75      708.60017     -196454.14      200.00251      200.00842      655.69728    
       400  -197118         778.62525     -196339.37      199.99436      200.0072       656.02464    
       500  -197067.48      848.08133     -196219.4       199.98352      200.00589      656.35199    
       600  -197011.22      915.70268     -196095.52      199.99682      200.0273       656.67935    
       700  -196941.25      965.8149      -195975.44      199.98712      200.02275      657.00671    
       800  -196842.15      976.54327     -195865.61      199.96864      200.00809      657.33407    
       900  -196801.96      1030.9636     -195771         199.97109      200.01088      657.66142    
      1000  -196739.64      1035.2046     -195704.43      199.98035      200.01891      657.98878    
      1100  -196777.41      1090.1851     -195687.23      199.97229      200.00855      658.31614    
      1200  -196767.26      1043.01       -195724.25      199.98248      200.01594      658.6435     
      1300  -196822.12      1060.6557     -195761.46      199.98639      200.01658      658.97085    
      1400  -196822.65      1055.0259     -195767.63      199.97718      200.00578      659.29821    
      1500  -196817.35      1077.5941     -195739.75      199.97869      200.00539      659.62557    
      1600  -196808.85      1106.0019     -195702.85      199.9828       200.0071       659.95293    
      1700  -196762.79      1077.3365     -195685.45      199.97317      199.99664      660.28028    
      1800  -196782.64      1079.561      -195703.08      199.96992      199.9926       660.60764    
      1900  -196759.69      1029.7452     -195729.94      199.97915      200.00237      660.935      
      2000  -196779.95      1042.2327     -195737.71      199.97084      199.99664      661.26236    
      2100  -196747.82      1027.1854     -195720.63      199.96305      199.99235      661.58971    
      2200  -196753.79      1060.6175     -195693.17      199.95983      199.99356      661.91707    
      2300  -196742.49      1068.3177     -195674.17      199.95655      199.99526      662.24443    
      2400  -196762.65      1083.0884     -195679.56      199.94692      199.99115      662.57179    
      2500  -196763.62      1063.1579     -195700.46      199.94494      199.99637      662.89915    
      2600  -196759.82      1052.0788     -195707.75      199.94031      200.0006       663.2265     
      2700  -196759.7       1068.6124     -195691.08      199.92815      199.99861      663.55386    
      2800  -196725.24      1062.8295     -195662.41      199.91869      200.00016      663.88122    
      2900  -196726.61      1082.6643     -195643.94      199.91238      200.00493      664.20858    
      3000  -196701.95      1055.7795     -195646.17      199.9064       200.00922      664.53593    
      3100  -196716.03      1058.103      -195657.92      199.8952       200.00716      664.86329    
      3200  -196693.32      1033.5695     -195659.75      199.89039      200.00793      665.19065    
      3300  -196705.83      1059.7909     -195646.04      199.88062      200.00319      665.51801    
      3400  -196682.43      1057.9193     -195624.51      199.87287      199.99968      665.84536    
      3500  -196684.16      1075.9707     -195608.19      199.86711      199.99657      666.17272    
      3600  -196667.37      1065.1358     -195602.24      199.86225      199.99372      666.50008    
      3700  -196675.25      1070.9983     -195604.25      199.85475      199.9872       666.82744    
      3800  -196673.84      1065.1993     -195608.64      199.85149      199.9829       667.15479    
      3900  -196659.87      1058.2622     -195601.61      199.84741      199.97699      667.48215    
      4000  -196649.63      1069.6813     -195579.95      199.84104      199.96678      667.80951    
      4100  -196627.71      1070.2436     -195557.47      199.84137      199.962        668.13687    
      4200  -196615.92      1067.6701     -195548.25      199.84031      199.95476      668.46422    
      4300  -196602.54      1052.874      -195549.66      199.83776      199.94378      668.79158    
      4400  -196608.67      1057.2472     -195551.42      199.83549      199.9341       669.11894    
      4500  -196597.95      1052.1569     -195545.79      199.83685      199.92822      669.4463     
      4600  -196590.19      1060.4218     -195529.77      199.83118      199.91623      669.77365    
      4700  -196569.15      1059.2297     -195509.92      199.82671      199.90691      670.10101    
      4800  -196555.93      1059.6053     -195496.32      199.82426      199.90217      670.42837    
      4900  -196550.04      1059.965      -195490.07      199.81725      199.89448      670.75573    
      5000  -196548.1       1059.7965     -195488.31      199.80642      199.88501      671.08309    
      5100  -196543.1       1057.7034     -195485.4       199.79829      199.88045      671.41044    
      5200  -196536.97      1061.9236     -195475.04      199.78955      199.87517      671.7378     
      5300  -196514.31      1060.1777     -195454.14      199.77491      199.86615      672.06516    
      5400  -196490.36      1063.467      -195426.89      199.76408      199.86002      672.39252    
      5500  -196468.42      1060.8035     -195407.62      199.75351      199.8546       672.71987    
      5600  -196467.39      1063.4318     -195403.95      199.74056      199.84802      673.04723    
      5700  -196462.07      1052.5181     -195409.55      199.72645      199.84122      673.37459    
      5800  -196459.42      1050.1417     -195409.28      199.71317      199.83851      673.70195    
      5900  -196445.39      1053.3841     -195392         199.69869      199.83445      674.0293     
      6000  -196423.74      1061.1502     -195362.59      199.68637      199.83199      674.35666    
      6100  -196401.81      1065.3938     -195336.41      199.6749       199.83066      674.68402    
      6200  -196391.88      1068.4822     -195323.4       199.66291      199.82651      675.01138    
      6300  -196379.75      1058.6237     -195321.13      199.65165      199.82153      675.33873    
      6400  -196374.47      1057.6382     -195316.84      199.6404       199.81444      675.66609    
      6500  -196360.8       1056.2032     -195304.6       199.6307       199.80729      675.99345    
      6600  -196338.48      1056.9326     -195281.55      199.62219      199.79865      676.32081    
      6700  -196322.95      1068.8849     -195254.06      199.61245      199.78854      676.64816    
      6800  -196301.09      1062.1787     -195238.91      199.59879      199.77523      676.97552    
      6900  -196294.11      1057.5323     -195236.57      199.58631      199.76295      677.30288    
      7000  -196286.6       1057.0077     -195229.59      199.57178      199.75065      677.63024    
      7100  -196269.29      1055.8798     -195213.41      199.55934      199.73901      677.9576     
      7200  -196256.5       1061.2924     -195195.21      199.54696      199.72917      678.28495    
      7300  -196241.43      1060.2952     -195181.13      199.53402      199.71828      678.61231    
      7400  -196227.26      1059.8683     -195167.39      199.52051      199.70807      678.93967    
      7500  -196215         1061.192      -195153.81      199.5067       199.69955      679.26703    
      7600  -196195.99      1057.8674     -195138.12      199.48955      199.68749      679.59438    
      7700  -196181.89      1062.7722     -195119.12      199.4716       199.67643      679.92174    
      7800  -196157.62      1059.8488     -195097.78      199.45813      199.66907      680.2491     
      7900  -196141.85      1062.0859     -195079.76      199.44285      199.65931      680.57646    
      8000  -196129.19      1059.662      -195069.53      199.42822      199.64722      680.90381    
      8100  -196116.55      1055.7887     -195060.77      199.41527      199.63534      681.23117    
      8200  -196103.75      1058.0934     -195045.65      199.39994      199.62194      681.55853    
      8300  -196084.17      1060.8963     -195023.27      199.38231      199.60691      681.88589    
      8400  -196060.52      1063.872      -194996.65      199.36653      199.59466      682.21324    
      8500  -196050.02      1074.423      -194975.59      199.35271      199.58277      682.5406     
      8600  -196025.01      1060.8948     -194964.11      199.33746      199.56968      682.86796    
      8700  -196013.65      1059.5752     -194954.07      199.32088      199.55807      683.19532    
      8800  -195990.76      1052.5401     -194938.22      199.30545      199.54639      683.52267    
      8900  -195979.07      1064.125      -194914.95      199.28984      199.53454      683.85003    
      9000  -195953.4       1062.864      -194890.54      199.27244      199.51956      684.17739    
      9100  -195935.68      1064.9176     -194870.76      199.25544      199.50013      684.50475    
      9200  -195918.58      1062.7888     -194855.79      199.2403       199.48027      684.8321     
      9300  -195899.18      1056.2579     -194842.92      199.22708      199.46196      685.15946    
      9400  -195883.7       1056.7313     -194826.97      199.21419      199.44282      685.48682    
      9500  -195865.38      1061.3974     -194803.98      199.20342      199.42799      685.81418    
      9600  -195841.01      1063.8469     -194777.17      199.19195      199.41238      686.14154    
      9700  -195814.94      1062.7521     -194752.19      199.17465      199.39121      686.46889    
      9800  -195795.79      1062.5669     -194733.23      199.15592      199.37021      686.79625    
      9900  -195776.43      1059.3065     -194717.12      199.13717      199.35213      687.12361    
     10000  -195760.65      1059.1194     -194701.53      199.11891      199.3358       687.45097    
     10100  -195739.62      1058.8978     -194680.72      199.10252      199.32001      687.77832    
     10200  -195720.52      1063.4327     -194657.08      199.08641      199.30453      688.10568    
     10300  -195704.19      1067.9884     -194636.2       199.0684       199.28779      688.43304    
     10400  -195673.58      1053.9361     -194619.64      199.04785      199.27045      688.7604     
     10500  -195657.34      1059.3173     -194598.02      199.02518      199.25181      689.08775    
     10600  -195631.76      1064.3138     -194567.45      199.00387      199.23392      689.41511    
     10700  -195608.72      1070.7581     -194537.96      198.98537      199.21475      689.74247    
     10800  -195582.67      1064.1148     -194518.55      198.96744      199.19583      690.06983    
     10900  -195563.35      1058.4431     -194504.9       198.9494       199.17602      690.39718    
     11000  -195544.18      1055.6049     -194488.58      198.93109      199.15676      690.72454    
     11100  -195525.11      1058.2338     -194466.88      198.90998      199.13782      691.0519     
     11200  -195501.1       1062.2379     -194438.86      198.88935      199.11825      691.37926    
     11300  -195468.85      1058.683      -194410.16      198.87072      199.103        691.70661    
     11400  -195449.5       1062.5686     -194386.93      198.85134      199.08502      692.03397    
     11500  -195440.29      1066.22       -194374.07      198.83124      199.06575      692.36133    
     11600  -195412.75      1050.7042     -194362.04      198.81268      199.04781      692.68869    
     11700  -195398.43      1061.5129     -194336.91      198.79374      199.02862      693.01604    
     11800  -195366.17      1063.5754     -194302.59      198.77227      199.00933      693.3434     
     11900  -195336.18      1066.5628     -194269.61      198.75212      198.98932      693.67076    
     12000  -195305.99      1061.6904     -194244.3       198.73162      198.96978      693.99812    
     12100  -195288.99      1062.0644     -194226.92      198.71023      198.94833      694.32548    
     12200  -195267.57      1055.1777     -194212.39      198.69058      198.92697      694.65283    
     12300  -195247.1       1057.0378     -194190.06      198.6731       198.90954      694.98019    
     12400  -195214.66      1056.7576     -194157.91      198.65355      198.88932      695.30755    
     12500  -195187.71      1062.6821     -194125.03      198.63136      198.86912      695.63491    
     12600  -195153.81      1058.0917     -194095.72      198.61113      198.85183      695.96226    
     12700  -195137.12      1063.3985     -194073.72      198.58582      198.83307      696.28962    
     12800  -195115.7       1059.1273     -194056.57      198.56003      198.81498      696.61698    
     12900  -195087.12      1054.9197     -194032.2       198.53879      198.80104      696.94434    
     13000  -195067.6       1066.8323     -194000.77      198.51537      198.78547      697.27169    
     13100  -195033.87      1063.9078     -193969.96      198.48933      198.7682       697.59905    
     13200  -195008.53      1062.3697     -193946.16      198.46551      198.75407      697.92641    
     13300  -194983.43      1059.4638     -193923.97      198.43991      198.73762      698.25377    
     13400  -194964.71      1066.6088     -193898.1       198.41377      198.71985      698.58112    
     13500  -194929.64      1059.0639     -193870.58      198.39282      198.70526      698.90848    
     13600  -194905.22      1060.0227     -193845.2       198.37076      198.6876       699.23584    
     13700  -194885.51      1062.8106     -193822.7       198.34938      198.66741      699.5632     
     13800  -194856.71      1056.756      -193799.95      198.33131      198.64769      699.89055    
     13900  -194826.96      1052.415      -193774.54      198.31153      198.62434      700.21791    
     14000  -194800.56      1057.0946     -193743.46      198.29267      198.60181      700.54527    
     14100  -194779.29      1067.8547     -193711.44      198.27788      198.58411      700.87263    
     14200  -194747.42      1062.5283     -193684.9       198.26059      198.56188      701.19998    
     14300  -194719.35      1057.8424     -193661.5       198.24426      198.54047      701.52734    
     14400  -194696.53      1060.8849     -193635.65      198.23088      198.51695      701.8547     
     14500  -194665.05      1058.3788     -193606.67      198.21204      198.49111      702.18206    
     14600  -194633.96      1058.025      -193575.94      198.19546      198.47019      702.50942    
     14700  -194610.26      1066.8692     -193543.39      198.18063      198.45251      702.83677    
     14800  -194572.86      1059.6176     -193513.24      198.15993      198.43363      703.16413    
     14900  -194553.7       1065.8435     -193487.85      198.14155      198.41641      703.49149    
     15000  -194520.63      1056.3718     -193464.25      198.12542      198.40243      703.81885    
     15100  -194485.35      1049.9736     -193435.37      198.10367      198.38492      704.1462     
     15200  -194460.02      1058.4384     -193401.58      198.08141      198.36961      704.47356    
     15300  -194429.83      1060.181      -193369.65      198.06165      198.35813      704.80092    
     15400  -194400.44      1058.1443     -193342.29      198.04144      198.34568      705.12828    
     15500  -194378.71      1065.2575     -193313.45      198.0196       198.33414      705.45563    
     15600  -194344.18      1060.1094     -193284.07      197.99862      198.32321      705.78299    
     15700  -194317.15      1063.2306     -193253.92      197.97707      198.30959      706.11035    
     15800  -194277.57      1052.2792     -193225.29      197.95585      198.29787      706.43771    
     15900  -194254.41      1058.8257     -193195.59      197.93644      198.28524      706.76506    
     16000  -194224.35      1060.3969     -193163.95      197.91505      198.27255      707.09242    
     16100  -194193.57      1059.1205     -193134.45      197.89631      198.26061      707.41978    
     16200  -194167.02      1061.1374     -193105.88      197.87904      198.24994      707.74714    
     16300  -194136.88      1060.6244     -193076.26      197.86044      198.23828      708.07449    
     16400  -194106.38      1063.2442     -193043.14      197.84351      198.22492      708.40185    
     16500  -194068.38      1063.5746     -193004.81      197.82772      198.2138       708.72921    
     16600  -194040.21      1071.5232     -192968.69      197.81218      198.19854      709.05657    
     16700  -194003.52      1058.5851     -192944.94      197.7993       198.1825       709.38392    
     16800  -193979.8       1055.0497     -192924.75      197.78859      198.16682      709.71128    
     16900  -193948.96      1056.6195     -192892.34      197.77848      198.149        710.03864    
     17000  -193918.77      1061.4465     -192857.33      197.76773      198.13297      710.366      
     17100  -193880.96      1063.3497     -192817.61      197.75716      198.1177       710.69336    
     17200  -193835.24      1059.6814     -192775.56      197.74646      198.10402      711.02071    
     17300  -193815.36      1067.8887     -192747.47      197.73574      198.09189      711.34807    
     17400  -193786.13      1057.3502     -192728.78      197.72343      198.07665      711.67543    
     17500  -193759.1       1064.0288     -192695.07      197.71104      198.06206      712.00279    
     17600  -193721.34      1062.9804     -192658.36      197.70101      198.04942      712.33014    
     17700  -193683.33      1064.2413     -192619.09      197.6882       198.03745      712.6575     
     17800  -193650.48      1068.4547     -192582.03      197.67594      198.02689      712.98486    
     17900  -193618.61      1058.696      -192559.91      197.66373      198.01814      713.31222    
     18000  -193585.8       1052.6249     -192533.17      197.64779      198.00703      713.63957    
     18100  -193548.34      1053.503      -192494.83      197.63369      197.99564      713.96693    
     18200  -193517.26      1065.1184     -192452.14      197.62003      197.9852       714.29429    
     18300  -193484.31      1067.9869     -192416.32      197.60351      197.97312      714.62165    
     18400  -193453.93      1069.0458     -192384.88      197.59016      197.96676      714.949      
     18500  -193409.39      1055.7355     -192353.65      197.57911      197.96253      715.27636    
     18600  -193384.42      1062.6454     -192321.78      197.56302      197.95399      715.60372    
     18700  -193350.01      1058.9278     -192291.08      197.55148      197.94833      715.93108    
     18800  -193317.85      1054.945      -192262.91      197.54235      197.94358      716.25843    
     18900  -193299.13      1068.5095     -192230.62      197.52674      197.93436      716.58579    
     19000  -193237.77      1051.0696     -192186.7       197.51403      197.92619      716.91315    
     19100  -193201.27      1058.8961     -192142.37      197.50335      197.91857      717.24051    
     19200  -193175.39      1067.7314     -192107.65      197.49079      197.90836      717.56786    
     19300  -193144.69      1063.8645     -192080.83      197.4812       197.89809      717.89522    
     19400  -193110.63      1058.8063     -192051.82      197.47229      197.88744      718.22258    
     19500  -193074.53      1059.7408     -192014.79      197.46284      197.87701      718.54994    
     19600  -193032.12      1055.9487     -191976.17      197.45411      197.8679       718.8773     
     19700  -192989.97      1056.6028     -191933.36      197.44354      197.85681      719.20465    
     19800  -192956.04      1066.4038     -191889.64      197.43357      197.84598      719.53201    
     19900  -192924.35      1073.161      -191851.19      197.42764      197.8386       719.85937    
     20000  -192889.73      1060.0233     -191829.71      197.42047      197.82804      720.18673    
     20100  -192855.87      1053.5737     -191802.3       197.41046      197.81705      720.51408    
     20200  -192819.95      1057.3826     -191762.57      197.40358      197.80851      720.84144    
     20300  -192778.95      1063.4558     -191715.5       197.39602      197.80093      721.1688     
     20400  -192738.79      1062.3254     -191676.47      197.38589      197.79322      721.49616    
     20500  -192703.21      1057.9183     -191645.29      197.377        197.78506      721.82351    
     20600  -192671.22      1050.6508     -191620.57      197.36655      197.77523      722.15087    
     20700  -192643.14      1058.9826     -191584.16      197.355        197.76292      722.47823    
     20800  -192589.34      1048.6581     -191540.68      197.34385      197.75302      722.80559    
     20900  -192562.61      1066.7471     -191495.86      197.33376      197.74515      723.13294    
     21000  -192513.57      1060.0372     -191453.53      197.32398      197.73917      723.4603     
     21100  -192478.8       1061.5117     -191417.29      197.31345      197.73496      723.78766    
     21200  -192448.03      1056.7882     -191391.24      197.30338      197.72923      724.11502    
     21300  -192412.47      1054.5943     -191357.87      197.29137      197.72209      724.44237    
     21400  -192365.63      1054.2735     -191311.36      197.28026      197.71334      724.76973    
     21500  -192332.5       1064.3057     -191268.19      197.26997      197.70648      725.09709    
     21600  -192291.24      1060.5958     -191230.65      197.25975      197.69969      725.42445    
     21700  -192254.23      1060.1931     -191194.03      197.24992      197.69346      725.75181    
     21800  -192209.32      1055.832      -191153.48      197.23894      197.68808      726.07916    
     21900  -192168.5       1064.7267     -191103.77      197.22667      197.6802       726.40652    
     22000  -192129.53      1066.4197     -191063.11      197.21397      197.67175      726.73388    
     22100  -192087.64      1052.8792     -191034.76      197.20166      197.66294      727.06124    
     22200  -192062.27      1060.7075     -191001.56      197.19013      197.65437      727.38859    
     22300  -192020.95      1058.7478     -190962.2       197.18104      197.64721      727.71595    
     22400  -191974.62      1054.2749     -190920.34      197.17242      197.64076      728.04331    
     22500  -191941.7       1067.345      -190874.36      197.163        197.63327      728.37067    
     22600  -191895.26      1067.6514     -190827.61      197.15508      197.62658      728.69802    
     22700  -191859.5       1066.3453     -190793.16      197.14693      197.61928      729.02538    
     22800  -191824.93      1058.0559     -190766.87      197.13527      197.60751      729.35274    
     22900  -191787.21      1057.8543     -190729.36      197.12329      197.59628      729.6801     
     23000  -191742.77      1056.441      -190686.33      197.11408      197.58762      730.00745    
     23100  -191698.06      1063.372      -190634.69      197.10361      197.57702      730.33481    
     23200  -191649.22      1059.7888     -190589.43      197.09409      197.56704      730.66217    
     23300  -191618.64      1067.4998     -190551.14      197.0861       197.55771      730.98953    
     23400  -191581.34      1065.6257     -190515.72      197.0769       197.54537      731.31688    
     23500  -191539.25      1058.0689     -190481.18      197.06843      197.534        731.64424    
     23600  -191508.15      1062.3797     -190445.77      197.05961      197.5216       731.9716     
     23700  -191461.17      1053.9292     -190407.24      197.04976      197.50639      732.29896    
     23800  -191416.68      1061.5503     -190355.13      197.04164      197.49467      732.62631    
     23900  -191373.21      1064.6615     -190308.55      197.03572      197.4841       732.95367    
     24000  -191337.44      1065.3849     -190272.05      197.02609      197.47058      733.28103    
     24100  -191302.14      1059.451      -190242.69      197.01814      197.46029      733.60839    
     24200  -191262.16      1059.6064     -190202.56      197.0117       197.44961      733.93575    
     24300  -191216.39      1060.379      -190156.02      197.00233      197.43682      734.2631     
     24400  -191168         1056.0443     -190111.96      196.99483      197.42842      734.59046    
     24500  -191132.14      1063.3012     -190068.84      196.98484      197.41857      734.91782    
     24600  -191085         1060.0012     -190025         196.96912      197.40623      735.24518    
     24700  -191042.76      1064.506      -189978.26      196.95567      197.39765      735.57253    
     24800  -190995.95      1070.6058     -189925.34      196.94306      197.38944      735.89989    
     24900  -190960.88      1069.4362     -189891.45      196.928        197.37968      736.22725    
     25000  -190912.64      1051.9206     -189860.71      196.91417      197.3724       736.55461    
     25100  -190885.96      1064.0603     -189821.9       196.89912      197.36447      736.88196    
     25200  -190841.71      1060.6874     -189781.02      196.88214      197.35577      737.20932    
     25300  -190797.15      1056.4282     -189740.73      196.86723      197.34971      737.53668    
     25400  -190750.31      1052.4791     -189697.84      196.85235      197.34144      737.86404    
     25500  -190709.79      1061.7514     -189648.04      196.83687      197.33219      738.19139    
     25600  -190661.83      1061.5874     -189600.24      196.82482      197.32597      738.51875    
     25700  -190625.54      1067.5521     -189557.99      196.81087      197.31765      738.84611    
     25800  -190582.73      1054.6768     -189528.05      196.79458      197.30744      739.17347    
     25900  -190553.1       1062.1683     -189490.93      196.77875      197.29726      739.50082    
     26000  -190497.03      1053.542      -189443.48      196.76275      197.28534      739.82818    
     26100  -190461.57      1069.7354     -189391.83      196.74719      197.27032      740.15554    
     26200  -190408.23      1060.8757     -189347.36      196.73493      197.25829      740.4829     
     26300  -190368.22      1061.7905     -189306.43      196.72525      197.24664      740.81025    
     26400  -190328.54      1064.5171     -189264.02      196.71441      197.23438      741.13761    
     26500  -190284.12      1057.6844     -189226.44      196.70347      197.22268      741.46497    
     26600  -190248.2       1056.669      -189191.54      196.69289      197.20958      741.79233    
     26700  -190200.3       1055.6944     -189144.6       196.68143      197.19481      742.11969    
     26800  -190149.7       1062.1467     -189087.55      196.67233      197.18182      742.44704    
     26900  -190104.16      1062.835      -189041.32      196.66716      197.17065      742.7744     
     27000  -190059.11      1062.0288     -188997.08      196.65889      197.15627      743.10176    
     27100  -190018.36      1066.6207     -188951.74      196.65008      197.14014      743.42912    
     27200  -189970.88      1056.6091     -188914.27      196.64158      197.12275      743.75647    
     27300  -189936.84      1057.4117     -188879.43      196.62921      197.1037       744.08383    
     27400  -189887.94      1055.0298     -188832.91      196.61695      197.08605      744.41119    
     27500  -189838.55      1062.8674     -188775.68      196.60623      197.07116      744.73855    
     27600  -189789.5       1061.1185     -188728.38      196.59505      197.05647      745.0659     
     27700  -189744.21      1057.7794     -188686.43      196.58345      197.04098      745.39326    
     27800  -189702.98      1054.0413     -188648.94      196.57182      197.02475      745.72062    
     27900  -189663.07      1052.2415     -188610.83      196.5579       197.00715      746.04798    
     28000  -189624.31      1058.9439     -188565.37      196.5471       196.99273      746.37533    
     28100  -189568.69      1061.9226     -188506.76      196.53775      196.97781      746.70269    
     28200  -189518.09      1061.2405     -188456.85      196.5242       196.95997      747.03005    
     28300  -189470.12      1057.3261     -188412.79      196.51336      196.94365      747.35741    
     28400  -189429.52      1055.1306     -188374.39      196.50384      196.92911      747.68476    
     28500  -189387.12      1049.6244     -188337.5       196.48965      196.91365      748.01212    
     28600  -189352.33      1057.1184     -188295.21      196.47788      196.90111      748.33948    
     28700  -189295.55      1059.182      -188236.37      196.46761      196.89184      748.66684    
     28800  -189254.77      1069.6799     -188185.09      196.45426      196.87911      748.99419    
     28900  -189204.76      1060.2267     -188144.53      196.44068      196.86644      749.32155    
     29000  -189161.37      1057.4471     -188103.92      196.42634      196.85445      749.64891    
     29100  -189107.89      1055.2854     -188052.61      196.40898      196.8393       749.97627    
     29200  -189055.33      1061.0662     -187994.27      196.39272      196.82584      750.30363    
     29300  -189017.93      1068.6597     -187949.27      196.37822      196.81286      750.63098    
     29400  -188972.59      1061.5684     -187911.02      196.36327      196.79853      750.95834    
     29500  -188931.34      1060.4049     -187870.94      196.3495       196.78506      751.2857     
     29600  -188882.7       1059.7265     -187822.97      196.33586      196.77174      751.61306    
     29700  -188838.74      1063.8504     -187774.88      196.32         196.75694      751.94041    
     29800  -188789.98      1061.5731     -187728.41      196.30447      196.7425       752.26777    
     29900  -188742.18      1061.7577     -187680.42      196.28686      196.7262       752.59513    
     30000  -188691.7       1066.6004     -187625.1       196.26889      196.70916      752.92249    
     30100  -188639.59      1066.0074     -187573.58      196.25474      196.6948       753.24984    
     30200  -188593.7       1056.1499     -187537.55      196.23912      196.67919      753.5772     
     30300  -188553.47      1052.1836     -187501.28      196.22187      196.6603       753.90456    
     30400  -188503.69      1052.8291     -187450.86      196.20741      196.64417      754.23192    
     30500  -188460.29      1063.5043     -187396.78      196.1934       196.62736      754.55927    
     30600  -188404.16      1056.2881     -187347.87      196.17845      196.60896      754.88663    
     30700  -188368.84      1062.7137     -187306.13      196.1662       196.59246      755.21399    
     30800  -188328.95      1056.7091     -187272.24      196.15538      196.57831      755.54135    
     30900  -188275.26      1052.5951     -187222.67      196.14253      196.56326      755.8687     
     31000  -188226.34      1062.1902     -187164.15      196.12924      196.54694      756.19606    
     31100  -188177.19      1064.6705     -187112.52      196.11723      196.53296      756.52342    
     31200  -188126.93      1062.7785     -187064.15      196.10426      196.51611      756.85078    
     31300  -188077.72      1061.8568     -187015.87      196.09122      196.49767      757.17813    
     31400  -188035.8       1071.5029     -186964.29      196.08059      196.48248      757.50549    
     31500  -187980.93      1070.1764     -186910.75      196.0685       196.46557      757.83285    
     31600  -187935.01      1068.2668     -186866.74      196.0529       196.44692      758.16021    
     31700  -187889.05      1057.5336     -186831.52      196.03775      196.43111      758.48757    
     31800  -187840.14      1053.4434     -186786.7       196.02072      196.41524      758.81492    
     31900  -187795.4       1061.2971     -186734.1       196.00204      196.39662      759.14228    
     32000  -187741.05      1060.708      -186680.34      195.98621      196.38198      759.46964    
     32100  -187697         1066.8332     -186630.16      195.9719       196.36688      759.797      
     32200  -187646.77      1062.6129     -186584.15      195.95554      196.34985      760.12435    
     32300  -187604.91      1065.3661     -186539.55      195.94024      196.33545      760.45171    
     32400  -187549.97      1055.6958     -186494.27      195.92372      196.31895      760.77907    
     32500  -187505.8       1057.4804     -186448.32      195.9016       196.29974      761.10643    
     32600  -187462.87      1064.327      -186398.54      195.88301      196.28376      761.43378    
     32700  -187402.88      1062.1502     -186340.73      195.86586      196.26851      761.76114    
     32800  -187351.65      1065.1688     -186286.48      195.84815      196.25197      762.0885     
     32900  -187302.58      1063.6726     -186238.91      195.83538      196.23547      762.41586    
     33000  -187261.32      1056.6761     -186204.64      195.82265      196.21656      762.74321    
     33100  -187218.69      1058.0021     -186160.69      195.80929      196.19551      763.07057    
     33200  -187153.97      1049.0127     -186104.95      195.79836      196.17855      763.39793    
     33300  -187111.29      1063.6003     -186047.69      195.78502      196.16109      763.72529    
     33400  -187059.58      1063.1296     -185996.45      195.77077      196.14414      764.05264    
     33500  -187006.87      1056.8035     -185950.06      195.75852      196.12896      764.38       
     33600  -186964.01      1053.5645     -185910.44      195.74533      196.1108       764.70736    
     33700  -186921.61      1050.8154     -185870.8       195.73345      196.09528      765.03472    
     33800  -186871.54      1057.1239     -185814.42      195.72459      196.08061      765.36207    
     33900  -186810.38      1052.6548     -185757.72      195.71097      196.0604       765.68943    
     34000  -186765.4       1063.7716     -185701.63      195.69668      196.03943      766.01679    
     34100  -186710.08      1062.7949     -185647.29      195.68651      196.02208      766.34415    
     34200  -186663.12      1066.0293     -185597.1       195.67337      196.00272      766.67151    
     34300  -186608.25      1058.3869     -185549.86      195.65897      195.98215      766.99886    
     34400  -186563.62      1058.1656     -185505.45      195.65062      195.96702      767.32622    
     34500  -186513.03      1056.1702     -185456.86      195.64171      195.95219      767.65358    
     34600  -186459.48      1061.1859     -185398.29      195.62735      195.93255      767.98094    
     34700  -186404.73      1064.5571     -185340.17      195.61414      195.9153       768.30829    
     34800  -186352.37      1063.0828     -185289.29      195.60252      195.9015       768.63565    
     34900  -186299.25      1055.5996     -185243.65      195.58501      195.88549      768.96301    
     35000  -186260.15      1050.1709     -185209.98      195.56508      195.87165      769.29037    
     35100  -186214.64      1054.6112     -185160.03      195.54774      195.86139      769.61772    
     35200  -186159.17      1058.1411     -185101.03      195.52999      195.85031      769.94508    
     35300  -186096.95      1053.1208     -185043.83      195.51116      195.83643      770.27244    
     35400  -186055.62      1066.3332     -184989.29      195.49356      195.82123      770.5998     
     35500  -185994.31      1059.0544     -184935.26      195.47634      195.80624      770.92715    
     35600  -185946.58      1062.9647     -184883.62      195.45839      195.79198      771.25451    
     35700  -185901.48      1066.334      -184835.15      195.44212      195.77721      771.58187    
     35800  -185846.41      1056.2374     -184790.17      195.42891      195.76369      771.90923    
     35900  -185794.75      1052.8717     -184741.88      195.41901      195.75208      772.23658    
     36000  -185743.46      1057.3562     -184686.1       195.40951      195.73902      772.56394    
     36100  -185688.98      1064.2487     -184624.73      195.39831      195.72335      772.8913     
     36200  -185640.51      1068.5424     -184571.97      195.38958      195.70855      773.21866    
     36300  -185585.59      1059.3357     -184526.26      195.37976      195.69165      773.54602    
     36400  -185538.34      1056.9954     -184481.34      195.36673      195.67092      773.87337    
     36500  -185492.78      1053.6891     -184439.09      195.35459      195.64992      774.20073    
     36600  -185443.58      1049.6408     -184393.94      195.34367      195.63156      774.52809    
     36700  -185385.95      1055.9322     -184330.01      195.33183      195.61338      774.85545    
     36800  -185334.21      1063.1        -184271.11      195.31752      195.59568      775.1828     
     36900  -185270.24      1054.6964     -184215.55      195.30379      195.57989      775.51016    
     37000  -185227.06      1064.7136     -184162.35      195.2892       195.5644       775.83752    
     37100  -185184.83      1067.9721     -184116.86      195.27174      195.54891      776.16488    
     37200  -185132.42      1055.5912     -184076.83      195.25443      195.53404      776.49223    
     37300  -185084         1059.5621     -184024.44      195.23997      195.52298      776.81959    
     37400  -185019.32      1058.0538     -183961.26      195.22433      195.51295      777.14695    
     37500  -184961.34      1055.2407     -183906.1       195.20477      195.50237      777.47431    
     37600  -184921.04      1068.2673     -183852.77      195.18648      195.49521      777.80166    
     37700  -184863.82      1061.1998     -183802.62      195.16969      195.48891      778.12902    
     37800  -184812.75      1054.2737     -183758.48      195.14954      195.4781       778.45638    
     37900  -184763.49      1049.7169     -183713.77      195.13056      195.4677       778.78374    
     38000  -184710.09      1055.7538     -183654.34      195.11514      195.45894      779.11109    
     38100  -184646.74      1055.5523     -183591.19      195.0986       195.44796      779.43845    
     38200  -184601.76      1064.048      -183537.71      195.08254      195.43594      779.76581    
     38300  -184548.5       1061.5438     -183486.96      195.07002      195.42461      780.09317    
     38400  -184496         1055.1172     -183440.88      195.05734      195.41389      780.42052    
     38500  -184458.48      1062.6663     -183395.82      195.04452      195.39939      780.74788    
     38600  -184395.72      1053.0465     -183342.67      195.03297      195.38402      781.07524    
     38700  -184342.67      1065.8502     -183276.82      195.0214       195.36925      781.4026     
     38800  -184289.59      1068.6501     -183220.94      195.01049      195.3533       781.72996    
     38900  -184237.71      1065.2049     -183172.51      194.99979      195.33712      782.05731    
     39000  -184190.65      1060.3714     -183130.27      194.98804      195.31802      782.38467    
     39100  -184137.78      1053.3696     -183084.41      194.97692      195.29831      782.71203    
     39200  -184083.15      1059.141      -183024.01      194.96554      195.27966      783.03939    
     39300  -184019.78      1061.9287     -182957.86      194.95279      195.26139      783.36674    
     39400  -183966.57      1058.0084     -182908.56      194.93998      195.24577      783.6941     
     39500  -183927.24      1061.89       -182865.35      194.92959      195.23239      784.02146    
     39600  -183870.19      1051.9006     -182818.29      194.91888      195.21932      784.34882    
     39700  -183822.65      1059.2955     -182763.36      194.90739      195.20394      784.67617    
     39800  -183763.26      1065.46       -182697.8       194.89595      195.18852      785.00353    
     39900  -183704.04      1062.0668     -182641.97      194.88431      195.17438      785.33089    
     40000  -183650.45      1058.0726     -182592.37      194.87147      195.15944      785.65825    
     40100  -183601.74      1055.0956     -182546.64      194.857        195.14737      785.9856     
     40200  -183565.55      1061.491      -182504.05      194.84422      195.13747      786.31296    
     40300  -183499.92      1048.7094     -182451.21      194.83121      195.12687      786.64032    
     40400  -183455.88      1061.0194     -182394.86      194.81572      195.11626      786.96768    
     40500  -183394.08      1057.3004     -182336.78      194.80025      195.10472      787.29503    
     40600  -183334.43      1057.6111     -182276.82      194.78441      195.09407      787.62239    
     40700  -183290.92      1071.0841     -182219.83      194.76866      195.08347      787.94975    
     40800  -183232.92      1057.2055     -182175.72      194.75326      195.07128      788.27711    
     40900  -183187.22      1054.5572     -182132.66      194.73835      195.06037      788.60446    
     41000  -183133.45      1056.6712     -182076.78      194.72717      195.05153      788.93182    
     41100  -183080.62      1062.0857     -182018.54      194.71196      195.04155      789.25918    
     41200  -183023.48      1061.9573     -181961.52      194.69163      195.02934      789.58654    
     41300  -182969.52      1063.3206     -181906.2       194.67483      195.02039      789.9139     
     41400  -182916.12      1056.4705     -181859.65      194.65939      195.0131       790.24125    
     41500  -182868.21      1051.7999     -181816.41      194.64129      195.00091      790.56861    
     41600  -182818.12      1059.2462     -181758.88      194.62688      194.99004      790.89597    
     41700  -182748.92      1053.9579     -181694.97      194.61424      194.98231      791.22333    
     41800  -182704.2       1065.7217     -181638.48      194.59919      194.9726       791.55068    
     41900  -182655.58      1067.2439     -181588.33      194.58438      194.96335      791.87804    
     42000  -182591.61      1051.3884     -181540.22      194.56939      194.9524       792.2054     
     42100  -182549.76      1054.0355     -181495.72      194.55466      194.93887      792.53276    
     42200  -182496.97      1047.6651     -181449.31      194.54182      194.9258       792.86011    
     42300  -182433.06      1050.2162     -181382.84      194.53045      194.9129       793.18747    
     42400  -182381.42      1060.4812     -181320.93      194.51984      194.90154      793.51483    
     42500  -182324.02      1062.4585     -181261.56      194.50976      194.8927       793.84219    
     42600  -182273.21      1066.3609     -181206.85      194.49812      194.87955      794.16954    
     42700  -182210.88      1055.7507     -181155.13      194.48272      194.86367      794.4969     
     42800  -182161.86      1054.5065     -181107.36      194.47072      194.84912      794.82426    
     42900  -182113.8       1054.7605     -181059.04      194.46313      194.83646      795.15162    
     43000  -182061.5       1059.5754     -181001.93      194.45182      194.82362      795.47897    
     43100  -181997.67      1063.4255     -180934.25      194.44104      194.81094      795.80633    
     43200  -181943.86      1065.4027     -180878.46      194.43165      194.80048      796.13369    
     43300  -181894.76      1062.7655     -180831.99      194.41783      194.78652      796.46105    
     43400  -181844.19      1059.3443     -180784.85      194.40484      194.7711       796.7884     
     43500  -181785.26      1055.8352     -180729.42      194.39422      194.76002      797.11576    
     43600  -181726.74      1055.9618     -180670.77      194.38183      194.74556      797.44312    
     43700  -181678.6       1064.922      -180613.68      194.36982      194.73191      797.77048    
     43800  -181616.59      1059.2678     -180557.33      194.3574       194.72104      798.09784    
     43900  -181560.75      1057.9442     -180502.8       194.34146      194.70575      798.42519    
     44000  -181516.86      1060.4002     -180456.46      194.32382      194.69254      798.75255    
     44100  -181474.19      1060.2537     -180413.93      194.30718      194.68273      799.07991    
     44200  -181408.27      1054.9909     -180353.28      194.29036      194.67264      799.40727    
     44300  -181354.07      1064.5922     -180289.48      194.27404      194.6633       799.73462    
     44400  -181290.1       1059.1537     -180230.94      194.26021      194.65486      800.06198    
     44500  -181236.98      1062.9763     -180174         194.24513      194.64797      800.38934    
     44600  -181190.9       1068.4267     -180122.47      194.22916      194.64144      800.7167     
     44700  -181129.68      1050.6826     -180079         194.21149      194.63549      801.04405    
     44800  -181076.87      1050.4065     -180026.47      194.19366      194.62921      801.37141    
     44900  -181025.15      1065.0773     -179960.07      194.17869      194.62293      801.69877    
     45000  -180962.39      1062.3756     -179900.01      194.16326      194.61339      802.02613    
     45100  -180905.88      1058.8522     -179847.03      194.14806      194.60095      802.35348    
     45200  -180855.46      1058.9558     -179796.51      194.13411      194.58789      802.68084    
     45300  -180809.38      1060.4575     -179748.93      194.11979      194.57512      803.0082     
     45400  -180759.47      1056.7509     -179702.72      194.10616      194.56222      803.33556    
     45500  -180698.22      1058.0211     -179640.2       194.09334      194.54987      803.66291    
     45600  -180637.24      1064.4435     -179572.8       194.08166      194.53788      803.99027    
     45700  -180582.54      1065.9783     -179516.56      194.06992      194.52396      804.31763    
     45800  -180525.09      1058.0952     -179466.99      194.05813      194.50857      804.64499    
     45900  -180475.64      1054.9553     -179420.69      194.04694      194.49367      804.97234    
     46000  -180422.98      1054.2419     -179368.73      194.03516      194.47913      805.2997     
     46100  -180355.38      1057.4172     -179297.96      194.02207      194.46299      805.62706    
     46200  -180308.09      1070.1525     -179237.94      194.01153      194.45011      805.95442    
     46300  -180250.81      1063.0048     -179187.81      194.00108      194.44056      806.28178    
     46400  -180199.48      1058.7402     -179140.73      193.98756      194.42783      806.60913    
     46500  -180147.25      1058.7783     -179088.47      193.97339      194.41489      806.93649    
     46600  -180088.51      1061.3695     -179027.14      193.96146      194.40525      807.26385    
     46700  -180032.91      1074.8224     -178958.09      193.94805      194.39426      807.59121    
     46800  -179969.74      1066.3912     -178903.35      193.93388      194.38159      807.91856    
     46900  -179920.09      1064.2855     -178855.81      193.92472      194.37115      808.24592    
     47000  -179860.22      1055.6119     -178804.6       193.91459      194.35758      808.57328    
     47100  -179810.38      1061.0364     -178749.34      193.90029      194.34019      808.90064    
     47200  -179753.72      1062.0284     -178691.69      193.88825      194.32526      809.22799    
     47300  -179696.25      1063.8079     -178632.44      193.87724      194.31089      809.55535    
     47400  -179633.98      1054.2688     -178579.71      193.86466      194.29648      809.88271    
     47500  -179584.29      1052.7264     -178531.57      193.85286      194.28151      810.21007    
     47600  -179542.47      1063.7246     -178478.75      193.84146      194.26704      810.53742    
     47700  -179472.5       1051.1917     -178421.31      193.83136      194.25403      810.86478    
     47800  -179421.09      1066.8987     -178354.19      193.81852      194.23887      811.19214    
     47900  -179365.64      1071.8464     -178293.8       193.80407      194.22398      811.5195     
     48000  -179303.58      1055.6313     -178247.95      193.79286      194.21293      811.84685    
     48100  -179259.05      1061.208      -178197.84      193.77972      194.20149      812.17421    
     48200  -179201.76      1060.3113     -178141.45      193.76402      194.18843      812.50157    
     48300  -179152.46      1067.9238     -178084.54      193.75221      194.17907      812.82893    
     48400  -179090.92      1059.8609     -178031.06      193.74068      194.1691       813.15628    
     48500  -179036.23      1056.6081     -177979.62      193.72665      194.15408      813.48364    
     48600  -178981.26      1055.9511     -177925.31      193.71317      194.14031      813.811      
     48700  -178921.45      1062.0423     -177859.41      193.70155      194.1289       814.13836    
     48800  -178863.93      1069.0354     -177794.89      193.68997      194.11719      814.46572    
     48900  -178813.55      1072.2244     -177741.33      193.67702      194.10727      814.79307    
     49000  -178754.84      1061.4528     -177693.39      193.66524      194.09673      815.12043    
     49100  -178698.6       1059.7501     -177638.85      193.65206      194.08649      815.44779    
     49200  -178650.48      1067.1789     -177583.3       193.6391       194.07499      815.77515    
     49300  -178584.97      1054.9541     -177530.02      193.62602      194.06031      816.1025     
     49400  -178538.08      1062.0644     -177476.01      193.61101      194.04639      816.42986    
     49500  -178476.05      1059.5348     -177416.52      193.5995       194.03323      816.75722    
     49600  -178418.93      1067.1506     -177351.78      193.58582      194.01928      817.08458    
     49700  -178352.77      1060.7032     -177292.07      193.57         194.00448      817.41193    
     49800  -178303.57      1058.4628     -177245.1       193.55749      193.99135      817.73929    
     49900  -178250.15      1053.3938     -177196.75      193.54092      193.97882      818.06665    
     50000  -178199.59      1061.8838     -177137.7       193.52254      193.96346      818.39401    
     50100  -178138.53      1064.2212     -177074.31      193.50839      193.95248      818.72136    
     50200  -178077.03      1064.4013     -177012.62      193.49432      193.94129      819.04872    
     50300  -178019         1056.7975     -176962.2       193.47893      193.92704      819.37608    
     50400  -177970.69      1053.0005     -176917.69      193.46701      193.91544      819.70344    
     50500  -177927.27      1064.2176     -176863.06      193.45552      193.90206      820.03079    
     50600  -177864.35      1060.702      -176803.65      193.4391       193.88513      820.35815    
     50700  -177798.99      1059.5327     -176739.46      193.42462      193.8702       820.68551    
     50800  -177742.18      1066.6359     -176675.54      193.41282      193.85778      821.01287    
     50900  -177695.62      1071.6752     -176623.94      193.39876      193.8421       821.34023    
     51000  -177644.5       1064.9907     -176579.51      193.38585      193.82692      821.66758    
     51100  -177586.36      1061.6953     -176524.67      193.3772       193.81531      821.99494    
     51200  -177527.83      1061.5833     -176466.25      193.366        193.79937      822.3223     
     51300  -177465.74      1061.9183     -176403.82      193.35196      193.78061      822.64966    
     51400  -177399.57      1062.4249     -176337.14      193.34091      193.76509      822.97701    
     51500  -177353.4       1070.7013     -176282.69      193.32774      193.75004      823.30437    
     51600  -177297.6       1059.224      -176238.37      193.31317      193.73462      823.63173    
     51700  -177241.81      1058.3682     -176183.45      193.29891      193.72017      823.95909    
     51800  -177186.54      1058.7841     -176127.76      193.28333      193.70541      824.28644    
     51900  -177137.29      1061.9334     -176075.35      193.2705       193.69089      824.6138     
     52000  -177082.12      1057.1107     -176025.01      193.25721      193.67703      824.94116    
     52100  -177024.29      1051.5769     -175972.71      193.24361      193.66276      825.26852    
     52200  -176969.57      1061.2454     -175908.33      193.23007      193.64924      825.59587    
     52300  -176904.97      1067.6079     -175837.36      193.21625      193.63773      825.92323    
     52400  -176844.74      1064.9414     -175779.8       193.2008       193.62515      826.25059    
     52500  -176794.87      1063.1105     -175731.76      193.18493      193.61264      826.57795    
     52600  -176734.8       1056.4366     -175678.37      193.17079      193.59824      826.9053     
     52700  -176678.48      1057.9287     -175620.55      193.15725      193.58217      827.23266    
     52800  -176626.02      1062.1069     -175563.91      193.14443      193.56881      827.56002    
     52900  -176569.85      1057.2649     -175512.58      193.13205      193.55674      827.88738    
     53000  -176519.95      1056.9433     -175463         193.11715      193.54403      828.21473    
     53100  -176458.23      1057.1131     -175401.11      193.10196      193.53125      828.54209    
     53200  -176392.47      1062.9573     -175329.51      193.08748      193.51931      828.86945    
     53300  -176329.83      1059.037      -175270.79      193.07087      193.50555      829.19681    
     53400  -176281.89      1064.4052     -175217.49      193.05445      193.49067      829.52417    
     53500  -176234.41      1068.8277     -175165.58      193.04017      193.47863      829.85152    
     53600  -176169.45      1058.2662     -175111.19      193.02653      193.46486      830.17888    
     53700  -176107.74      1052.5687     -175055.17      193.01023      193.44738      830.50624    
     53800  -176058.18      1061.3489     -174996.83      192.99717      193.43327      830.8336     
     53900  -175999.2       1053.0056     -174946.19      192.98608      193.42018      831.16095    
     54000  -175950.14      1054.9982     -174895.14      192.97079      193.40378      831.48831    
     54100  -175888.52      1058.5128     -174830.01      192.95869      193.39031      831.81567    
     54200  -175825.02      1064.0924     -174760.93      192.94769      193.376        832.14303    
     54300  -175769.12      1067.4325     -174701.69      192.93412      193.35945      832.47038    
     54400  -175716.56      1062.2819     -174654.28      192.92271      193.34355      832.79774    
     54500  -175660.43      1062.7767     -174597.66      192.911        193.32667      833.1251     
     54600  -175597.38      1058.1068     -174539.27      192.89909      193.30969      833.45246    
     54700  -175538.88      1056.3143     -174482.57      192.89004      193.29392      833.77981    
     54800  -175485.53      1055.1538     -174430.37      192.87815      193.27726      834.10717    
     54900  -175426.8       1049.942      -174376.86      192.86566      193.26167      834.43453    
     55000  -175375.33      1059.243      -174316.09      192.85407      193.24804      834.76189    
     55100  -175306.16      1065.944      -174240.22      192.83884      193.2333       835.08924    
     55200  -175245.27      1067.9241     -174177.34      192.82378      193.21668      835.4166     
     55300  -175194.82      1066.7859     -174128.03      192.80977      193.2038       835.74396    
     55400  -175139.33      1063.2226     -174076.1       192.79382      193.18989      836.07132    
     55500  -175081.66      1058.6531     -174023.01      192.77622      193.17191      836.39867    
     55600  -175026.92      1059.7523     -173967.17      192.76244      193.15829      836.72603    
     55700  -174965.99      1055.018      -173910.97      192.7496       193.14386      837.05339    
     55800  -174915.33      1055.6396     -173859.69      192.73406      193.12704      837.38075    
     55900  -174861.4       1054.4856     -173806.92      192.72065      193.11239      837.70811    
     56000  -174801.25      1059.5057     -173741.74      192.70872      193.09817      838.03546    
     56100  -174737.01      1062.7125     -173674.29      192.69444      193.08282      838.36282    
     56200  -174675.16      1061.9823     -173613.18      192.68107      193.06889      838.69018    
     56300  -174620.65      1064.8595     -173555.79      192.66851      193.05563      839.01754    
     56400  -174565.76      1064.0607     -173501.7       192.65396      193.04036      839.34489    
     56500  -174506.83      1061.7204     -173445.11      192.63948      193.02474      839.67225    
     56600  -174451.64      1064.4276     -173387.22      192.62644      193.0108       839.99961    
     56700  -174388.72      1062.1641     -173326.56      192.61349      192.99699      840.32697    
     56800  -174333.34      1065.5482     -173267.8       192.60023      192.98341      840.65432    
     56900  -174278.98      1067.8318     -173211.15      192.58655      192.97058      840.98168    
     57000  -174221.51      1066.19       -173155.32      192.57189      192.95535      841.30904    
     57100  -174155.41      1057.3        -173098.11      192.55675      192.93734      841.6364     
     57200  -174107.97      1068.6403     -173039.33      192.54371      192.92141      841.96375    
     57300  -174045.39      1062.112      -172983.28      192.53023      192.90448      842.29111    
     57400  -173991.32      1064.9286     -172926.39      192.51641      192.88573      842.61847    
     57500  -173921.07      1055.491      -172865.57      192.50481      192.86857      842.94583    
     57600  -173871.62      1063.1167     -172808.5       192.49457      192.85055      843.27318    
     57700  -173817.55      1065.8464     -172751.7       192.48399      192.83054      843.60054    
     57800  -173749.92      1056.8362     -172693.08      192.47302      192.81123      843.9279     
     57900  -173698.87      1065.5462     -172633.32      192.46321      192.79381      844.25526    
     58000  -173634.98      1061.4045     -172573.58      192.45346      192.77667      844.58261    
     58100  -173581.04      1065.6458     -172515.39      192.44048      192.75847      844.90997    
     58200  -173523.2       1064.4203     -172458.78      192.42882      192.7415       845.23733    
     58300  -173461.1       1058.8051     -172402.29      192.41677      192.72764      845.56469    
     58400  -173400.29      1057.5116     -172342.78      192.40249      192.71244      845.89205    
     58500  -173353.34      1072.6955     -172280.65      192.38981      192.69678      846.2194     
     58600  -173289.29      1067.6969     -172221.59      192.3774       192.68284      846.54676    
     58700  -173229.56      1063.4305     -172166.13      192.36358      192.66676      846.87412    
     58800  -173173.61      1064.6027     -172109.01      192.34922      192.6524       847.20148    
     58900  -173108.18      1061.7099     -172046.47      192.33371      192.63879      847.52883    
     59000  -173044.05      1058.4276     -171985.62      192.3186       192.62588      847.85619    
     59100  -172987.13      1059.8629     -171927.26      192.30342      192.61542      848.18355    
     59200  -172933.02      1062.6298     -171870.39      192.28754      192.60413      848.51091    
     59300  -172866.31      1058.1288     -171808.18      192.27282      192.59294      848.83826    
     59400  -172815.07      1068.7661     -171746.3       192.25775      192.582        849.16562    
     59500  -172747.82      1058.8337     -171688.99      192.24052      192.57003      849.49298    
     59600  -172688.12      1057.3932     -171630.72      192.22255      192.55769      849.82034    
     59700  -172633.64      1064.9812     -171568.66      192.20471      192.54523      850.14769    
     59800  -172570.27      1063.2801     -171506.99      192.18768      192.53095      850.47505    
     59900  -172512.78      1065.0509     -171447.73      192.17193      192.51694      850.80241    
     60000  -172460.16      1072.334      -171387.83      192.15773      192.50247      851.12977    
     60100  -172387.92      1061.6959     -171326.22      192.14323      192.48634      851.45712    
     60200  -172332.34      1066.0365     -171266.31      192.12885      192.46918      851.78448    
     60300  -172274.12      1065.8583     -171208.26      192.11656      192.45154      852.11184    
     60400  -172209.5       1061.1005     -171148.39      192.10605      192.4375       852.4392     
     60500  -172153.93      1066.8408     -171087.09      192.09589      192.42124      852.76655    
     60600  -172089.52      1065.4475     -171024.08      192.08448      192.4041       853.09391    
     60700  -172026.73      1065.395      -170961.33      192.07345      192.38865      853.42127    
     60800  -171963.77      1064.2356     -170899.54      192.0603       192.37128      853.74863    
     60900  -171897.93      1060.2224     -170837.7       192.04414      192.35412      854.07599    
     61000  -171837.49      1061.7582     -170775.73      192.03168      192.33921      854.40334    
     61100  -171783.56      1067.6659     -170715.89      192.01897      192.32539      854.7307     
     61200  -171718.58      1063.8931     -170654.69      192.00472      192.3094       855.05806    
     61300  -171660.69      1067.755      -170592.94      191.98856      192.29375      855.38542    
     61400  -171593.19      1063.3175     -170529.87      191.97226      192.27965      855.71277    
     61500  -171534.52      1066.1836     -170468.34      191.95643      192.26602      856.04013    
     61600  -171467.32      1060.3051     -170407.01      191.94054      192.25319      856.36749    
     61700  -171410.57      1067.4077     -170343.16      191.92775      192.23986      856.69485    
     61800  -171345.92      1064.0803     -170281.84      191.91641      192.22799      857.0222     
     61900  -171281.97      1061.7733     -170220.2       191.90293      192.21304      857.34956    
     62000  -171220.64      1063.8845     -170156.75      191.88712      192.19797      857.67692    
     62100  -171154.65      1061.6992     -170092.95      191.87193      192.18472      858.00428    
     62200  -171096.18      1067.2276     -170028.95      191.85746      192.17083      858.33163    
     62300  -171028.48      1063.9536     -169964.52      191.84451      192.15599      858.65899    
     62400  -170976.63      1075.6583     -169900.97      191.83154      192.14069      858.98635    
     62500  -170902.05      1064.3214     -169837.73      191.81681      192.12376      859.31371    
     62600  -170836.5       1060.7836     -169775.72      191.8037       192.10711      859.64106    
     62700  -170779.91      1067.1152     -169712.8       191.79115      192.09162      859.96842    
     62800  -170708.22      1058.649      -169649.57      191.77815      192.07441      860.29578    
     62900  -170652.39      1068.1338     -169584.25      191.76465      192.05841      860.62314    
     63000  -170585.08      1064.8929     -169520.19      191.75144      192.04258      860.95049    
     63100  -170526.18      1071.099      -169455.08      191.73655      192.025        861.27785    
     63200  -170450.47      1062.693      -169387.77      191.72069      192.00757      861.60521    
     63300  -170382.88      1060.404      -169322.47      191.70746      191.99434      861.93257    
     63400  -170319.99      1062.3672     -169257.62      191.69478      191.98173      862.25993    
     63500  -170256.13      1064.1364     -169191.99      191.67973      191.96627      862.58728    
     63600  -170194.35      1068.9429     -169125.4       191.66534      191.9532       862.91464    
     63700  -170124.24      1064.1067     -169060.14      191.6512       191.94024      863.242      
     63800  -170057.38      1064.5268     -168992.85      191.6347       191.92474      863.56936    
     63900  -169991.11      1065.1826     -168925.93      191.61858      191.91264      863.89671    
     64000  -169929.56      1068.6058     -168860.96      191.60223      191.90023      864.22407    
     64100  -169859.68      1064.5764     -168795.1       191.5845       191.88702      864.55143    
     64200  -169796.91      1068.6992     -168728.21      191.5668       191.87387      864.87879    
     64300  -169722.84      1061.7608     -168661.08      191.55105      191.85931      865.20614    
     64400  -169664.03      1071.0748     -168592.95      191.53535      191.84396      865.5335     
     64500  -169587.29      1063.2056     -168524.09      191.51994      191.82748      865.86086    
     64600  -169521.87      1066.5939     -168455.28      191.50354      191.81209      866.18822    
     64700  -169454.04      1067.2567     -168386.79      191.48732      191.79912      866.51557    
     64800  -169380.08      1062.1572     -168317.92      191.47218      191.78805      866.84293    
     64900  -169321.01      1071.3309     -168249.68      191.45748      191.7759       867.17029    
     65000  -169242.79      1060.8167     -168181.97      191.44287      191.76173      867.49765    
     65100  -169184.24      1071.4218     -168112.81      191.42964      191.7473       867.825      
     65200  -169111.19      1067.8146     -168043.37      191.41767      191.73145      868.15236    
     65300  -169042         1069.3783     -167972.62      191.40353      191.71649      868.47972    
     65400  -168965.91      1065.629      -167900.28      191.38873      191.70212      868.80708    
     65500  -168892.03      1064.0019     -167828.03      191.37437      191.68998      869.13443    
     65600  -168823.98      1067.2459     -167756.74      191.35882      191.6763       869.46179    
     65700  -168749.15      1062.602      -167686.55      191.34207      191.66099      869.78915    
     65800  -168683.89      1068.4349     -167615.45      191.32574      191.6459       870.11651    
     65900  -168610.23      1066.1088     -167544.13      191.31009      191.63072      870.44387    
     66000  -168537.28      1065.596      -167471.68      191.29332      191.61645      870.77122    
     66100  -168463.79      1062.9976     -167400.79      191.27711      191.60313      871.09858    
     66200  -168397.95      1069.7631     -167328.19      191.26027      191.58885      871.42594    
     66300  -168322.68      1067.1245     -167255.55      191.24375      191.57499      871.7533     
     66400  -168251.36      1068.2016     -167183.16      191.22726      191.56071      872.08065    
     66500  -168182.35      1072.4524     -167109.9       191.21016      191.54579      872.40801    
     66600  -168100.2       1065.3716     -167034.83      191.19518      191.53256      872.73537    
     66700  -168033.92      1072.6883     -166961.23      191.18065      191.52089      873.06273    
     66800  -167956.55      1068.0746     -166888.48      191.16478      191.50746      873.39008    
     66900  -167878.56      1066.223      -166812.33      191.14929      191.49386      873.71744    
     67000  -167805.17      1065.2599     -166739.91      191.13264      191.47954      874.0448     
     67100  -167728.01      1064.6007     -166663.41      191.11695      191.4645       874.37216    
     67200  -167653.39      1064.7648     -166588.63      191.10313      191.44967      874.69951    
     67300  -167579.17      1066.6099     -166512.56      191.08825      191.43301      875.02687    
     67400  -167505.98      1070.1639     -166435.82      191.07626      191.41804      875.35423    
     67500  -167432.06      1074.0226     -166358.04      191.06421      191.40241      875.68159    
     67600  -167342.9       1061.2485     -166281.65      191.05024      191.38483      876.00894    
     67700  -167278.58      1072.1858     -166206.39      191.03975      191.37004      876.3363     
     67800  -167193.93      1065.9793     -166127.95      191.02554      191.35404      876.66366    
     67900  -167114.85      1064.8511     -166050         191.01015      191.33891      876.99102    
     68000  -167047.91      1076.6554     -165971.26      190.99693      191.32606      877.31838    
     68100  -166958.37      1065.748      -165892.62      190.9804       191.31108      877.64573    
     68200  -166886.46      1073.9622     -165812.5       190.96197      191.29506      877.97309    
     68300  -166801.69      1069.4481     -165732.25      190.94449      191.2813       878.30045    
     68400  -166723.55      1069.8978     -165653.65      190.9266       191.26829      878.62781    
     68500  -166644.44      1071.1216     -165573.32      190.90782      191.25544      878.95516    
     68600  -166557.25      1064.6777     -165492.57      190.8891       191.24293      879.28252    
     68700  -166478.31      1067.5819     -165410.73      190.86857      191.23053      879.60988    
     68800  -166401.9       1069.0185     -165332.88      190.84828      191.21806      879.93724    
     68900  -166317.16      1063.6107     -165253.54      190.82998      191.20528      880.26459    
     69000  -166242.18      1071.105      -165171.07      190.81218      191.19248      880.59195    
     69100  -166158.61      1068.5622     -165090.05      190.79659      191.17939      880.91931    
     69200  -166081.68      1074.6629     -165007.01      190.78215      191.16614      881.24667    
     69300  -166000.72      1076.694      -164924.03      190.76697      191.15163      881.57402    
     69400  -165913.72      1073.2959     -164840.42      190.7522       191.13669      881.90138    
     69500  -165826.06      1071.4413     -164754.62      190.739        191.12345      882.22874    
     69600  -165740.79      1069.1534     -164671.64      190.72683      191.10844      882.5561     
     69700  -165665.62      1077.9386     -164587.68      190.71375      191.09148      882.88345    
     69800  -165579.91      1078.6541     -164501.26      190.70125      191.07517      883.21081    
     69900  -165487.01      1071.2221     -164415.79      190.68706      191.0574       883.53817    
     70000  -165400.97      1070.8713     -164330.09      190.67265      191.04088      883.86553    
     70100  -165327.3       1081.8007     -164245.5       190.66045      191.02629      884.19288    
     70200  -165229.03      1068.5781     -164160.45      190.64575      191.01103      884.52024    
     70300  -165150.81      1076.1978     -164074.61      190.63026      190.99525      884.8476     
     70400  -165068.1       1085.6284     -163982.47      190.61479      190.98142      885.17496    
     70500  -164974.93      1081.0844     -163893.85      190.59919      190.96876      885.50232    
     70600  -164880.6       1073.9999     -163806.6       190.58213      190.95501      885.82967    
     70700  -164799.57      1079.599      -163719.97      190.56211      190.94119      886.15703    
     70800  -164717.45      1084.2339     -163633.21      190.54479      190.92849      886.48439    
     70900  -164622.81      1078.2003     -163544.61      190.52826      190.91642      886.81175    
     71000  -164542.34      1087.2504     -163455.09      190.51117      190.90102      887.1391     
     71100  -164444.47      1079.9487     -163364.52      190.49545      190.88566      887.46646    
     71200  -164353.49      1078.8064     -163274.68      190.48018      190.87143      887.79382    
     71300  -164260.91      1077.6046     -163183.3       190.46223      190.85499      888.12118    
     71400  -164172.26      1079.2257     -163093.03      190.44557      190.83991      888.44853    
     71500  -164086.24      1085.4981     -163000.74      190.43196      190.82546      888.77589    
     71600  -163995.28      1087.6438     -162907.64      190.41646      190.80915      889.10325    
     71700  -163902.95      1086.3379     -162816.61      190.40148      190.79402      889.43061    
     71800  -163808.83      1085.2103     -162723.61      190.38658      190.78206      889.75796    
     71900  -163721.52      1089.5496     -162631.97      190.36938      190.76889      890.08532    
     72000  -163624.11      1084.8661     -162539.25      190.35211      190.75517      890.41268    
     72100  -163530.45      1086.9747     -162443.47      190.33674      190.7417       890.74004    
     72200  -163443.77      1096.6634     -162347.11      190.32209      190.7259       891.06739    
     72300  -163343.74      1093.6015     -162250.13      190.30801      190.70913      891.39475    
     72400  -163247.28      1092.5102     -162154.77      190.29576      190.69293      891.72211    
     72500  -163162.59      1102.9711     -162059.62      190.28121      190.67869      892.04947    
     72600  -163073.88      1111.0536     -161962.83      190.26453      190.66268      892.37682    
     72700  -162969.38      1102.8488     -161866.53      190.24842      190.64669      892.70418    
     72800  -162870.79      1100.0322     -161770.75      190.23515      190.63167      893.03154    
     72900  -162776.37      1104.5927     -161671.77      190.22157      190.61533      893.3589     
     73000  -162678.7       1103.6323     -161575.07      190.20812      190.60002      893.68626    
     73100  -162584.59      1110.7765     -161473.81      190.19398      190.58412      894.01361    
     73200  -162491.58      1117.0503     -161374.53      190.17828      190.56903      894.34097    
     73300  -162383.08      1105.214      -161277.86      190.1635       190.55368      894.66833    
     73400  -162295.58      1117.7821     -161177.8       190.14695      190.53692      894.99569    
     73500  -162196.71      1118.1923     -161078.51      190.13132      190.52118      895.32304    
     73600  -162096.02      1120.7404     -160975.28      190.11546      190.50538      895.6504     
     73700  -161992.45      1118.9556     -160873.49      190.09687      190.4887       895.97776    
     73800  -161891.3       1120.4338     -160770.86      190.08011      190.47399      896.30512    
     73900  -161796.32      1128.8387     -160667.48      190.06372      190.45968      896.63247    
     74000  -161699.13      1130.1519     -160568.98      190.04723      190.4438       896.95983    
     74100  -161594.13      1129.1086     -160465.03      190.03169      190.42869      897.28719    
     74200  -161496.53      1137.2029     -160359.33      190.01618      190.41369      897.61455    
     74300  -161380         1131.2051     -160248.79      190.00049      190.3986       897.9419     
     74400  -161284.79      1136.139      -160148.65      189.98508      190.38429      898.26926    
     74500  -161192.56      1151.4477     -160041.12      189.9694       190.36837      898.59662    
     74600  -161076.93      1149.0299     -159927.9       189.95334      190.35205      898.92398    
     74700  -160974.54      1152.4133     -159822.13      189.93852      190.33653      899.25133    
     74800  -160872.61      1166.2602     -159706.35      189.92393      190.3209       899.57869    
     74900  -160760.16      1162.3053     -159597.85      189.90781      190.30508      899.90605    
     75000  -160644.01      1164.7487     -159479.26      189.89214      190.28969      900.23341    
     75100  -160528.93      1164.8075     -159364.12      189.87756      190.27535      900.56076    
     75200  -160433.25      1181.3659     -159251.89      189.86245      190.25972      900.88812    
     75300  -160320.03      1186.9097     -159133.12      189.84711      190.24233      901.21548    
     75400  -160203.9       1185.775      -159018.13      189.83234      190.22567      901.54284    
     75500  -160111.82      1194.8362     -158916.99      189.81807      190.2087       901.8702     
     75600  -159990.34      1190.3021     -158800.04      189.80343      190.19143      902.19755    
     75700  -159893.81      1207.6629     -158686.15      189.7879       190.17364      902.52491    
     75800  -159777.43      1213.4535     -158563.97      189.7726       190.15629      902.85227    
     75900  -159668.86      1224.0381     -158444.83      189.75669      190.13996      903.17963    
     76000  -159639.27      1304.3999     -158334.87      189.74026      190.12384      903.50698    
     76100  -159914.03      1626.9722     -158287.06      189.72446      190.10879      903.83434    
     76200  -160533.13      2183.1378     -158350         189.71091      190.09721      904.1617     
     76300  -161472.18      2702.0381     -158770.15      189.70246      190.0913       904.48906    
     76400  -162905.6       3273.2443     -159632.36      189.696        190.08917      904.81641    
     76500  -164679.44      3678.6062     -161000.83      189.70223      190.09539      905.14377    
     76600  -166352.85      3669.58       -162683.27      189.71824      190.11483      905.47113    
     76700  -167813.82      3425.4327     -164388.39      189.73331      190.13171      905.79849    
     76800  -169181.73      3175.8447     -166005.88      189.74589      190.13875      906.12584    
     76900  -170429.6       2928.2933     -167501.3       189.76286      190.14465      906.4532     
     77000  -171560.91      2714.2209     -168846.69      189.78474      190.15666      906.78056    
     77100  -172639.81      2548.0126     -170091.8       189.80581      190.16818      907.10792    
     77200  -173646.17      2404.8927     -171241.28      189.82693      190.18125      907.43527    
     77300  -174597.38      2282.9578     -172314.42      189.85125      190.19745      907.76263    
     77400  -175495.29      2178.7582     -173316.53      189.87722      190.21489      908.08999    
     77500  -176346.29      2088.1223     -174258.17      189.90306      190.23235      908.41735    
     77600  -177148.79      2004.4797     -175144.31      189.93059      190.25166      908.7447     
     77700  -177908.1       1928.4193     -175979.68      189.95839      190.27349      909.07206    
     77800  -178628.98      1859.6663     -176769.32      189.98631      190.29539      909.39942    
     77900  -179310.25      1795.3246     -177514.92      190.01612      190.3191       909.72678    
     78000  -179959.05      1739.2893     -178219.76      190.04715      190.34416      910.05414    
     78100  -180577.55      1688.8725     -178888.68      190.07679      190.36797      910.38149    
     78200  -181167.33      1642.9941     -179524.33      190.10594      190.39171      910.70885    
     78300  -181733.61      1603.1934     -180130.41      190.13606      190.41688      911.03621    
     78400  -182278.62      1568.2272     -180710.39      190.16538      190.44174      911.36357    
     78500  -182805.03      1537.3738     -181267.66      190.19387      190.46641      911.69092    
     78600  -183315.27      1510.8571     -181804.41      190.22192      190.49109      912.01828    
     78700  -183811.36      1487.6628     -182323.7       190.24879      190.51515      912.34564    
     78800  -184293.88      1466.6994     -182827.18      190.27452      190.53839      912.673      
     78900  -184765.27      1448.6523     -183316.62      190.29949      190.56098      913.00035    
     79000  -185225         1431.3591     -183793.64      190.32387      190.58285      913.32771    
     79100  -185672.94      1414.5068     -184258.43      190.34773      190.60422      913.65507    
     79200  -186110.39      1398.9081     -184711.48      190.37068      190.62515      913.98243    
     79300  -186537.82      1384.3151     -185153.51      190.39302      190.64608      914.30978    
     79400  -186956.63      1371.4338     -185585.19      190.41488      190.66739      914.63714    
     79500  -187368.72      1360.5743     -186008.15      190.43611      190.68866      914.9645     
     79600  -187773.01      1349.7123     -186423.29      190.45673      190.70953      915.29186    
     79700  -188169.28      1339.1426     -186830.14      190.47677      190.73015      915.61921    
     79800  -188559.1       1329.7511     -187229.35      190.49622      190.75018      915.94657    
     79900  -188941.81      1320.2539     -187621.56      190.51532      190.76981      916.27393    
     80000  -189318.72      1311.7836     -188006.94      190.53446      190.78926      916.60129    
     80100  -189690.37      1304.2834     -188386.09      190.55347      190.80822      916.92864    
     80200  -190056.39      1296.7015     -188759.69      190.57204      190.82631      917.256      
     80300  -190419.54      1290.9689     -189128.57      190.59037      190.84344      917.58336    
     80400  -190779.04      1285.499      -189493.54      190.60857      190.85998      917.91072    
     80500  -191133.03      1279.4782     -189853.55      190.62653      190.87625      918.23808    
     80600  -191483.13      1273.6205     -190209.51      190.64436      190.89263      918.56543    
     80700  -191829.8       1268.2343     -190561.56      190.66161      190.90865      918.89279    
     80800  -192173.11      1263.7472     -190909.36      190.6782       190.92446      919.22015    
     80900  -192512.5       1259.0504     -191253.45      190.69446      190.94044      919.54751    
     81000  -192850.29      1255.8445     -191594.45      190.71072      190.95633      919.87486    
     81100  -193185.37      1252.5611     -191932.81      190.72663      190.97174      920.20222    
     81200  -193505.41      1238.2594     -192267.15      190.74189      190.98629      920.52958    
     81300  -193810.14      1221.6648     -192588.48      190.75688      191.00078      920.85694    
     81400  -194098.16      1204.4625     -192893.69      190.77237      191.01607      921.18429    
     81500  -194373.31      1189.7098     -193183.6       190.78692      191.03092      921.51165    
     81600  -194635.01      1175.8978     -193459.11      190.80131      191.04625      921.83901    
     81700  -194885.79      1164.227      -193721.57      190.8166       191.06263      922.16637    
     81800  -195123.13      1151.0988     -193972.03      190.8315       191.07906      922.49372    
     81900  -195348.92      1139.4291     -194209.49      190.84617      191.09514      922.82108    
     82000  -195562.89      1128.7322     -194434.15      190.86091      191.11082      923.14844    
     82100  -195765.42      1118.7811     -194646.64      190.87572      191.12599      923.4758     
     82200  -195955.62      1108.8518     -194846.76      190.89079      191.14098      923.80315    
     82300  -196133.51      1099.6745     -195033.84      190.90656      191.1562       924.13051    
     82400  -196298.52      1090.6639     -195207.85      190.92281      191.17192      924.45787    
     82500  -196448.57      1081.1296     -195367.44      190.93924      191.18809      924.78523    
     82600  -196585.67      1074.5768     -195511.09      190.95598      191.20467      925.11259    
     82700  -196710.3       1069.4097     -195640.89      190.97305      191.22197      925.43994    
     82800  -196818.08      1061.4311     -195756.65      190.99035      191.23984      925.7673     
     82900  -196910.02      1056.289      -195853.73      191.0075       191.25778      926.09466    
     83000  -196985.65      1054.1958     -195931.45      191.02413      191.27588      926.42202    
     83100  -197044.86      1053.2904     -195991.57      191.04102      191.29505      926.74937    
     83200  -197086.73      1051.6297     -196035.1       191.05787      191.31397      927.07673    
     83300  -197116.04      1054.3611     -196061.68      191.07461      191.33228      927.40409    
     83400  -197131.28      1055.6414     -196075.64      191.09188      191.351        927.73145    
     83500  -197131.2       1052.0388     -196079.16      191.10869      191.36949      928.0588     
     83600  -197115.69      1049.4271     -196066.26      191.1254       191.38743      928.38616    
     83700  -197083.61      1050.8501     -196032.76      191.14046      191.4042       928.71352    
     83800  -197032.61      1050.9365     -195981.68      191.15305      191.41839      929.04088    
     83900  -196962.23      1046.8391     -195915.39      191.16511      191.4318       929.36823    
     84000  -196870.87      1040.4583     -195830.41      191.17587      191.44321      929.69559    
     84100  -196771.6       1046.648      -195724.95      191.18432      191.45187      930.02295    
     84200  -196670.46      1056.5318     -195613.93      191.1902       191.45881      930.35031    
     84300  -196602.67      1085.2985     -195517.37      191.19269      191.4644       930.67766    
     84400  -196563.02      1088.9193     -195474.1       191.1867       191.46504      931.00502    
     84500  -196509.4       1032.1266     -195477.28      191.17401      191.46439      931.33238    
     84600  -196461.65      1026.4345     -195435.22      191.16775      191.47616      931.65974    
     84700  -196418.22      1078.1521     -195340.07      191.16123      191.49305      931.98709    
     84800  -196386.01      1107.0477     -195278.96      191.152        191.50991      932.31445    
     84900  -196362.75      1062.7469     -195300         191.14589      191.52946      932.64181    
     85000  -196347.22      1020.34       -195326.88      191.14871      191.55141      932.96917    
     85100  -196325.77      1038.9344     -195286.84      191.15838      191.57125      933.29653    
     85200  -196308.97      1096.9721     -195211.99      191.16828      191.58169      933.62388    
     85300  -196295.29      1099.3871     -195195.9       191.18436      191.58609      933.95124    
     85400  -196293.01      1046.8464     -195246.16      191.21026      191.59187      934.2786     
     85500  -196282.79      1014.3326     -195268.46      191.2421       191.60065      934.60596    
     85600  -196275.48      1059.1264     -195216.36      191.27353      191.60496      934.93331    
     85700  -196263.34      1103.0553     -195160.28      191.30354      191.60775      935.26067    
     85800  -196258.43      1080.3508     -195178.08      191.33144      191.61453      935.58803    
     85900  -196255.62      1028.4087     -195227.21      191.35931      191.62624      935.91539    
     86000  -196239.44      1023.1609     -195216.28      191.39181      191.64054      936.24274    
     86100  -196235.25      1087.1778     -195148.08      191.42273      191.65511      936.5701     
     86200  -196223.74      1098.3198     -195125.42      191.45364      191.66838      936.89746    
     86300  -196204.13      1036.1271     -195168         191.48529      191.67696      937.22482    
     86400  -196214.89      1038.9368     -195175.95      191.51432      191.68312      937.55217    
     86500  -196203.53      1066.9012     -195136.63      191.54677      191.69532      937.87953    
     86600  -196179.79      1078.3891     -195101.4       191.57882      191.70679      938.20689    
     86700  -196161.02      1066.886      -195094.14      191.60737      191.71525      938.53425    
     86800  -196142.44      1046.711      -195095.73      191.64257      191.72918      938.8616     
     86900  -196137.47      1059.7427     -195077.73      191.68061      191.75003      939.18896    
     87000  -196134.09      1073.4369     -195060.65      191.7148       191.76999      939.51632    
     87100  -196145.08      1074.0709     -195071.01      191.74509      191.79214      939.84368    
     87200  -196146.79      1044.6142     -195102.17      191.78188      191.81397      940.17103    
     87300  -196138.33      1031.5597     -195106.77      191.82356      191.8368       940.49839    
     87400  -196136.46      1069.4714     -195066.99      191.86138      191.85502      940.82575    
     87500  -196120.73      1082.1338     -195038.6       191.89966      191.87363      941.15311    
     87600  -196128.41      1074.8913     -195053.52      191.94035      191.89378      941.48047    
     87700  -196140.81      1043.1908     -195097.62      191.98179      191.91305      941.80782    
     87800  -196146.43      1034.4881     -195111.94      192.03077      191.93512      942.13518    
     87900  -196150.96      1065.4084     -195085.55      192.0837       191.95793      942.46254    
     88000  -196155.2       1089.2342     -195065.96      192.13577      191.97802      942.7899     
     88100  -196155.71      1069.1551     -195086.56      192.18497      192.00238      943.11725    
     88200  -196150.99      1035.1381     -195115.85      192.23076      192.03116      943.44461    
     88300  -196142.25      1037.8505     -195104.4       192.26936      192.0592       943.77197    
     88400  -196128.54      1074.1352     -195054.41      192.30189      192.08497      944.09933    
     88500  -196123.94      1095.4947     -195028.44      192.32626      192.10918      944.42668    
     88600  -196120.84      1061.2832     -195059.55      192.34929      192.13174      944.75404    
     88700  -196124.44      1033.3048     -195091.13      192.37486      192.16604      945.0814     
     88800  -196121.59      1044.9591     -195076.63      192.39044      192.20398      945.40876    
     88900  -196107.13      1076.1424     -195030.99      192.40106      192.24069      945.73611    
     89000  -196105.09      1095.3465     -195009.75      192.41059      192.28082      946.06347    
     89100  -196113.99      1063.0602     -195050.93      192.41244      192.32324      946.39083    
     89200  -196132.19      1033.4807     -195098.71      192.41856      192.36395      946.71819    
     89300  -196136.09      1039.3656     -195096.73      192.42792      192.39906      947.04554    
     89400  -196115.81      1062.6028     -195053.21      192.43722      192.42649      947.3729     
     89500  -196110.32      1092.9755     -195017.35      192.45192      192.45293      947.70026    
     89600  -196099.36      1066.9062     -195032.46      192.4701       192.47482      948.02762    
     89700  -196108.56      1045.7722     -195062.78      192.49419      192.48973      948.35497    
     89800  -196109.4       1040.8375     -195068.56      192.5228       192.50769      948.68233    
     89900  -196092.64      1056.5067     -195036.13      192.54739      192.52138      949.00969    
     90000  -196082.4       1085.4627     -194996.94      192.58093      192.5359       949.33705    
     90100  -196085.54      1086.7254     -194998.82      192.61227      192.54446      949.66441    
     90200  -196093.32      1052.3859     -195040.93      192.63844      192.55417      949.99176    
     90300  -196081.9       1021.2518     -195060.64      192.67088      192.56871      950.31912    
     90400  -196071.59      1054.6129     -195016.98      192.70896      192.58467      950.64648    
     90500  -196051.47      1088.5125     -194962.95      192.74849      192.60063      950.97384    
     90600  -196050.41      1085.1966     -194965.21      192.78263      192.61812      951.30119    
     90700  -196060.77      1052.6588     -195008.11      192.81372      192.63647      951.62855    
     90800  -196065.13      1032.6795     -195032.45      192.84781      192.658        951.95591    
     90900  -196051.08      1045.1281     -195005.95      192.88474      192.67602      952.28327    
     91000  -196022.46      1083.8731     -194938.59      192.92083      192.69254      952.61062    
     91100  -196030.36      1086.8283     -194943.53      192.95952      192.7148       952.93798    
     91200  -196039.25      1045.4126     -194993.84      192.99809      192.73966      953.26534    
     91300  -196039.24      1024.502      -195014.74      193.03429      192.76862      953.5927     
     91400  -196020.57      1065.0036     -194955.57      193.06603      192.79749      953.92005    
     91500  -196008.92      1095.4485     -194913.47      193.09607      192.82817      954.24741    
     91600  -196018.51      1081.1841     -194937.32      193.13028      192.86243      954.57477    
     91700  -196025.66      1039.4445     -194986.21      193.15967      192.89372      954.90213    
     91800  -196026.08      1030.2323     -194995.85      193.18187      192.92434      955.22948    
     91900  -196008.2       1063.5494     -194944.65      193.20143      192.95312      955.55684    
     92000  -196010.81      1094.069      -194916.75      193.21813      192.97695      955.8842     
     92100  -196009.06      1068.6223     -194940.44      193.23661      193.0031       956.21156    
     92200  -196014.28      1039.3739     -194974.9       193.25245      193.03132      956.53891    
     92300  -196009.12      1040.2957     -194968.82      193.27103      193.06338      956.86627    
     92400  -195999.68      1069.3466     -194930.33      193.28927      193.09893      957.19363    
     92500  -195990.15      1084.4856     -194905.66      193.29752      193.13078      957.52099    
     92600  -195991.15      1067.0313     -194924.12      193.30018      193.16235      957.84835    
     92700  -195999.71      1041.5539     -194958.15      193.30448      193.19891      958.1757     
     92800  -195996.12      1036.2008     -194959.92      193.31426      193.23436      958.50306    
     92900  -195989.03      1065.5494     -194923.48      193.33209      193.27816      958.83042    
     93000  -195978.16      1088.7822     -194889.38      193.34839      193.319        959.15778    
     93100  -195960.46      1065.4475     -194895.02      193.36497      193.35401      959.48513    
     93200  -195976.5       1056.4157     -194920.08      193.39043      193.39272      959.81249    
     93300  -195967.41      1035.8095     -194931.6       193.41032      193.42648      960.13985    
     93400  -195954.65      1052.3002     -194902.35      193.4232       193.45833      960.46721    
     93500  -195939.78      1084.7415     -194855.04      193.43614      193.49565      960.79456    
     93600  -195938.69      1090.4148     -194848.28      193.43867      193.5354       961.12192    
     93700  -195949.6       1059.6152     -194889.98      193.43248      193.57251      961.44928    
     93800  -195956.75      1034.0738     -194922.68      193.43024      193.60903      961.77664    
     93900  -195952.76      1043.8038     -194908.96      193.42624      193.64132      962.10399    
     94000  -195934.39      1070.1666     -194864.22      193.42133      193.67172      962.43135    
     94100  -195928.42      1088.5321     -194839.89      193.42215      193.70545      962.75871    
     94200  -195934.13      1070.7784     -194863.35      193.4166       193.73824      963.08607    
     94300  -195942.87      1042.077      -194900.8       193.40489      193.76676      963.41342    
     94400  -195938.65      1034.9093     -194903.74      193.39638      193.78998      963.74078    
     94500  -195925.29      1060.6219     -194864.67      193.39435      193.81017      964.06814    
     94600  -195911.83      1085.4755     -194826.36      193.39089      193.83452      964.3955     
     94700  -195910.42      1077.551      -194832.87      193.38489      193.86093      964.72285    
     94800  -195921.31      1052.5654     -194868.74      193.37952      193.88164      965.05021    
     94900  -195922.25      1035.477      -194886.77      193.37449      193.90077      965.37757    
     95000  -195914.01      1050.9569     -194863.05      193.36926      193.92025      965.70493    
     95100  -195903.31      1079.0718     -194824.23      193.36889      193.93388      966.03229    
     95200  -195894.59      1081.6067     -194812.98      193.36881      193.94274      966.35964    
     95300  -195904.12      1067.1717     -194836.95      193.36705      193.95454      966.687      
     95400  -195907.21      1041.6851     -194865.52      193.36583      193.97033      967.01436    
     95500  -195900.3       1040.9811     -194859.31      193.36307      193.98765      967.34172    
     95600  -195891.55      1069.3873     -194822.16      193.36047      194.0057       967.66907    
     95700  -195882.28      1083.8971     -194798.39      193.35731      194.02559      967.99643    
     95800  -195887.17      1076.074      -194811.09      193.34999      194.04746      968.32379    
     95900  -195891.18      1046.7271     -194844.46      193.34099      194.06907      968.65115    
     96000  -195893.57      1042.623      -194850.95      193.33244      194.08709      968.9785     
     96100  -195880.74      1063.1123     -194817.63      193.32767      194.10393      969.30586    
     96200  -195860.49      1076.6795     -194783.81      193.31925      194.11845      969.63322    
     96300  -195857.8       1073.4416     -194784.36      193.30663      194.13018      969.96058    
     96400  -195871.79      1060.7187     -194811.07      193.29836      194.14637      970.28793    
     96500  -195878.05      1045.0209     -194833.03      193.29151      194.16223      970.61529    
     96600  -195874.45      1048.3309     -194826.12      193.29017      194.17697      970.94265    
     96700  -195858.91      1065.9797     -194792.93      193.29486      194.19193      971.27001    
     96800  -195854.48      1082.5943     -194771.89      193.29734      194.20494      971.59736    
     96900  -195852.82      1067.9366     -194784.89      193.29943      194.21561      971.92472    
     97000  -195868.92      1056.1599     -194812.76      193.31045      194.23045      972.25208    
     97100  -195865.75      1040.9864     -194824.77      193.3167       194.24605      972.57944    
     97200  -195859.34      1057.2057     -194802.13      193.31424      194.26005      972.9068     
     97300  -195833.98      1066.2372     -194767.74      193.31225      194.2777       973.23415    
     97400  -195837.29      1083.3086     -194753.98      193.31113      194.29425      973.56151    
     97500  -195841.74      1064.9944     -194776.75      193.30662      194.31022      973.88887    
     97600  -195847.96      1046.7691     -194801.19      193.29979      194.33173      974.21623    
     97700  -195837.13      1044.6563     -194792.48      193.28418      194.35268      974.54358    
     97800  -195822.17      1069.0095     -194753.16      193.26291      194.37152      974.87094    
     97900  -195824.62      1067.6447     -194756.97      193.24507      194.39573      975.1983     
     98000  -195830.87      1055.1675     -194775.71      193.22262      194.42238      975.52566    
     98100  -195834.07      1052.7967     -194781.27      193.19891      194.44694      975.85301    
     98200  -195825.67      1058.9802     -194766.69      193.17857      194.46977      976.18037    
     98300  -195814.13      1067.6115     -194746.52      193.1552       194.49173      976.50773    
     98400  -195806.7       1065.8237     -194740.88      193.13009      194.51309      976.83509    
     98500  -195813.68      1062.2003     -194751.48      193.10689      194.53382      977.16244    
     98600  -195808.21      1047.2837     -194760.93      193.07551      194.55458      977.4898     
     98700  -195812.08      1060.2563     -194751.83      193.0407       194.57389      977.81716    
     98800  -195802.22      1063.2672     -194738.95      193.0106       194.59225      978.14452    
     98900  -195798.51      1063.542      -194734.97      192.98076      194.60835      978.47187    
     99000  -195799.55      1064.2479     -194735.31      192.94846      194.62173      978.79923    
     99100  -195797.79      1059.0377     -194738.75      192.91664      194.63543      979.12659    
     99200  -195790.82      1053.3532     -194737.47      192.89024      194.65547      979.45395    
     99300  -195783         1059.3321     -194723.66      192.86631      194.67924      979.7813     
     99400  -195777.8       1067.2424     -194710.56      192.84576      194.70748      980.10866    
     99500  -195777.28      1062.17       -194715.11      192.82691      194.73925      980.43602    
     99600  -195784.23      1059.7696     -194724.46      192.8049       194.76719      980.76338    
     99700  -195781.26      1054.9442     -194726.31      192.78124      194.78939      981.09074    
     99800  -195770.47      1059.7523     -194710.71      192.75858      194.81133      981.41809    
     99900  -195761.31      1066.9078     -194694.4       192.73843      194.83386      981.74545    
    100000  -195763.93      1070.4357     -194693.49      192.72182      194.85372      982.07281    
Loop time of 5040.52 on 12 procs for 100000 steps with 27360 atoms

Performance: 1.714 ns/day, 14.001 hours/ns, 19.839 timesteps/s, 542.801 katom-step/s
89.7% CPU use with 12 MPI tasks x 1 OpenMP threads

MPI task timing breakdown:
Section |  min time  |  avg time  |  max time  |%varavg| %total
---------------------------------------------------------------
Pair    | 1886.3     | 2979.6     | 4359.8     |1181.5 | 59.11
Neigh   | 13.171     | 27.295     | 40.845     | 135.6 |  0.54
Comm    | 137.19     | 1376.9     | 2358.7     |1901.8 | 27.32
Output  | 1.2562     | 1.3215     | 1.3912     |   3.7 |  0.03
Modify  | 192.77     | 650.41     | 1181.3     |1240.3 | 12.90
Other   |            | 4.937      |            |       |  0.10

Nlocal:           2280 ave        5495 max           0 min
Histogram: 2 2 2 2 0 1 0 0 1 2
Nghost:        1982.08 ave        4918 max         169 min
Histogram: 2 0 4 2 0 0 3 0 0 1
Neighs:              0 ave           0 max           0 min
Histogram: 12 0 0 0 0 0 0 0 0 0

Total # of neighbors = 0
Ave neighs/atom = 0
Neighbor list builds = 876
Dangerous builds = 0
Total wall time: 1:24:01
