LAMMPS (2 Aug 2023 - Update 3)
OMP_NUM_THREADS environment is not set. Defaulting to 1 thread. (src/comm.cpp:98)
  using 1 OpenMP thread(s) per MPI task

# 1------general---------------
units                             metal      #单位为lammps 中的metel 类型
dimension                    3          #模拟的维度 三维
boundary                    p p p      #周期边界条件
atom_style                  atomic   #原子类型自动
atom_modify              map array sort 100 2.0
neighbor                    3.0 bin
neigh_modify            every 1 delay 0 check yes
#2 -----global variable-------定义全局变量，方便统一修改；
variable temperature equal 300
variable tstep equal 0.001
variable pressure equal 0
variable thermalstep equal 100
variable dumpstep equal 1000
variable relaxtime equal 0
variable totaltime equal 100000
variable deformrate equal 5e-3
#3 -------model------------
#box tilt large
read_data     1.lmp
Reading data file ...
  orthogonal box = (-100 -100 -2.3312512) to (100 100 41.316429)
  2 by 5 by 1 MPI processor grid
  reading atoms ...
  1824 atoms
  read_data CPU = 0.006 seconds
replicate 1 1 17
Replication is creating a 1x1x17 = 17 times larger system...
  orthogonal box = (-100 -100 -2.3312512) to (100 100 739.67931)
  1 by 2 by 5 MPI processor grid
  31008 atoms
  replicate CPU = 0.002 seconds
write_data h.data
System init for write_data ...
WARNING: Communication cutoff is 0.0. No ghost atoms will be generated. Atoms may get lost. (src/comm_brick.cpp:210)
pair_style hybrid airebo 3.0 airebo 3.0 airebo 3.0 lj/cut 10
pair_coeff * * airebo 1 CH.airebo C NULL NULL
Reading airebo potential file CH.airebo with DATE: 2011-10-25
pair_coeff * * airebo 2 CH.airebo NULL C NULL
Reading airebo potential file CH.airebo with DATE: 2011-10-25
pair_coeff * * airebo 3 CH.airebo NULL NULL C
Reading airebo potential file CH.airebo with DATE: 2011-10-25
pair_coeff 1 2 lj/cut 0.00456 3.431
pair_coeff 1 3 lj/cut 0.00456 3.431
pair_coeff 2 3 lj/cut 0.00456 3.431

# 5------minimize -----------
min_style      sd
minimize       1.0e-4 1.0e-6 100 1000
Neighbor list info ...
  update: every = 1 steps, delay = 0 steps, check = yes
  max neighbors/atom: 2000, page size: 100000
  master list distance cutoff = 13.2
  ghost atom cutoff = 13.2
  binsize = 6.6, bins = 31 31 113
  6 neighbor lists, perpetual/occasional/extra = 6 0 0
  (1) pair airebo, perpetual, skip from (5)
      attributes: full, newton on, ghost
      pair build: skip/ghost
      stencil: none
      bin: none
  (2) pair airebo, perpetual, skip from (5)
      attributes: full, newton on, ghost
      pair build: skip/ghost
      stencil: none
      bin: none
  (3) pair airebo, perpetual, skip from (5)
      attributes: full, newton on, ghost
      pair build: skip/ghost
      stencil: none
      bin: none
  (4) pair lj/cut, perpetual, skip from (6)
      attributes: half, newton on, cut 13
      pair build: skip
      stencil: none
      bin: none
  (5) neighbor class addition, perpetual
      attributes: full, newton on, ghost
      pair build: full/bin/ghost
      stencil: full/ghost/bin/3d
      bin: standard
  (6) neighbor class addition, perpetual
      attributes: half, newton on, cut 13
      pair build: half/bin/atomonly/newton
      stencil: half/bin/3d
      bin: standard
Per MPI rank memory allocation (min/avg/max) = 20.95 | 21.41 | 21.71 Mbytes
   Step          Temp          E_pair         E_mol          TotEng         Press     
         0   0             -223386.2       0             -223386.2       705.43265    
         4   0             -224148.03      0             -224148.03      93.415916    
Loop time of 0.427266 on 10 procs for 4 steps with 31008 atoms

97.0% CPU use with 10 MPI tasks x 1 OpenMP threads

Minimization stats:
  Stopping criterion = energy tolerance
  Energy initial, next-to-last, final = 
     -223386.198808368  -224128.958972926  -224148.032410329
  Force two-norm initial, final = 284.73662 47.470983
  Force max component initial, final = 3.4318528 0.54749295
  Final line search alpha, max atom move = 0.13695896 0.074984064
  Iterations, force evaluations = 4 8

MPI task timing breakdown:
Section |  min time  |  avg time  |  max time  |%varavg| %total
---------------------------------------------------------------
Pair    | 0.36738    | 0.38462    | 0.41757    |   2.2 | 90.02
Neigh   | 0          | 0          | 0          |   0.0 |  0.00
Comm    | 0.0013499  | 0.030221   | 0.050433   |   8.9 |  7.07
Output  | 0          | 0          | 0          |   0.0 |  0.00
Modify  | 0          | 0          | 0          |   0.0 |  0.00
Other   |            | 0.01242    |            |       |  2.91

Nlocal:         3100.8 ave        3180 max        3012 min
Histogram: 2 3 0 0 0 0 0 0 0 5
Nghost:         4204.8 ave        4314 max        4118 min
Histogram: 4 0 1 0 0 0 0 3 1 1
Neighs:              0 ave           0 max           0 min
Histogram: 10 0 0 0 0 0 0 0 0 0

Total # of neighbors = 0
Ave neighs/atom = 0
Neighbor list builds = 0
Dangerous builds = 0
#6----define computes------
variable nums equal count(all) #计算原子数目
variable toval equal 22.7273*22.7165*lz #计算系统总体积，单层石墨烯厚度为0.335nm
variable vol equal ${toval} #体系的初始体积
variable vol equal 383088.710199358 
variable vatom equal v_vol/v_nums #单个原子体积
compute 1 all stress/atom NULL #计算体系中单原子应力
compute xalls all reduce sum c_1[1]
variable xstress equal (c_xalls)/(v_toval*10000)
compute yalls all reduce sum c_1[2]
variable ystress equal (c_yalls)/(v_toval*10000)
compute zalls all reduce sum c_1[3]
variable zstress equal (c_zalls)/(v_toval*10000)
#7---------relaxation-------------------------
timestep ${tstep}
timestep 0.001
velocity all create ${temperature} 231743 units box dist gaussian
velocity all create 300 231743 units box dist gaussian
dump   1 all atom 100 all-cy.lammpstrj
#fix    1 all npt temp 300 300  0.1 aniso 0 0 10 drag 1  #三个方向独立控压
fix  1 all npt temp ${temperature} ${temperature} 0.1 x ${pressure} ${pressure} 10 y ${pressure} ${pressure} 10
fix  1 all npt temp 300 ${temperature} 0.1 x ${pressure} ${pressure} 10 y ${pressure} ${pressure} 10
fix  1 all npt temp 300 300 0.1 x ${pressure} ${pressure} 10 y ${pressure} ${pressure} 10
fix  1 all npt temp 300 300 0.1 x 0 ${pressure} 10 y ${pressure} ${pressure} 10
fix  1 all npt temp 300 300 0.1 x 0 0 10 y ${pressure} ${pressure} 10
fix  1 all npt temp 300 300 0.1 x 0 0 10 y 0 ${pressure} 10
fix  1 all npt temp 300 300 0.1 x 0 0 10 y 0 0 10
compute  2 all pe/atom
compute  pe all reduce sum c_2
variable PE equal "c_pe"
fix    pe all print 100 "${PE} " file PE.txt screen no
thermo  ${thermalstep}
thermo  100
#thermo_style  custom step pe ke etotal lx ly lz
run   ${relaxtime}
run   0
Per MPI rank memory allocation (min/avg/max) = 21.57 | 22.22 | 22.72 Mbytes
   Step          Temp          E_pair         E_mol          TotEng         Press          Volume    
         4   300           -224148.03      0             -222945.64      136.68669      29680423     
Loop time of 9.9766e-06 on 10 procs for 0 steps with 31008 atoms

106.2% CPU use with 10 MPI tasks x 1 OpenMP threads

MPI task timing breakdown:
Section |  min time  |  avg time  |  max time  |%varavg| %total
---------------------------------------------------------------
Pair    | 0          | 0          | 0          |   0.0 |  0.00
Neigh   | 0          | 0          | 0          |   0.0 |  0.00
Comm    | 0          | 0          | 0          |   0.0 |  0.00
Output  | 0          | 0          | 0          |   0.0 |  0.00
Modify  | 0          | 0          | 0          |   0.0 |  0.00
Other   |            | 9.977e-06  |            |       |100.00

Nlocal:         3100.8 ave        3133 max        3057 min
Histogram: 1 1 0 2 1 0 0 0 3 2
Nghost:         4203.8 ave        4265 max        4166 min
Histogram: 2 2 0 1 3 0 0 1 0 1
Neighs:              0 ave           0 max           0 min
Histogram: 10 0 0 0 0 0 0 0 0 0

Total # of neighbors = 0
Ave neighs/atom = 0
Neighbor list builds = 0
Dangerous builds = 0
#8 -------tension-----------------------------
unfix  1
undump  1
unfix  pe
reset_timestep 0
fix avestress all ave/atom 1 ${dumpstep} ${dumpstep} c_1[1] c_1[2] c_1[3] c_1[4] c_1[5] c_1[6]
fix avestress all ave/atom 1 1000 ${dumpstep} c_1[1] c_1[2] c_1[3] c_1[4] c_1[5] c_1[6]
fix avestress all ave/atom 1 1000 1000 c_1[1] c_1[2] c_1[3] c_1[4] c_1[5] c_1[6]

#-----calculation of strain and Cumulative compression--------
variable                tmp equal "lz"
variable                L0 equal ${tmp}
variable                L0 equal 742.0105659636
variable                strain equal "(lz - v_L0)/v_L0"
variable                Cumulativels equal "(lz - v_L0)/10"
fix Step all print 100 "${strain} ${Cumulativels} ${zstress}" file grapoten.txt screen no

dump 2 all custom ${dumpstep} tension.xyz type x y z f_avestress[1] f_avestress[2] f_avestress[3] f_avestress[4] f_avestress[5] f_avestress[6]
dump 2 all custom 1000 tension.xyz type x y z f_avestress[1] f_avestress[2] f_avestress[3] f_avestress[4] f_avestress[5] f_avestress[6]

fix  1 all npt temp ${temperature} ${temperature} 0.1 y ${pressure} ${pressure} 10 x ${pressure} ${pressure} 10
fix  1 all npt temp 300 ${temperature} 0.1 y ${pressure} ${pressure} 10 x ${pressure} ${pressure} 10
fix  1 all npt temp 300 300 0.1 y ${pressure} ${pressure} 10 x ${pressure} ${pressure} 10
fix  1 all npt temp 300 300 0.1 y 0 ${pressure} 10 x ${pressure} ${pressure} 10
fix  1 all npt temp 300 300 0.1 y 0 0 10 x ${pressure} ${pressure} 10
fix  1 all npt temp 300 300 0.1 y 0 0 10 x 0 ${pressure} 10
fix  1 all npt temp 300 300 0.1 y 0 0 10 x 0 0 10

thermo_style custom step pe ke etotal lx ly lz
fix   2 all deform 1 z erate ${deformrate} remap x units box
fix   2 all deform 1 z erate 0.005 remap x units box
fix   3 all ave/time 2 500 1000 v_xstress v_ystress v_zstress file pressure.out
run   ${totaltime}
run   100000
WARNING: Dump 2 includes no atom IDs and is not sorted by ID. This may complicate post-processing tasks or visualization (src/dump.cpp:221)
Per MPI rank memory allocation (min/avg/max) = 23.07 | 23.72 | 24.22 Mbytes
   Step         PotEng         KinEng         TotEng           Lx             Ly             Lz      
         0  -224148.03      1202.3908     -222945.64      200            200            742.01057    
       100  -223470.94      600.55107     -222870.39      199.99176      199.99162      742.38157    
       200  -223526.84      755.2542      -222771.59      199.98417      199.98651      742.75258    
       300  -223454.04      799.13472     -222654.91      200.00281      200.00907      743.12358    
       400  -223405.03      877.09534     -222527.93      199.99526      200.00786      743.49459    
       500  -223349.95      954.87606     -222395.08      199.98542      200.00624      743.86559    
       600  -223286.5       1029.0931     -222257.41      199.99909      200.02704      744.2366     
       700  -223208.01      1084.7155     -222123.29      199.99009      200.02208      744.6076     
       800  -223095.28      1096.0979     -221999.18      199.97262      200.00722      744.97861    
       900  -223051.83      1161.5576     -221890.27      199.97598      200.00972      745.34961    
      1000  -222976         1166.5671     -221809.43      199.98565      200.01701      745.72062    
      1100  -223011.5       1232.1405     -221779.36      199.97831      200.00647      746.09162    
      1200  -222999.89      1187.5819     -221812.31      199.98904      200.01374      746.46263    
      1300  -223055.91      1201.1118     -221854.8       199.99324      200.01431      746.83363    
      1400  -223059.22      1191.6431     -221867.57      199.98464      200.00411      747.20464    
      1500  -223060.25      1218.1829     -221842.07      199.98648      200.00408      747.57565    
      1600  -223049.89      1249.0957     -221800.79      199.99058      200.00552      747.94665    
      1700  -223000.36      1223.9356     -221776.42      199.9816       199.99568      748.31766    
      1800  -223013.38      1221.9366     -221791.44      199.97829      199.99225      748.68866    
      1900  -222989.38      1166.8469     -221822.53      199.98696      200.00037      749.05967    
      2000  -223017.46      1182.0566     -221835.4       199.9783       199.99373      749.43067    
      2100  -222984.84      1163.7872     -221821.05      199.97095      199.9895       749.80168    
      2200  -222996.73      1205.6014     -221791.13      199.96846      199.99101      750.17268    
      2300  -222970.93      1204.217      -221766.72      199.9661       199.99423      750.54369    
      2400  -222992.56      1226.8474     -221765.71      199.95614      199.99051      750.91469    
      2500  -222990.69      1205.5765     -221785.12      199.9535       199.9951       751.2857     
      2600  -222996.61      1197.3404     -221799.27      199.95007      199.99964      751.6567     
      2700  -222993.51      1203.2237     -221790.28      199.93838      199.99734      752.02771    
      2800  -222965.57      1203.4416     -221762.12      199.92958      199.9979       752.39871    
      2900  -222962.54      1226.5296     -221736.01      199.92522      200.00342      752.76972    
      3000  -222931.85      1203.8573     -221728         199.919        200.00679      753.14072    
      3100  -222937.69      1201.7345     -221735.95      199.90738      200.00279      753.51173    
      3200  -222924.47      1180.3878     -221744.08      199.90384      200.00436      753.88274    
      3300  -222935.15      1195.4609     -221739.69      199.89408      199.99831      754.25374    
      3400  -222906.13      1184.3489     -221721.78      199.88574      199.99244      754.62475    
      3500  -222910.21      1211.4082     -221698.8       199.8821       199.98939      754.99575    
      3600  -222889.9       1207.555      -221682.35      199.87935      199.98679      755.36676    
      3700  -222896.35      1218.8338     -221677.51      199.87028      199.97755      755.73776    
      3800  -222892.16      1207.7007     -221684.46      199.86683      199.97235      756.10877    
      3900  -222890.21      1203.3968     -221686.81      199.86279      199.96668      756.47977    
      4000  -222878.24      1206.4649     -221671.78      199.85607      199.95592      756.85078    
      4100  -222846.85      1202.7079     -221644.15      199.85815      199.9531       757.22178    
      4200  -222837.18      1216.2511     -221620.93      199.85756      199.94773      757.59279    
      4300  -222806.97      1194.4854     -221612.48      199.85209      199.93788      757.96379    
      4400  -222819.26      1202.5917     -221616.67      199.84811      199.93071      758.3348     
      4500  -222806.25      1186.6905     -221619.56      199.84775      199.92848      758.7058     
      4600  -222804.46      1195.9095     -221608.55      199.83874      199.91974      759.07681    
      4700  -222781.33      1195.814      -221585.51      199.83161      199.91299      759.44781    
      4800  -222765.14      1204.9527     -221560.19      199.82562      199.90905      759.81882    
      4900  -222754.34      1211.4981     -221542.84      199.81644      199.90212      760.18982    
      5000  -222746.74      1204.931      -221541.8       199.80723      199.89469      760.56083    
      5100  -222754.76      1207.8281     -221546.93      199.79825      199.88996      760.93184    
      5200  -222740.43      1194.0482     -221546.38      199.78825      199.8842       761.30284    
      5300  -222735.15      1204.7019     -221530.45      199.77364      199.8757       761.67385    
      5400  -222701.32      1201.1316     -221500.19      199.76238      199.86987      762.04485    
      5500  -222675.7       1204.7498     -221470.95      199.75122      199.86381      762.41586    
      5600  -222657.59      1203.4503     -221454.14      199.74066      199.85892      762.78686    
      5700  -222657.2       1202.5023     -221454.7       199.73061      199.85377      763.15787    
      5800  -222651.01      1190.1005     -221460.91      199.71977      199.8491       763.52887    
      5900  -222644.77      1190.6656     -221454.11      199.70721      199.84385      763.89988    
      6000  -222621.35      1196.8367     -221424.52      199.6952       199.84073      764.27088    
      6100  -222593.84      1208.1336     -221385.71      199.68334      199.83936      764.64189    
      6200  -222579.44      1217.9115     -221361.53      199.67051      199.83566      765.01289    
      6300  -222564.02      1209.1205     -221354.9       199.65691      199.8306       765.3839     
      6400  -222558.89      1199.6803     -221359.21      199.6443       199.82542      765.7549     
      6500  -222540.67      1185.891      -221354.77      199.63143      199.81861      766.12591    
      6600  -222531.67      1200.4579     -221331.22      199.61723      199.80788      766.49691    
      6700  -222499.94      1202.7384     -221297.2       199.60784      199.80216      766.86792    
      6800  -222484.11      1212.7377     -221271.38      199.59711      199.79603      767.23893    
      6900  -222462.67      1203.242      -221259.42      199.58353      199.7857       767.60993    
      7000  -222452.04      1197.7302     -221254.31      199.57096      199.77545      767.98094    
      7100  -222435.87      1191.2623     -221244.61      199.56024      199.76491      768.35194    
      7200  -222432.14      1203.6529     -221228.49      199.5484       199.75249      768.72295    
      7300  -222407.09      1200.3482     -221206.74      199.53521      199.74165      769.09395    
      7400  -222385.83      1206.8        -221179.03      199.5228       199.73083      769.46496    
      7500  -222363.41      1209.1289     -221154.28      199.50847      199.72065      769.83596    
      7600  -222345.54      1206.3758     -221139.16      199.49475      199.71012      770.20697    
      7700  -222332.82      1204.1736     -221128.65      199.4808       199.69914      770.57797    
      7800  -222311.76      1194.5641     -221117.19      199.46698      199.69005      770.94898    
      7900  -222303.63      1200.694      -221102.94      199.45324      199.6796       771.31998    
      8000  -222279.27      1195.0245     -221084.24      199.43918      199.66977      771.69099    
      8100  -222264.72      1206.8627     -221057.86      199.42348      199.65874      772.06199    
      8200  -222236.95      1206.0141     -221030.93      199.40794      199.64831      772.433      
      8300  -222221.5       1213.2943     -221008.2       199.39215      199.63717      772.804      
      8400  -222200.82      1206.56       -220994.26      199.37728      199.62625      773.17501    
      8500  -222190.92      1202.3487     -220988.57      199.36178      199.61248      773.54602    
      8600  -222168.47      1190.1488     -220978.32      199.34678      199.59572      773.91702    
      8700  -222152.2       1199.1169     -220953.09      199.33338      199.57859      774.28803    
      8800  -222120.03      1200.4799     -220919.55      199.32268      199.56077      774.65903    
      8900  -222091.9       1200.9605     -220890.94      199.3119       199.54382      775.03004    
      9000  -222078.78      1204.3351     -220874.45      199.30201      199.52637      775.40104    
      9100  -222073.36      1207.4864     -220865.88      199.29303      199.50956      775.77205    
      9200  -222045.72      1193.1465     -220852.57      199.28223      199.49144      776.14305    
      9300  -222022.86      1198.7326     -220824.12      199.26975      199.47371      776.51406    
      9400  -221985.8       1199.119      -220786.68      199.25664      199.45585      776.88506    
      9500  -221961         1206.6422     -220754.35      199.24371      199.44056      777.25607    
      9600  -221945.46      1210.4993     -220734.96      199.23062      199.42752      777.62707    
      9700  -221923.09      1199.4015     -220723.69      199.21748      199.41293      777.99808    
      9800  -221912.29      1200.09       -220712.2       199.19923      199.39535      778.36908    
      9900  -221888.31      1197.0291     -220691.28      199.18072      199.37838      778.74009    
     10000  -221853.81      1196.0387     -220657.77      199.16543      199.36453      779.11109    
     10100  -221830.89      1208.8968     -220621.99      199.14548      199.35143      779.4821     
     10200  -221802.88      1207.9946     -220594.89      199.12448      199.33825      779.8531     
     10300  -221791.28      1208.3856     -220582.9       199.10537      199.32746      780.22411    
     10400  -221762.07      1187.2212     -220574.85      199.0828       199.31382      780.59512    
     10500  -221752.15      1197.5123     -220554.64      199.05656      199.29713      780.96612    
     10600  -221716.37      1198.7784     -220517.59      199.03364      199.28436      781.33713    
     10700  -221689.21      1212.137      -220477.07      199.01038      199.27046      781.70813    
     10800  -221656.73      1208.0863     -220448.65      198.98464      199.25611      782.07914    
     10900  -221645.81      1208.0354     -220437.78      198.96321      199.24297      782.45014    
     11000  -221630.45      1199.0146     -220431.44      198.94192      199.23051      782.82115    
     11100  -221603.49      1190.3988     -220413.09      198.92148      199.2181       783.19215    
     11200  -221569.37      1194.2632     -220375.1       198.90493      199.20723      783.56316    
     11300  -221536.85      1207.7075     -220329.14      198.88438      199.19227      783.93416    
     11400  -221501.78      1209.0325     -220292.75      198.86172      199.17396      784.30517    
     11500  -221479.79      1203.9549     -220275.83      198.84197      199.15817      784.67617    
     11600  -221472.35      1202.7597     -220269.59      198.82343      199.14297      785.04718    
     11700  -221444.91      1189.7151     -220255.19      198.80531      199.12772      785.41818    
     11800  -221417.13      1196.4932     -220220.64      198.78682      199.11125      785.78919    
     11900  -221378.94      1204.0033     -220174.94      198.76899      199.09422      786.16019    
     12000  -221351.24      1216.0962     -220135.15      198.74937      199.07501      786.5312     
     12100  -221324.81      1212.3585     -220112.45      198.72959      199.05771      786.90221    
     12200  -221299.04      1197.3499     -220101.69      198.70892      199.04099      787.27321    
     12300  -221281.42      1196.9103     -220084.51      198.68627      199.02336      787.64422    
     12400  -221251.11      1198.2271     -220052.88      198.66575      199.00821      788.01522    
     12500  -221211.82      1202.3391     -220009.48      198.64666      198.99429      788.38623    
     12600  -221176.67      1206.8744     -219969.8       198.62533      198.97916      788.75723    
     12700  -221152.32      1210.4205     -219941.9       198.60634      198.96312      789.12824    
     12800  -221129.86      1204.4374     -219925.43      198.58574      198.94634      789.49924    
     12900  -221110.2       1198.2741     -219911.93      198.56162      198.92601      789.87025    
     13000  -221081.62      1191.6981     -219889.92      198.54087      198.9073       790.24125    
     13100  -221042.83      1187.7113     -219855.11      198.52172      198.89102      790.61226    
     13200  -221013.3       1201.1898     -219812.11      198.50311      198.87447      790.98326    
     13300  -220989.02      1214.6195     -219774.4       198.48638      198.85995      791.35427    
     13400  -220949.63      1200.8613     -219748.77      198.4683       198.84581      791.72527    
     13500  -220936.13      1203.6223     -219732.51      198.44578      198.82911      792.09628    
     13600  -220902.23      1190.7559     -219711.47      198.42569      198.81601      792.46728    
     13700  -220866.61      1188.2069     -219678.4       198.40624      198.80554      792.83829    
     13800  -220837.69      1204.0362     -219633.66      198.3842       198.79213      793.2093     
     13900  -220805.02      1214.2939     -219590.72      198.3665       198.7801       793.5803     
     14000  -220777.94      1216.0257     -219561.92      198.34658      198.7671       793.95131    
     14100  -220744.94      1197.8848     -219547.06      198.32382      198.74805      794.32231    
     14200  -220734.95      1206.1497     -219528.8       198.30282      198.72917      794.69332    
     14300  -220695.48      1197.9407     -219497.54      198.28396      198.71268      795.06432    
     14400  -220656.87      1204.5683     -219452.3       198.26331      198.69186      795.43533    
     14500  -220619.31      1212.2079     -219407.1       198.24597      198.67598      795.80633    
     14600  -220580.92      1207.5174     -219373.4       198.23272      198.66357      796.17734    
     14700  -220550.59      1197.4226     -219353.17      198.21609      198.64714      796.54834    
     14800  -220537.42      1205.897      -219331.52      198.20168      198.63064      796.91935    
     14900  -220496.19      1196.9344     -219299.26      198.19008      198.61753      797.29035    
     15000  -220466.14      1209.5634     -219256.57      198.17504      198.60327      797.66136    
     15100  -220420.14      1204.278      -219215.86      198.16018      198.58906      798.03236    
     15200  -220382.99      1201.6265     -219181.37      198.14499      198.57692      798.40337    
     15300  -220359.1       1205.8378     -219153.26      198.12815      198.56185      798.77437    
     15400  -220333.95      1204.9964     -219128.95      198.11431      198.54894      799.14538    
     15500  -220294.16      1192.9006     -219101.26      198.10134      198.5364       799.51638    
     15600  -220258.14      1198.8405     -219059.3       198.08573      198.51871      799.88739    
     15700  -220221.24      1208.519      -219012.72      198.07093      198.50202      800.2584     
     15800  -220178.7       1204.0777     -218974.62      198.05798      198.4879       800.6294     
     15900  -220159.2       1210.7474     -218948.45      198.04385      198.47168      801.00041    
     16000  -220128.42      1202.5404     -218925.88      198.03253      198.45753      801.37141    
     16100  -220097.44      1203.6479     -218893.79      198.02257      198.44523      801.74242    
     16200  -220052.96      1200.3712     -218852.58      198.00801      198.42712      802.11342    
     16300  -220008.56      1201.5089     -218807.05      197.99433      198.41009      802.48443    
     16400  -219972.29      1205.9773     -218766.31      197.98251      198.39698      802.85543    
     16500  -219940.61      1204.9889     -218735.62      197.96932      198.38309      803.22644    
     16600  -219914.49      1202.8519     -218711.63      197.95626      198.37283      803.59744    
     16700  -219876.73      1195.324      -218681.4       197.94473      198.36591      803.96845    
     16800  -219839.07      1199.6347     -218639.44      197.93091      198.35572      804.33945    
     16900  -219799.48      1205.2902     -218594.19      197.91868      198.34591      804.71046    
     17000  -219755.73      1202.4589     -218553.27      197.90945      198.33808      805.08146    
     17100  -219728.11      1210.219      -218517.89      197.89759      198.32869      805.45247    
     17200  -219692.38      1201.0298     -218491.35      197.88615      198.31963      805.82347    
     17300  -219661.24      1197.9545     -218463.29      197.87655      198.31232      806.19448    
     17400  -219626.45      1204.0714     -218422.37      197.86444      198.30116      806.56549    
     17500  -219580.99      1203.9764     -218377.02      197.8525       198.28749      806.93649    
     17600  -219542.32      1205.5866     -218336.73      197.84539      198.27731      807.3075     
     17700  -219505.22      1205.0029     -218300.21      197.83764      198.26638      807.6785     
     17800  -219476.86      1211.5759     -218265.29      197.82728      198.25281      808.04951    
     17900  -219431.23      1196.6571     -218234.58      197.81885      198.2406       808.42051    
     18000  -219407.82      1197.4916     -218210.33      197.80728      198.22589      808.79152    
     18100  -219369.57      1186.671      -218182.9       197.79269      198.20959      809.16252    
     18200  -219336.95      1203.297      -218133.65      197.78135      198.19852      809.53353    
     18300  -219284.86      1197.6023     -218087.25      197.77013      198.18927      809.90453    
     18400  -219245.34      1205.9148     -218039.42      197.75752      198.17787      810.27554    
     18500  -219200.95      1205.3065     -217995.64      197.74742      198.16975      810.64654    
     18600  -219161.87      1206.4237     -217955.45      197.73851      198.16244      811.01755    
     18700  -219119.47      1198.9282     -217920.54      197.72882      198.15292      811.38855    
     18800  -219085.62      1190.7511     -217894.87      197.71962      198.14489      811.75956    
     18900  -219054.32      1198.3601     -217855.96      197.70999      198.13616      812.13056    
     19000  -219002.53      1194.3375     -217808.19      197.7005       198.12792      812.50157    
     19100  -218965.99      1204.5217     -217761.46      197.69135      198.11961      812.87258    
     19200  -218930.3       1208.5737     -217721.72      197.68238      198.10964      813.24358    
     19300  -218890.44      1206.8575     -217683.58      197.67472      198.10057      813.61459    
     19400  -218851.5       1201.0214     -217650.48      197.66859      198.09401      813.98559    
     19500  -218816.01      1194.7179     -217621.29      197.66015      198.0859       814.3566     
     19600  -218767.89      1191.5223     -217576.37      197.65075      198.077        814.7276     
     19700  -218728.11      1208.5051     -217519.6       197.64175      198.06697      815.09861    
     19800  -218680.49      1204.8021     -217475.69      197.63153      198.05477      815.46961    
     19900  -218634.62      1201.5481     -217433.07      197.62134      198.04286      815.84062    
     20000  -218598.1       1205.2286     -217392.87      197.61224      198.03324      816.21162    
     20100  -218559.63      1200.3052     -217359.33      197.60297      198.02384      816.58263    
     20200  -218524.28      1200.761      -217323.52      197.5924       198.01388      816.95363    
     20300  -218485.01      1205.8846     -217279.13      197.58418      198.00544      817.32464    
     20400  -218430.53      1204.8819     -217225.65      197.57546      197.99637      817.69564    
     20500  -218384.49      1205.7165     -217178.78      197.56537      197.98531      818.06665    
     20600  -218350.08      1205.5628     -217144.52      197.56027      197.97877      818.43765    
     20700  -218310.12      1198.0536     -217112.06      197.55394      197.97069      818.80866    
     20800  -218271.02      1199.4347     -217071.58      197.54158      197.95866      819.17966    
     20900  -218231.88      1204.4245     -217027.46      197.53341      197.95258      819.55067    
     21000  -218183.8       1204.3332     -216979.46      197.52509      197.94654      819.92168    
     21100  -218133.31      1206.1667     -216927.14      197.51071      197.9361       820.29268    
     21200  -218093.77      1207.7438     -216886.02      197.50307      197.93045      820.66369    
     21300  -218062.18      1201.8834     -216860.3       197.49567      197.92412      821.03469    
     21400  -218026.25      1205.8409     -216820.41      197.48184      197.9109       821.4057     
     21500  -217967.69      1193.8791     -216773.81      197.47311      197.90187      821.7767     
     21600  -217924.18      1202.7096     -216721.47      197.46525      197.89347      822.14771    
     21700  -217897.89      1221.6558     -216676.23      197.45283      197.88039      822.51871    
     21800  -217842.45      1192.5864     -216649.87      197.44501      197.87194      822.88972    
     21900  -217806.31      1196.7791     -216609.53      197.43859      197.86388      823.26072    
     22000  -217757.92      1199.3406     -216558.58      197.42856      197.85334      823.63173    
     22100  -217721.34      1213.6952     -216507.64      197.41994      197.84644      824.00273    
     22200  -217667.9       1206.9791     -216460.92      197.40953      197.83951      824.37374    
     22300  -217623.23      1208.7724     -216414.45      197.39554      197.83108      824.74474    
     22400  -217575.97      1212.3169     -216363.65      197.38484      197.82479      825.11575    
     22500  -217526.19      1205.8298     -216320.36      197.37436      197.82091      825.48675    
     22600  -217487.82      1199.8356     -216287.98      197.36132      197.81416      825.85776    
     22700  -217451.75      1201.2769     -216250.47      197.34879      197.80632      826.22877    
     22800  -217409.9       1205.3349     -216204.56      197.33815      197.79995      826.59977    
     22900  -217349.24      1201.8321     -216147.41      197.32628      197.79174      826.97078    
     23000  -217301.46      1203.6604     -216097.8       197.31542      197.78327      827.34178    
     23100  -217255         1196.8988     -216058.1       197.3115       197.7792       827.71279    
     23200  -217214.13      1192.9667     -216021.16      197.30487      197.77103      828.08379    
     23300  -217176.06      1198.5643     -215977.5       197.29354      197.75661      828.4548     
     23400  -217124.14      1202.9571     -215921.18      197.28476      197.74392      828.8258     
     23500  -217077.58      1212.1077     -215865.47      197.27409      197.7285       829.19681    
     23600  -217022.21      1194.716      -215827.5       197.2655       197.71342      829.56781    
     23700  -216994.07      1204.2313     -215789.84      197.25996      197.70185      829.93882    
     23800  -216952.7       1206.3076     -215746.39      197.25301      197.68749      830.30982    
     23900  -216893.9       1194.5043     -215699.4       197.24457      197.67296      830.68083    
     24000  -216859.43      1204.7172     -215654.72      197.23677      197.66117      831.05183    
     24100  -216813.21      1202.9704     -215610.24      197.22632      197.64724      831.42284    
     24200  -216757.77      1199.7338     -215558.04      197.2142       197.63408      831.79384    
     24300  -216706.84      1204.024      -215502.82      197.20622      197.62395      832.16485    
     24400  -216657.76      1204.2905     -215453.47      197.19714      197.61458      832.53586    
     24500  -216617.32      1203.3493     -215413.97      197.18647      197.60349      832.90686    
     24600  -216578.65      1197.6293     -215381.02      197.17816      197.5946       833.27787    
     24700  -216522.19      1192.0964     -215330.1       197.16819      197.58593      833.64887    
     24800  -216472.9       1199.8661     -215273.03      197.15768      197.57536      834.01988    
     24900  -216426.6       1205.0358     -215221.57      197.14876      197.56726      834.39088    
     25000  -216375.34      1199.4159     -215175.93      197.13975      197.55835      834.76189    
     25100  -216326.18      1195.6342     -215130.55      197.12794      197.54793      835.13289    
     25200  -216278.77      1198.3122     -215080.45      197.11712      197.53793      835.5039     
     25300  -216225.4       1199.6168     -215025.78      197.10724      197.52794      835.8749     
     25400  -216180.1       1208.9574     -214971.14      197.09352      197.51541      836.24591    
     25500  -216131.46      1205.4185     -214926.04      197.07898      197.50347      836.61691    
     25600  -216080.26      1188.2687     -214891.99      197.06488      197.49452      836.98792    
     25700  -216043.52      1197.5799     -214845.94      197.04842      197.48514      837.35892    
     25800  -215991.96      1198.5662     -214793.39      197.03258      197.47669      837.72993    
     25900  -215947.75      1206.7017     -214741.05      197.01712      197.46931      838.10093    
     26000  -215893.03      1207.5184     -214685.52      197.00127      197.45983      838.47194    
     26100  -215834.23      1208.4505     -214625.78      196.98548      197.44894      838.84294    
     26200  -215790.77      1210.4803     -214580.29      196.97024      197.43773      839.21395    
     26300  -215752.26      1206.48       -214545.78      196.95632      197.42886      839.58496    
     26400  -215695         1194.0706     -214500.93      196.94199      197.42124      839.95596    
     26500  -215646.89      1196.8307     -214450.06      196.92895      197.41126      840.32697    
     26600  -215597.37      1206.366      -214391         196.91794      197.40104      840.69797    
     26700  -215540.37      1205.0652     -214335.31      196.90773      197.39011      841.06898    
     26800  -215491.86      1200.6808     -214291.18      196.89606      197.37456      841.43998    
     26900  -215458.69      1201.6083     -214257.08      196.88565      197.3601       841.81099    
     27000  -215404.34      1196.3032     -214208.03      196.87666      197.34544      842.18199    
     27100  -215360.41      1208.292      -214152.12      196.86529      197.32811      842.553      
     27200  -215292.11      1196.4487     -214095.66      196.85449      197.31065      842.924      
     27300  -215244.68      1201.7193     -214042.96      196.84602      197.29412      843.29501    
     27400  -215195.26      1199.0366     -213996.23      196.8363       197.27775      843.66601    
     27500  -215163.52      1205.7433     -213957.78      196.82699      197.26123      844.03702    
     27600  -215103.76      1193.0931     -213910.66      196.81743      197.24659      844.40802    
     27700  -215056.66      1207.8021     -213848.86      196.80444      197.23297      844.77903    
     27800  -214993.34      1200.6751     -213792.66      196.78866      197.21948      845.15003    
     27900  -214946.34      1202.3936     -213743.94      196.77187      197.20683      845.52104    
     28000  -214900.2       1203.1648     -213697.04      196.75877      197.19428      845.89205    
     28100  -214856.56      1205.0759     -213651.48      196.74538      197.18315      846.26305    
     28200  -214806.96      1197.5397     -213609.42      196.73068      197.17174      846.63406    
     28300  -214749.79      1197.2232     -213552.57      196.71447      197.16135      847.00506    
     28400  -214693.14      1204.8366     -213488.31      196.69546      197.15117      847.37607    
     28500  -214642.5       1207.5825     -213434.92      196.67508      197.14049      847.74707    
     28600  -214594.28      1209.2852     -213384.99      196.6558       197.13185      848.11808    
     28700  -214536.04      1194.9206     -213341.12      196.63842      197.12248      848.48908    
     28800  -214487.22      1189.7858     -213297.43      196.62169      197.11357      848.86009    
     28900  -214433.78      1194.4697     -213239.31      196.60698      197.10416      849.23109    
     29000  -214379.2       1205.6456     -213173.55      196.59002      197.09411      849.6021     
     29100  -214326.52      1206.347      -213120.18      196.57079      197.08314      849.9731     
     29200  -214278.68      1205.4469     -213073.24      196.55187      197.07295      850.34411    
     29300  -214233.34      1201.8213     -213031.52      196.53382      197.06405      850.71511    
     29400  -214176.17      1194.6584     -212981.51      196.51615      197.05254      851.08612    
     29500  -214118.54      1206.7003     -212911.83      196.49946      197.04095      851.45712    
     29600  -214062.78      1205.9325     -212856.85      196.48567      197.03091      851.82813    
     29700  -214007.26      1199.1122     -212808.15      196.46968      197.01871      852.19914    
     29800  -213960.57      1199.1955     -212761.38      196.45135      197.0042       852.57014    
     29900  -213912.82      1197.366      -212715.46      196.43702      196.99162      852.94115    
     30000  -213851.16      1186.6832     -212664.47      196.42143      196.97854      853.31215    
     30100  -213805.8       1207.5114     -212598.29      196.40536      196.96221      853.68316    
     30200  -213743.99      1204.0444     -212539.95      196.39367      196.94973      854.05416    
     30300  -213697         1207.4812     -212489.51      196.38153      196.93477      854.42517    
     30400  -213646.36      1199.5814     -212446.78      196.3669       196.91511      854.79617    
     30500  -213596.37      1191.6249     -212404.75      196.35429      196.89907      855.16718    
     30600  -213545.23      1198.2375     -212346.99      196.34219      196.88342      855.53818    
     30700  -213484.66      1198.4749     -212286.19      196.32721      196.86594      855.90919    
     30800  -213427.28      1201.4685     -212225.81      196.31347      196.8509       856.28019    
     30900  -213367.16      1201.8474     -212165.31      196.30031      196.83749      856.6512     
     31000  -213309.92      1203.9856     -212105.94      196.28576      196.82184      857.0222     
     31100  -213258.21      1208.9109     -212049.3       196.27348      196.80639      857.39321    
     31200  -213205.81      1212.4975     -211993.31      196.26137      196.79207      857.76421    
     31300  -213148.52      1199.848      -211948.68      196.2482       196.77706      858.13522    
     31400  -213100.98      1195.6808     -211905.3       196.23615      196.76412      858.50622    
     31500  -213053.34      1202.7954     -211850.55      196.22166      196.75086      858.87723    
     31600  -212980         1194.4151     -211785.59      196.20523      196.7369       859.24824    
     31700  -212928.61      1201.7984     -211726.81      196.19034      196.72671      859.61924    
     31800  -212874.35      1200.3612     -211673.99      196.17344      196.71354      859.99025    
     31900  -212830.76      1208.1138     -211622.65      196.15568      196.69879      860.36125    
     32000  -212762.86      1194.2496     -211568.61      196.1408       196.68733      860.73226    
     32100  -212712.39      1207.0833     -211505.31      196.12274      196.6731       861.10326    
     32200  -212654.17      1210.7878     -211443.38      196.10177      196.65771      861.47427    
     32300  -212596.53      1203.1296     -211393.4       196.08546      196.64543      861.84527    
     32400  -212549.12      1199.183      -211349.94      196.06981      196.63039      862.21628    
     32500  -212499.98      1202.4436     -211297.54      196.05156      196.6107       862.58728    
     32600  -212442.38      1202.3628     -211240.02      196.03885      196.59298      862.95829    
     32700  -212381.67      1199.4665     -211182.21      196.02711      196.57474      863.32929    
     32800  -212326.96      1201.7926     -211125.17      196.01269      196.55508      863.7003     
     32900  -212272.64      1203.7883     -211068.85      196.00276      196.53886      864.0713     
     33000  -212214.91      1204.9173     -211009.99      195.99432      196.52539      864.44231    
     33100  -212152.32      1207.1523     -210945.17      195.98277      196.50759      864.81331    
     33200  -212100.45      1210.5531     -210889.9       195.97173      196.49033      865.18432    
     33300  -212049.62      1202.1001     -210847.52      195.96048      196.47508      865.55533    
     33400  -211993.18      1195.8195     -210797.36      195.94819      196.45844      865.92633    
     33500  -211935.83      1197.0174     -210738.81      195.93489      196.44368      866.29734    
     33600  -211878.58      1202.1788     -210676.4       195.92297      196.43038      866.66834    
     33700  -211822.61      1206.3559     -210616.25      195.91046      196.41503      867.03935    
     33800  -211761.33      1200.4636     -210560.87      195.89544      196.3977       867.41035    
     33900  -211705.31      1199.0531     -210506.25      195.88032      196.38059      867.78136    
     34000  -211658.37      1205.1099     -210453.26      195.86492      196.36596      868.15236    
     34100  -211607.66      1202.8936     -210404.77      195.84812      196.35104      868.52337    
     34200  -211546.91      1196.3056     -210350.61      195.82978      196.33687      868.89437    
     34300  -211490.82      1206.9378     -210283.88      195.81291      196.32623      869.26538    
     34400  -211420.38      1200.4311     -210219.95      195.79491      196.31198      869.63638    
     34500  -211368.85      1203.1175     -210165.73      195.77584      196.29528      870.00739    
     34600  -211316.41      1202.3972     -210114.01      195.7603       196.28024      870.37839    
     34700  -211264.37      1204.6034     -210059.77      195.74495      196.26514      870.7494     
     34800  -211199.05      1196.8586     -210002.19      195.72813      196.24875      871.1204     
     34900  -211143.05      1199.9048     -209943.15      195.71359      196.23475      871.49141    
     35000  -211091.54      1206.5726     -209884.96      195.70141      196.22195      871.86242    
     35100  -211020.31      1191.398      -209828.91      195.68974      196.20831      872.23342    
     35200  -210975.86      1197.4816     -209778.38      195.67811      196.19469      872.60443    
     35300  -210920.97      1195.968      -209725.01      195.66535      196.17934      872.97543    
     35400  -210854.14      1196.3318     -209657.81      195.6511       196.16498      873.34644    
     35500  -210801.45      1208.3921     -209593.06      195.63731      196.15001      873.71744    
     35600  -210731.39      1197.5535     -209533.83      195.62274      196.1339       874.08845    
     35700  -210675.65      1198.9086     -209476.74      195.61177      196.1198       874.45945    
     35800  -210622.14      1198.2862     -209423.86      195.60103      196.10496      874.83046    
     35900  -210579.76      1205.9017     -209373.86      195.58738      196.08769      875.20146    
     36000  -210518.15      1197.1691     -209320.98      195.57691      196.07266      875.57247    
     36100  -210454.42      1198.0226     -209256.4       195.56644      196.05789      875.94347    
     36200  -210398.05      1211.2061     -209186.84      195.55288      196.03989      876.31448    
     36300  -210328.42      1199.0517     -209129.37      195.54273      196.02461      876.68548    
     36400  -210272.21      1198.6586     -209073.55      195.53125      196.0105       877.05649    
     36500  -210220.56      1198.7258     -209021.84      195.5168       195.99198      877.42749    
     36600  -210168.97      1195.4826     -208973.49      195.50472      195.97756      877.7985     
     36700  -210107.1       1199.2482     -208907.85      195.49363      195.96537      878.1695     
     36800  -210035.18      1196.4796     -208838.7       195.48015      195.94862      878.54051    
     36900  -209984.55      1204.921      -208779.63      195.46732      195.93585      878.91152    
     37000  -209913.71      1191.2749     -208722.44      195.45687      195.92452      879.28252    
     37100  -209871.55      1208.5743     -208662.98      195.44137      195.90833      879.65353    
     37200  -209807.1       1203.4643     -208603.64      195.42684      195.8946       880.02453    
     37300  -209756.4       1210.5265     -208545.87      195.41472      195.8815       880.39554    
     37400  -209688.62      1198.6455     -208489.98      195.39773      195.86579      880.76654    
     37500  -209634.63      1201.9956     -208432.63      195.38246      195.85141      881.13755    
     37600  -209570.8       1196.8642     -208373.94      195.37015      195.84049      881.50855    
     37700  -209512.97      1204.7565     -208308.22      195.35477      195.82924      881.87956    
     37800  -209443.82      1200.0152     -208243.81      195.33987      195.81593      882.25056    
     37900  -209397.41      1208.3717     -208189.04      195.32415      195.80272      882.62157    
     38000  -209344.07      1198.1295     -208145.94      195.30864      195.78948      882.99257    
     38100  -209283.11      1194.0303     -208089.08      195.29401      195.77695      883.36358    
     38200  -209225.37      1202.6009     -208022.77      195.28052      195.76713      883.73458    
     38300  -209160.84      1203.5374     -207957.31      195.26907      195.7583       884.10559    
     38400  -209104.44      1207.2094     -207897.23      195.25477      195.74849      884.47659    
     38500  -209044.96      1205.8671     -207839.09      195.2402       195.73592      884.8476     
     38600  -208982.53      1201.0649     -207781.46      195.22711      195.72551      885.21861    
     38700  -208927.29      1204.3206     -207722.97      195.21385      195.71592      885.58961    
     38800  -208865.96      1203.1933     -207662.77      195.20025      195.70451      885.96062    
     38900  -208806.76      1205.4702     -207601.29      195.18798      195.69551      886.33162    
     39000  -208740.06      1198.2295     -207541.83      195.17779      195.68576      886.70263    
     39100  -208691.26      1207.2313     -207484.03      195.16132      195.67197      887.07363    
     39200  -208621.87      1194.293      -207427.58      195.14381      195.6577       887.44464    
     39300  -208576.9       1206.5109     -207370.39      195.12935      195.64598      887.81564    
     39400  -208504.35      1199.2451     -207305.1       195.11267      195.63461      888.18665    
     39500  -208446.8       1211.8652     -207234.93      195.09733      195.6226       888.55765    
     39600  -208381.35      1205.4711     -207175.88      195.0846       195.61308      888.92866    
     39700  -208334.86      1207.7501     -207127.11      195.06871      195.60133      889.29966    
     39800  -208267.45      1193.599      -207073.85      195.05272      195.58889      889.67067    
     39900  -208211.2       1199.6534     -207011.55      195.03744      195.57868      890.04167    
     40000  -208147.95      1204.6558     -206943.3       195.02127      195.5656       890.41268    
     40100  -208084.08      1205.1149     -206878.96      195.00792      195.55462      890.78368    
     40200  -208022.24      1199.2658     -206822.98      194.9952       195.54435      891.15469    
     40300  -207972.33      1193.0634     -206779.27      194.98131      195.53164      891.5257     
     40400  -207919.38      1200.2507     -206719.13      194.97043      195.52115      891.8967     
     40500  -207847.67      1197.1478     -206650.52      194.95914      195.50884      892.26771    
     40600  -207784.05      1198.2433     -206585.81      194.94538      195.49277      892.63871    
     40700  -207734.88      1210.9262     -206523.95      194.93445      195.47898      893.00972    
     40800  -207662.54      1200.3764     -206462.16      194.92546      195.46576      893.38072    
     40900  -207613.37      1218.0498     -206395.32      194.9147       195.45151      893.75173    
     41000  -207529.78      1202.1123     -206327.67      194.90647      195.43985      894.12273    
     41100  -207476.05      1203.2079     -206272.84      194.89821      195.42916      894.49374    
     41200  -207428.29      1203.3155     -206224.98      194.88601      195.41618      894.86474    
     41300  -207362.21      1195.2196     -206166.99      194.87294      195.4017       895.23575    
     41400  -207297.37      1195.8814     -206101.49      194.8608       195.39024      895.60675    
     41500  -207232.12      1200.147      -206031.98      194.84731      195.3782       895.97776    
     41600  -207174.7       1207.5912     -205967.11      194.83405      195.36779      896.34876    
     41700  -207109.75      1196.967      -205912.79      194.82095      195.36068      896.71977    
     41800  -207059.62      1195.9993     -205863.62      194.80506      195.35087      897.09077    
     41900  -207001.46      1198.1751     -205803.29      194.78762      195.34057      897.46178    
     42000  -206932.16      1200.1072     -205732.05      194.77028      195.33065      897.83278    
     42100  -206875.23      1210.4131     -205664.82      194.75334      195.32051      898.20379    
     42200  -206806.84      1200.6625     -205606.18      194.73743      195.31148      898.5748     
     42300  -206755.84      1198.9659     -205556.88      194.7215       195.30073      898.9458     
     42400  -206698.03      1193.8183     -205504.21      194.70537      195.29065      899.31681    
     42500  -206632.29      1194.2532     -205438.04      194.69028      195.28247      899.68781    
     42600  -206576.16      1206.8854     -205369.28      194.67355      195.27272      900.05882    
     42700  -206506.55      1203.9468     -205302.6       194.65887      195.26493      900.42982    
     42800  -206445         1203.9987     -205241         194.64615      195.25838      900.80083    
     42900  -206387.8       1203.3726     -205184.43      194.63139      195.24596      901.17183    
     43000  -206329.59      1195.1122     -205134.48      194.61878      195.23357      901.54284    
     43100  -206268.93      1195.6761     -205073.25      194.60854      195.22263      901.91384    
     43200  -206200.26      1200.7677     -204999.49      194.59709      195.20681      902.28485    
     43300  -206133.21      1200.1181     -204933.09      194.58608      195.19241      902.65585    
     43400  -206077.89      1206.4883     -204871.4       194.58003      195.18125      903.02686    
     43500  -206013.96      1202.1007     -204811.86      194.57295      195.16558      903.39786    
     43600  -205955.34      1195.1989     -204760.14      194.56275      195.1493       903.76887    
     43700  -205904.08      1196.9822     -204707.1       194.55429      195.13381      904.13987    
     43800  -205835.42      1197.9197     -204637.5       194.54322      195.11536      904.51088    
     43900  -205772.38      1205.8841     -204566.5       194.53016      195.09602      904.88189    
     44000  -205707.78      1204.1205     -204503.66      194.52189      195.07941      905.25289    
     44100  -205643.5       1197.506      -204446         194.51583      195.06508      905.6239     
     44200  -205593.58      1201.2203     -204392.36      194.50808      195.05144      905.9949     
     44300  -205533.29      1192.9068     -204340.38      194.49897      195.03788      906.36591    
     44400  -205464.24      1192.1495     -204272.09      194.48822      195.0237       906.73691    
     44500  -205395.96      1200.4902     -204195.47      194.48018      195.01096      907.10792    
     44600  -205333.9       1201.1525     -204132.75      194.47092      194.99661      907.47892    
     44700  -205276.9       1201.6484     -204075.25      194.45907      194.98156      907.84993    
     44800  -205212.88      1193.2148     -204019.67      194.45081      194.96951      908.22093    
     44900  -205163.19      1201.1786     -203962.01      194.4425       194.9595       908.59194    
     45000  -205090.95      1195.3489     -203895.61      194.42991      194.94467      908.96294    
     45100  -205020.12      1200.2138     -203819.91      194.41954      194.93125      909.33395    
     45200  -204962.36      1207.1414     -203755.22      194.40952      194.92116      909.70495    
     45300  -204908.97      1208.9389     -203700.03      194.39674      194.90699      910.07596    
     45400  -204846.79      1199.7845     -203647         194.3832       194.89293      910.44696    
     45500  -204779.6       1195.3463     -203584.26      194.37107      194.88242      910.81797    
     45600  -204716.57      1198.0156     -203518.55      194.35963      194.86985      911.18898    
     45700  -204649.65      1196.193      -203453.46      194.3439       194.85619      911.55998    
     45800  -204590.66      1203.1858     -203387.47      194.32838      194.84428      911.93099    
     45900  -204530         1203.3663     -203326.63      194.31534      194.83516      912.30199    
     46000  -204477.29      1201.1331     -203276.15      194.3002       194.82538      912.673      
     46100  -204404.31      1187.669      -203216.64      194.2861       194.81316      913.044      
     46200  -204346.17      1201.4522     -203144.72      194.27351      194.80145      913.41501    
     46300  -204283.25      1205.7662     -203077.48      194.26033      194.78922      913.78601    
     46400  -204222.62      1206.7563     -203015.86      194.24641      194.7752       914.15702    
     46500  -204160.21      1202.7685     -202957.44      194.23306      194.76305      914.52802    
     46600  -204095.14      1197.2336     -202897.9       194.22295      194.75338      914.89903    
     46700  -204040.13      1202.4488     -202837.68      194.21315      194.74362      915.27003    
     46800  -203959.84      1190.4625     -202769.38      194.20284      194.73269      915.64104    
     46900  -203912.65      1215.031      -202697.62      194.19334      194.72082      916.01204    
     47000  -203837.48      1201.8016     -202635.68      194.18359      194.70895      916.38305    
     47100  -203792.29      1205.3496     -202586.94      194.17214      194.69343      916.75405    
     47200  -203718.84      1192.7566     -202526.09      194.15966      194.67547      917.12506    
     47300  -203656.86      1200.2624     -202456.59      194.14831      194.66011      917.49606    
     47400  -203587.07      1200.5407     -202386.53      194.13749      194.64617      917.86707    
     47500  -203525.37      1202.6216     -202322.75      194.12519      194.63202      918.23808    
     47600  -203476.39      1201.8178     -202274.57      194.11298      194.61775      918.60908    
     47700  -203409.27      1191.1047     -202218.17      194.1027       194.60409      918.98009    
     47800  -203347.14      1199.6078     -202147.53      194.09018      194.58711      919.35109    
     47900  -203281.81      1207.217      -202074.59      194.07689      194.56955      919.7221     
     48000  -203219.5       1211.0805     -202008.42      194.06734      194.55621      920.0931     
     48100  -203154.84      1199.899      -201954.94      194.05633      194.54374      920.46411    
     48200  -203099.24      1198.6955     -201900.55      194.04285      194.53062      920.83511    
     48300  -203030.12      1197.3903     -201832.73      194.03287      194.52063      921.20612    
     48400  -202973.17      1211.2098     -201761.96      194.02128      194.50942      921.57712    
     48500  -202905.13      1207.5899     -201697.54      194.00645      194.49415      921.94813    
     48600  -202844.22      1199.1691     -201645.06      193.99346      194.48267      922.31913    
     48700  -202786.06      1197.3586     -201588.7       193.98031      194.47213      922.69014    
     48800  -202720.03      1199.2824     -201520.75      193.96475      194.45978      923.06114    
     48900  -202650.62      1200.5166     -201450.1       193.94973      194.44896      923.43215    
     49000  -202581.15      1197.59       -201383.56      193.93439      194.43808      923.80315    
     49100  -202525.83      1202.3231     -201323.51      193.91911      194.42775      924.17416    
     49200  -202477.46      1200.6056     -201276.85      193.90478      194.41864      924.54517    
     49300  -202405.5       1192.6468     -201212.85      193.88826      194.40736      924.91617    
     49400  -202338.12      1200.3476     -201137.77      193.87234      194.39565      925.28718    
     49500  -202275.44      1209.4126     -201066.03      193.85844      194.38639      925.65818    
     49600  -202205.08      1202.9781     -201002.11      193.84281      194.37394      926.02919    
     49700  -202152.25      1207.2115     -200945.03      193.82572      194.36035      926.40019    
     49800  -202082.78      1192.6713     -200890.11      193.81183      194.35097      926.7712     
     49900  -202020.18      1197.0672     -200823.11      193.79719      194.33977      927.1422     
     50000  -201948.4       1210.1619     -200738.24      193.78098      194.32618      927.51321    
     50100  -201885.38      1207.144      -200678.24      193.76825      194.31307      927.88421    
     50200  -201831.42      1204.8244     -200626.59      193.75774      194.30048      928.25522    
     50300  -201769.35      1200.0222     -200569.33      193.7453       194.28484      928.62622    
     50400  -201708.47      1202.0008     -200506.47      193.73286      194.26756      928.99723    
     50500  -201641.48      1198.6548     -200442.83      193.72284      194.25437      929.36823    
     50600  -201577.49      1200.4158     -200377.07      193.71011      194.2392       929.73924    
     50700  -201514.86      1206.5219     -200308.33      193.69592      194.22332      930.11024    
     50800  -201443.42      1203.7143     -200239.7       193.6856       194.21095      930.48125    
     50900  -201387.32      1207.3982     -200179.93      193.67409      194.19734      930.85226    
     51000  -201317.06      1190.2701     -200126.79      193.66158      194.18225      931.22326    
     51100  -201262.72      1200.0711     -200062.65      193.65042      194.16932      931.59427    
     51200  -201192.57      1200.3983     -199992.18      193.63786      194.15475      931.96527    
     51300  -201126.83      1206.3471     -199920.48      193.62387      194.13874      932.33628    
     51400  -201056.09      1213.1432     -199842.94      193.61125      194.1251       932.70728    
     51500  -200994.52      1215.6855     -199778.84      193.59906      194.11073      933.07829    
     51600  -200934.95      1207.3529     -199727.6       193.58483      194.09602      933.44929    
     51700  -200876.96      1205.9326     -199671.03      193.57162      194.08362      933.8203     
     51800  -200815.2       1201.8361     -199613.37      193.55733      194.07082      934.1913     
     51900  -200747.43      1194.9057     -199552.53      193.54146      194.058        934.56231    
     52000  -200697.86      1209.4816     -199488.38      193.52835      194.04677      934.93331    
     52100  -200633.71      1207.272      -199426.44      193.51438      194.03419      935.30432    
     52200  -200560.4       1196.1663     -199364.24      193.50161      194.02189      935.67532    
     52300  -200494.81      1201.5579     -199293.25      193.49115      194.01079      936.04633    
     52400  -200431.72      1213.0859     -199218.63      193.47982      193.99876      936.41733    
     52500  -200366.27      1211.8632     -199154.4       193.46597      193.98725      936.78834    
     52600  -200300.84      1197.8983     -199102.94      193.45134      193.97625      937.15934    
     52700  -200236.98      1198.2051     -199038.77      193.43502      193.96529      937.53035    
     52800  -200174.82      1207.378      -198967.44      193.41987      193.95436      937.90136    
     52900  -200096.81      1202.1798     -198894.63      193.40622      193.94152      938.27236    
     53000  -200039.33      1211.9112     -198827.42      193.39244      193.92618      938.64337    
     53100  -199975.1       1200.2666     -198774.84      193.379        193.91235      939.01437    
     53200  -199922.6       1205.4424     -198717.16      193.36213      193.89805      939.38538    
     53300  -199847.25      1193.1765     -198654.07      193.34314      193.88357      939.75638    
     53400  -199790.14      1202.2042     -198587.93      193.32726      193.8721       940.12739    
     53500  -199729.06      1203.6056     -198525.46      193.31228      193.85907      940.49839    
     53600  -199659.83      1192.9364     -198466.9       193.2964       193.84231      940.8694     
     53700  -199599.19      1196.4968     -198402.69      193.28474      193.82887      941.2404     
     53800  -199531.1       1199.1191     -198331.98      193.27391      193.81591      941.61141    
     53900  -199461.35      1207.3153     -198254.03      193.26131      193.80142      941.98241    
     54000  -199390.41      1205.2748     -198185.14      193.25003      193.78912      942.35342    
     54100  -199335.4       1203.9276     -198131.47      193.2401       193.77817      942.72442    
     54200  -199271.8       1202.881      -198068.91      193.22823      193.76464      943.09543    
     54300  -199208.27      1205.0699     -198003.2       193.21514      193.7502       943.46643    
     54400  -199138.63      1202.4182     -197936.21      193.20459      193.73676      943.83744    
     54500  -199070.56      1196.3164     -197874.24      193.19406      193.72155      944.20845    
     54600  -199017         1200.359      -197816.64      193.1809       193.70359      944.57945    
     54700  -198956.49      1205.8656     -197750.63      193.16965      193.68745      944.95046    
     54800  -198880.83      1204.5531     -197676.27      193.15739      193.67247      945.32146    
     54900  -198807.13      1211.9076     -197595.23      193.14212      193.65584      945.69247    
     55000  -198741.74      1208.4215     -197533.32      193.1291       193.64169      946.06347    
     55100  -198686.52      1209.3316     -197477.19      193.11702      193.62955      946.43448    
     55200  -198625.61      1206.7888     -197418.82      193.1036       193.61528      946.80548    
     55300  -198555.12      1196.2101     -197358.91      193.08903      193.60063      947.17649    
     55400  -198494.07      1197.6083     -197296.46      193.07511      193.58655      947.54749    
     55500  -198429.6       1198.3591     -197231.24      193.06104      193.57116      947.9185     
     55600  -198365.3       1194.8048     -197170.49      193.04737      193.55675      948.2895     
     55700  -198306.94      1195.7486     -197111.19      193.03565      193.5436       948.66051    
     55800  -198245.13      1203.2114     -197041.91      193.02376      193.53112      949.03151    
     55900  -198164.19      1203.7423     -196960.45      193.01099      193.51786      949.40252    
     56000  -198099.83      1214.0727     -196885.76      192.99686      193.50322      949.77352    
     56100  -198036.27      1208.4979     -196827.77      192.98136      193.48935      950.14453    
     56200  -197975.02      1209.527      -196765.5       192.96629      193.47645      950.51553    
     56300  -197906.9       1203.809      -196703.09      192.9518       193.46411      950.88654    
     56400  -197844.8       1203.2807     -196641.52      192.93793      193.45284      951.25755    
     56500  -197778.81      1202.9743     -196575.84      192.92477      193.44113      951.62855    
     56600  -197718.17      1209.5487     -196508.62      192.91177      193.42742      951.99956    
     56700  -197657.6       1203.3112     -196454.29      192.89811      193.41139      952.37056    
     56800  -197587.46      1199.0765     -196388.39      192.88436      193.39622      952.74157    
     56900  -197517.43      1206.029      -196311.4       192.87096      193.38263      953.11257    
     57000  -197447.54      1213.0756     -196234.46      192.85819      193.36915      953.48358    
     57100  -197387.58      1213.5018     -196174.07      192.84453      193.3549       953.85458    
     57200  -197321.11      1204.9462     -196116.16      192.83278      193.33912      954.22559    
     57300  -197255.22      1203.8067     -196051.42      192.8217       193.3222       954.59659    
     57400  -197190.49      1203.5673     -195986.92      192.81028      193.30393      954.9676     
     57500  -197118.84      1198.1969     -195920.65      192.79953      193.28674      955.3386     
     57600  -197066.26      1211.0752     -195855.18      192.78951      193.27278      955.70961    
     57700  -196996.38      1200.533      -195795.84      192.77722      193.25738      956.08061    
     57800  -196919.87      1193.1167     -195726.75      192.7638       193.24211      956.45162    
     57900  -196852.15      1201.9922     -195650.16      192.75152      193.22843      956.82262    
     58000  -196782.13      1211.2849     -195570.85      192.73843      193.21359      957.19363    
     58100  -196715.13      1218.8178     -195496.31      192.72428      193.20031      957.56464    
     58200  -196644.14      1203.1792     -195440.97      192.71214      193.18903      957.93564    
     58300  -196590.96      1210.3433     -195380.62      192.69979      193.17697      958.30665    
     58400  -196525.75      1207.2468     -195318.5       192.68641      193.1648       958.67765    
     58500  -196458.59      1203.2299     -195255.36      192.67091      193.15023      959.04866    
     58600  -196388.12      1199.3945     -195188.72      192.65549      193.13614      959.41966    
     58700  -196327.72      1207.863      -195119.86      192.64273      193.1248       959.79067    
     58800  -196255.91      1196.0232     -195059.89      192.62898      193.11014      960.16167    
     58900  -196194.56      1200.4713     -194994.09      192.61622      193.09713      960.53268    
     59000  -196127.95      1209.4891     -194918.46      192.60574      193.08694      960.90368    
     59100  -196051.55      1202.4986     -194849.05      192.59146      193.07384      961.27469    
     59200  -195984.27      1197.9042     -194786.36      192.57599      193.06058      961.64569    
     59300  -195922.76      1203.0064     -194719.76      192.56177      193.0481       962.0167     
     59400  -195850.96      1202.2751     -194648.68      192.54485      193.03298      962.3877     
     59500  -195777.21      1199.0015     -194578.2       192.52818      193.01838      962.75871    
     59600  -195706.19      1194.5615     -194511.63      192.51372      193.00479      963.12971    
     59700  -195649.14      1201.7749     -194447.36      192.49931      192.991        963.50072    
     59800  -195580.28      1203.7123     -194376.57      192.48582      192.97721      963.87173    
     59900  -195510.73      1205.5682     -194305.16      192.47157      192.96269      964.24273    
     60000  -195439.85      1201.8737     -194237.97      192.45803      192.94831      964.61374    
     60100  -195377.34      1205.2584     -194172.09      192.44456      192.93408      964.98474    
     60200  -195300.7       1199.6223     -194101.07      192.43042      192.91886      965.35575    
     60300  -195236.08      1202.6131     -194033.47      192.41809      192.90571      965.72675    
     60400  -195170.23      1204.4455     -193965.79      192.40697      192.89272      966.09776    
     60500  -195100.33      1204.4519     -193895.88      192.39521      192.87866      966.46876    
     60600  -195036.17      1210.7382     -193825.43      192.38276      192.8639       966.83977    
     60700  -194960.63      1205.28       -193755.35      192.37062      192.85041      967.21077    
     60800  -194890.25      1204.16       -193686.09      192.3594       192.83718      967.58178    
     60900  -194828.29      1211.923      -193616.37      192.34647      192.82314      967.95278    
     61000  -194753.86      1205.5822     -193548.28      192.33358      192.80971      968.32379    
     61100  -194687.55      1208.964      -193478.58      192.32046      192.79642      968.69479    
     61200  -194616.46      1206.2683     -193410.19      192.30567      192.783        969.0658     
     61300  -194540.58      1201.1117     -193339.47      192.29065      192.76901      969.4368     
     61400  -194477.33      1208.463      -193268.87      192.27699      192.75484      969.80781    
     61500  -194403.24      1205.5932     -193197.65      192.26357      192.74008      970.17881    
     61600  -194332.61      1206.406      -193126.21      192.25175      192.72483      970.54982    
     61700  -194268.91      1212.3708     -193056.54      192.2405       192.71003      970.92083    
     61800  -194192.21      1205.6609     -192986.55      192.22823      192.69528      971.29183    
     61900  -194119.63      1203.432      -192916.2       192.21505      192.67995      971.66284    
     62000  -194058.51      1212.825      -192845.68      192.20058      192.66505      972.03384    
     62100  -193985.95      1211.5316     -192774.42      192.18663      192.64997      972.40485    
     62200  -193913.65      1211.4019     -192702.25      192.17113      192.63406      972.77585    
     62300  -193830.73      1200.9385     -192629.79      192.15524      192.61882      973.14686    
     62400  -193768.48      1211.0826     -192557.39      192.1409       192.60611      973.51786    
     62500  -193686.3       1201.6764     -192484.62      192.12516      192.59255      973.88887    
     62600  -193622.21      1210.8616     -192411.35      192.10932      192.57768      974.25987    
     62700  -193547.01      1208.1413     -192338.87      192.09669      192.5656       974.63088    
     62800  -193470.49      1202.5351     -192267.95      192.08234      192.55337      975.00188    
     62900  -193406.62      1211.7015     -192194.91      192.06763      192.54156      975.37289    
     63000  -193336.5       1213.9482     -192122.55      192.05258      192.53051      975.74389    
     63100  -193255.12      1204.8882     -192050.23      192.03749      192.5177       976.1149     
     63200  -193193.31      1216.4609     -191976.85      192.02405      192.50499      976.4859     
     63300  -193110.5       1207.7867     -191902.71      192.00881      192.48968      976.85691    
     63400  -193035.38      1207.6998     -191827.68      191.99523      192.47555      977.22792    
     63500  -192964.86      1211.6146     -191753.25      191.9833       192.46401      977.59892    
     63600  -192886.26      1207.9368     -191678.33      191.96735      192.44897      977.96993    
     63700  -192804.79      1202.5581     -191602.23      191.95208      192.43501      978.34093    
     63800  -192733.59      1206.468      -191527.12      191.93987      192.42325      978.71194    
     63900  -192661.12      1208.8526     -191452.27      191.92608      192.40758      979.08294    
     64000  -192583.69      1206.8145     -191376.87      191.91263      192.39191      979.45395    
     64100  -192503.1       1202.2308     -191300.87      191.90105      192.37824      979.82495    
     64200  -192435.01      1209.4134     -191225.6       191.88658      192.36214      980.19596    
     64300  -192347.08      1198.4842     -191148.59      191.87261      192.34502      980.56696    
     64400  -192279.12      1206.6314     -191072.48      191.86021      192.32737      980.93797    
     64500  -192207.42      1211.8644     -190995.56      191.84706      192.31049      981.30897    
     64600  -192125.09      1206.8264     -190918.26      191.8358       192.29663      981.67998    
     64700  -192046.87      1206.7622     -190840.11      191.82329      192.28227      982.05098    
     64800  -191971.19      1209.7241     -190761.47      191.80953      192.26741      982.42199    
     64900  -191897.11      1215.0525     -190682.06      191.79555      192.25235      982.79299    
     65000  -191807.59      1203.9995     -190603.59      191.78081      192.23798      983.164      
     65100  -191735.63      1211.218      -190524.41      191.76689      192.22483      983.53501    
     65200  -191654.18      1207.963      -190446.22      191.75313      192.21179      983.90601    
     65300  -191575.83      1207.2666     -190368.56      191.73891      192.19764      984.27702    
     65400  -191491.83      1202.6688     -190289.16      191.72373      192.18357      984.64802    
     65500  -191413.71      1204.5181     -190209.19      191.70882      192.17049      985.01903    
     65600  -191341.46      1211.335      -190130.12      191.69406      192.15739      985.39003    
     65700  -191259.02      1208.6921     -190050.33      191.67873      192.14484      985.76104    
     65800  -191170.92      1202.6133     -189968.31      191.66335      192.13189      986.13204    
     65900  -191095.28      1207.5392     -189887.74      191.64969      192.12123      986.50305    
     66000  -191011.29      1205.1569     -189806.14      191.63504      192.1098       986.87405    
     66100  -190934.18      1211.4948     -189722.68      191.61763      192.09532      987.24506    
     66200  -190846.51      1206.5551     -189639.96      191.60264      192.08323      987.61606    
     66300  -190761.6       1204.7769     -189556.82      191.58797      192.07063      987.98707    
     66400  -190680.34      1207.6721     -189472.67      191.57222      192.05535      988.35807    
     66500  -190600.7       1211.1563     -189389.55      191.55827      192.04324      988.72908    
     66600  -190514.89      1208.5404     -189306.35      191.54286      192.0299       989.10008    
     66700  -190434.31      1210.0079     -189224.3       191.52551      192.01566      989.47109    
     66800  -190350.87      1208.6735     -189142.19      191.50941      192.00315      989.84209    
     66900  -190273.6       1214.3051     -189059.29      191.49365      191.98863      990.2131     
     67000  -190179.9       1206.6239     -188973.27      191.47876      191.9741       990.58411    
     67100  -190097.99      1209.5533     -188888.44      191.4655       191.95918      990.95511    
     67200  -190011.94      1209.9795     -188801.96      191.45175      191.94148      991.32612    
     67300  -189911.4       1197.5895     -188713.81      191.43892      191.92512      991.69712    
     67400  -189840.86      1211.7109     -188629.15      191.42722      191.91011      992.06813    
     67500  -189746.22      1204.5104     -188541.71      191.41349      191.89431      992.43913    
     67600  -189662.74      1210.5798     -188452.16      191.40102      191.88085      992.81014    
     67700  -189575.71      1211.3393     -188364.37      191.38728      191.86708      993.18114    
     67800  -189480.19      1204.2114     -188275.98      191.37293      191.85269      993.55215    
     67900  -189405.73      1216.6703     -188189.06      191.35971      191.84026      993.92315    
     68000  -189312.62      1212.1793     -188100.44      191.34558      191.82674      994.29416    
     68100  -189225.45      1214.5851     -188010.87      191.33224      191.81278      994.66516    
     68200  -189123.17      1200.808      -187922.36      191.31898      191.79918      995.03617    
     68300  -189044.78      1210.8766     -187833.91      191.30658      191.78375      995.40717    
     68400  -188949.88      1208.5082     -187741.37      191.2933       191.76828      995.77818    
     68500  -188865.34      1214.6751     -187650.67      191.2793       191.75288      996.14918    
     68600  -188770.35      1212.4391     -187557.91      191.26477      191.73782      996.52019    
     68700  -188677.25      1210.2895     -187466.96      191.25045      191.72348      996.8912     
     68800  -188582.42      1206.8925     -187375.53      191.23763      191.70941      997.2622     
     68900  -188501.53      1216.5744     -187284.95      191.22459      191.69499      997.63321    
     69000  -188403.08      1209.5085     -187193.57      191.21073      191.67936      998.00421    
     69100  -188314.46      1212.7144     -187101.75      191.19603      191.66405      998.37522    
     69200  -188222.92      1213.9321     -187008.99      191.18161      191.64892      998.74622    
     69300  -188123.83      1210.2038     -186913.62      191.16819      191.63522      999.11723    
     69400  -188033.34      1216.3217     -186817.02      191.15474      191.62077      999.48823    
     69500  -187943.32      1221.5758     -186721.75      191.13955      191.60441      999.85924    
     69600  -187843.98      1217.5171     -186626.46      191.12487      191.58958      1000.2302    
     69700  -187748.7       1218.5591     -186530.14      191.10911      191.57541      1000.6012    
     69800  -187648.84      1215.4523     -186433.38      191.09375      191.5595       1000.9723    
     69900  -187553.63      1215.7637     -186337.87      191.07993      191.54582      1001.3433    
     70000  -187458.52      1217.3254     -186241.2       191.06615      191.53193      1001.7143    
     70100  -187362.28      1216.2176     -186146.06      191.05096      191.51666      1002.0853    
     70200  -187271.04      1223.472      -186047.57      191.03585      191.5034       1002.4563    
     70300  -187166.8       1217.4111     -185949.39      191.02162      191.49039      1002.8273    
     70400  -187070.19      1220.6079     -185849.58      191.00694      191.4778       1003.1983    
     70500  -186962.34      1210.3981     -185751.94      190.99261      191.46576      1003.5693    
     70600  -186872.32      1219.6071     -185652.72      190.97765      191.45267      1003.9403    
     70700  -186771.12      1217.5255     -185553.6       190.96267      191.43974      1004.3113    
     70800  -186675.71      1221.6674     -185454.04      190.94793      191.42661      1004.6823    
     70900  -186578.98      1226.8674     -185352.11      190.93292      191.41263      1005.0533    
     71000  -186477.66      1229.6266     -185248.03      190.91871      191.39828      1005.4243    
     71100  -186370.5       1226.9287     -185143.57      190.90278      191.38214      1005.7953    
     71200  -186266.52      1224.7156     -185041.8       190.88627      191.36633      1006.1663    
     71300  -186169.3       1230.6462     -184938.66      190.87195      191.35416      1006.5373    
     71400  -186059.61      1223.8485     -184835.76      190.85778      191.34262      1006.9083    
     71500  -185968.34      1238.8549     -184729.48      190.84339      191.32788      1007.2793    
     71600  -185862.03      1233.1156     -184628.91      190.83083      191.31506      1007.6503    
     71700  -185755.49      1232.8519     -184522.63      190.81782      191.30008      1008.0214    
     71800  -185656.08      1241.5771     -184414.5       190.8032       191.283        1008.3924    
     71900  -185550.11      1237.865      -184312.24      190.79117      191.26816      1008.7634    
     72000  -185445.96      1237.7993     -184208.16      190.7792       191.25224      1009.1344    
     72100  -185340.94      1240.5683     -184100.37      190.76624      191.23587      1009.5054    
     72200  -185227.21      1235.1973     -183992.02      190.75257      191.2198       1009.8764    
     72300  -185128.24      1243.874      -183884.37      190.73913      191.20368      1010.2474    
     72400  -185026.48      1252.691      -183773.79      190.72556      191.18776      1010.6184    
     72500  -184906.62      1238.432      -183668.18      190.71101      191.17069      1010.9894    
     72600  -184805.35      1248.5643     -183556.78      190.69732      191.15617      1011.3604    
     72700  -184697         1249.9694     -183447.03      190.68331      191.14252      1011.7314    
     72800  -184584.85      1243.0855     -183341.76      190.66874      191.12912      1012.1024    
     72900  -184480.68      1252.6492     -183228.03      190.65464      191.11657      1012.4734    
     73000  -184376.24      1258.1382     -183118.1       190.63793      191.10235      1012.8444    
     73100  -184268.59      1258.8444     -183009.75      190.62138      191.08828      1013.2154    
     73200  -184155.76      1260.4304     -182895.33      190.60719      191.07477      1013.5864    
     73300  -184039.59      1258.2393     -182781.36      190.59308      191.06018      1013.9574    
     73400  -183940.2       1270.0553     -182670.14      190.57903      191.04564      1014.3284    
     73500  -183816.29      1265.9359     -182550.35      190.5635       191.03098      1014.6994    
     73600  -183707.24      1275.0614     -182432.18      190.54682      191.01583      1015.0705    
     73700  -183589.78      1272.1518     -182317.62      190.53152      191.00206      1015.4415    
     73800  -183470.76      1270.2408     -182200.52      190.5172       190.98953      1015.8125    
     73900  -183352.63      1272.8065     -182079.82      190.50205      190.97635      1016.1835    
     74000  -183246.72      1286.4552     -181960.27      190.4861       190.96199      1016.5545    
     74100  -183125.88      1284.4005     -181841.48      190.47051      190.9479       1016.9255    
     74200  -183032.66      1304.4018     -181728.25      190.45579      190.93433      1017.2965    
     74300  -182898.15      1293.7842     -181604.36      190.44072      190.91955      1017.6675    
     74400  -182775.64      1296.8085     -181478.83      190.426        190.90465      1018.0385    
     74500  -182655.91      1301.0363     -181354.87      190.41122      190.88911      1018.4095    
     74600  -182543.23      1312.4514     -181230.78      190.396        190.87224      1018.7805    
     74700  -182412.59      1307.4033     -181105.19      190.38268      190.85759      1019.1515    
     74800  -182298.76      1319.0159     -180979.75      190.36923      190.84253      1019.5225    
     74900  -182180.67      1327.0941     -180853.58      190.35384      190.82567      1019.8935    
     75000  -182080.89      1346.0614     -180734.83      190.33985      190.81081      1020.2645    
     75100  -181938.5       1327.9508     -180610.55      190.32606      190.79608      1020.6355    
     75200  -181819.52      1334.8451     -180484.67      190.31072      190.78051      1021.0065    
     75300  -181687.52      1337.5822     -180349.94      190.29565      190.76522      1021.3775    
     75400  -181569.31      1352.7378     -180216.57      190.28039      190.74918      1021.7485    
     75500  -181436.25      1342.9842     -180093.27      190.26484      190.73346      1022.1196    
     75600  -181330.44      1371.3481     -179959.09      190.24993      190.71777      1022.4906    
     75700  -181211.91      1377.4882     -179834.43      190.23525      190.70225      1022.8616    
     75800  -181161.93      1449.5369     -179712.4       190.22156      190.68684      1023.2326    
     75900  -181372.72      1733.4394     -179639.28      190.20759      190.67017      1023.6036    
     76000  -182012.11      2289.2428     -179722.87      190.19582      190.6557       1023.9746    
     76100  -183029.36      2957.0683     -180072.3       190.18672      190.64425      1024.3456    
     76200  -184484.01      3592.9496     -180891.06      190.17628      190.63677      1024.7166    
     76300  -186245.3       3990.5647     -182254.73      190.17605      190.63979      1025.0876    
     76400  -187898.69      3958.3969     -183940.3       190.18205      190.65339      1025.4586    
     76500  -189367.15      3727.7641     -185639.39      190.1832       190.66229      1025.8296    
     76600  -190717.5       3464.2365     -187253.26      190.18775      190.66981      1026.2006    
     76700  -191969.34      3216.4138     -188752.93      190.19844      190.68028      1026.5716    
     76800  -193135.84      2999.3791     -190136.47      190.21081      190.69275      1026.9426    
     76900  -194216.96      2811.2291     -191405.73      190.22174      190.70444      1027.3136    
     77000  -195238.55      2658.2923     -192580.26      190.23342      190.71607      1027.6846    
     77100  -196200.67      2527.8606     -193672.81      190.24782      190.73053      1028.0556    
     77200  -197122.24      2423.2987     -194698.94      190.26349      190.74628      1028.4266    
     77300  -198000.32      2327.8366     -195672.48      190.28046      190.76311      1028.7976    
     77400  -198840.76      2246.6059     -196594.15      190.29975      190.78169      1029.1687    
     77500  -199642.87      2169.6506     -197473.22      190.31898      190.80056      1029.5397    
     77600  -200405.53      2098.5386     -198306.99      190.33863      190.81956      1029.9107    
     77700  -201138.38      2036.7097     -199101.67      190.36005      190.84072      1030.2817    
     77800  -201836.82      1977.2605     -199859.56      190.38165      190.86231      1030.6527    
     77900  -202508.67      1925.1157     -200583.55      190.40322      190.88386      1031.0237    
     78000  -203153.18      1877.074      -201276.1       190.42569      190.90667      1031.3947    
     78100  -203768.14      1830.3699     -201937.77      190.44843      190.92947      1031.7657    
     78200  -204360.27      1789.084      -202571.19      190.47131      190.95225      1032.1367    
     78300  -204931.11      1752.0824     -203179.03      190.49454      190.97596      1032.5077    
     78400  -205483.17      1719.6803     -203763.49      190.51828      191.0001       1032.8787    
     78500  -206015.03      1688.0332     -204326.99      190.54182      191.02412      1033.2497    
     78600  -206530.87      1660.2105     -204870.66      190.56555      191.04824      1033.6207    
     78700  -207033.03      1636.3288     -205396.7       190.58926      191.07206      1033.9917    
     78800  -207522.36      1615.4118     -205906.95      190.61216      191.09498      1034.3627    
     78900  -208000.45      1596.8171     -206403.63      190.63483      191.11793      1034.7337    
     79000  -208467.69      1579.7769     -206887.91      190.65697      191.14087      1035.1047    
     79100  -208926.33      1565.3627     -207360.97      190.67809      191.1634       1035.4757    
     79200  -209374.08      1550.4408     -207823.64      190.69908      191.18585      1035.8468    
     79300  -209811.63      1535.5279     -208276.1       190.72001      191.20779      1036.2178    
     79400  -210243.22      1523.5977     -208719.62      190.74066      191.229        1036.5888    
     79500  -210666.94      1512.5686     -209154.37      190.76142      191.24994      1036.9598    
     79600  -211083.42      1502.103      -209581.32      190.78169      191.27013      1037.3308    
     79700  -211492.91      1492.7111     -210000.2       190.80142      191.28976      1037.7018    
     79800  -211891.97      1480.7464     -210411.22      190.82138      191.30939      1038.0728    
     79900  -212288.04      1472.9028     -210815.13      190.84128      191.32867      1038.4438    
     80000  -212677.52      1464.4561     -211213.07      190.86104      191.34777      1038.8148    
     80100  -213059.4       1454.5914     -211604.8       190.88062      191.36615      1039.1858    
     80200  -213437.37      1447.27       -211990.1       190.89962      191.38326      1039.5568    
     80300  -213810.58      1440.414      -212370.16      190.91802      191.39949      1039.9278    
     80400  -214178.77      1433.7447     -212745.02      190.93621      191.41509      1040.2988    
     80500  -214542.11      1427.6854     -213114.42      190.95438      191.43046      1040.6698    
     80600  -214901.69      1422.2997     -213479.39      190.97263      191.44592      1041.0408    
     80700  -215257.47      1416.9765     -213840.49      190.99094      191.46124      1041.4118    
     80800  -215609.83      1411.5764     -214198.26      191.00891      191.476        1041.7828    
     80900  -215959.07      1407.2645     -214551.8       191.0264       191.49019      1042.1538    
     81000  -216303.62      1401.3702     -214902.25      191.04325      191.50353      1042.5248    
     81100  -216646.91      1397.9878     -215248.93      191.05958      191.51645      1042.8959    
     81200  -216986         1393.5512     -215592.45      191.076        191.53         1043.2669    
     81300  -217322.57      1389.7794     -215932.79      191.09227      191.54371      1043.6379    
     81400  -217656.58      1386.3335     -216270.25      191.10856      191.55716      1044.0089    
     81500  -217986.65      1382.167      -216604.48      191.12457      191.57054      1044.3799    
     81600  -218314.16      1378.4883     -216935.67      191.14         191.58374      1044.7509    
     81700  -218639.58      1375.3366     -217264.24      191.15508      191.59692      1045.1219    
     81800  -218963.08      1372.5621     -217590.51      191.16962      191.61012      1045.4929    
     81900  -219275.34      1362.6331     -217912.71      191.18335      191.62277      1045.8639    
     82000  -219571.78      1347.591      -218224.19      191.19674      191.63542      1046.2349    
     82100  -219857.11      1334.1073     -218523         191.21049      191.64888      1046.6059    
     82200  -220134.75      1324.4011     -218810.35      191.22426      191.66243      1046.9769    
     82300  -220399.94      1312.9686     -219086.98      191.23816      191.67548      1047.3479    
     82400  -220655.71      1303.1485     -219352.57      191.25247      191.6885       1047.7189    
     82500  -220900.21      1292.915      -219607.3       191.26686      191.70142      1048.0899    
     82600  -221134.83      1283.2311     -219851.6       191.28097      191.71389      1048.4609    
     82700  -221360.84      1274.904      -220085.94      191.29534      191.72648      1048.8319    
     82800  -221576.95      1266.3902     -220310.56      191.30981      191.73907      1049.2029    
     82900  -221784.33      1259.3427     -220524.99      191.32429      191.75146      1049.5739    
     83000  -221982.45      1252.1314     -220730.32      191.33895      191.76419      1049.945     
     83100  -222169.09      1243.6205     -220925.47      191.35382      191.77722      1050.316     
     83200  -222345.8       1236.493      -221109.3       191.36882      191.79023      1050.687     
     83300  -222512.49      1230.4257     -221282.06      191.38414      191.80361      1051.058     
     83400  -222667.39      1223.582      -221443.81      191.3996       191.81723      1051.429     
     83500  -222811.04      1217.3579     -221593.68      191.41486      191.8306       1051.8       
     83600  -222942.35      1211.7751     -221730.57      191.42992      191.84436      1052.171     
     83700  -223060.77      1206.8555     -221853.91      191.44526      191.85866      1052.542     
     83800  -223167.72      1204.0931     -221963.63      191.46108      191.87365      1052.913     
     83900  -223261.39      1200.5618     -222060.82      191.47723      191.88902      1053.284     
     84000  -223340.5       1196.702      -222143.8       191.49334      191.90456      1053.655     
     84100  -223404.08      1194.0903     -222209.99      191.50903      191.92042      1054.026     
     84200  -223454.74      1195.7054     -222259.04      191.52392      191.93632      1054.397     
     84300  -223495.15      1199.3775     -222295.77      191.53884      191.95222      1054.768     
     84400  -223523.62      1197.2971     -222326.33      191.55337      191.96792      1055.139     
     84500  -223538.07      1191.1842     -222346.88      191.56775      191.98347      1055.51      
     84600  -223539.25      1191.9403     -222347.3       191.58257      191.99924      1055.881     
     84700  -223530.03      1200.5587     -222329.47      191.59741      192.01509      1056.252     
     84800  -223506.72      1199.5683     -222307.15      191.61104      192.02989      1056.623     
     84900  -223466.46      1187.5614     -222278.9       191.62363      192.04384      1056.9941    
     85000  -223409.03      1183.6728     -222225.35      191.63585      192.05731      1057.3651    
     85100  -223333.18      1190.6479     -222142.53      191.64684      192.06979      1057.7361    
     85200  -223245.37      1197.3706     -222048         191.65612      192.08155      1058.1071    
     85300  -223149.02      1194.0611     -221954.96      191.6631       192.09088      1058.4781    
     85400  -223060.68      1200.092      -221860.59      191.66792      192.09752      1058.8491    
     85500  -222997.91      1222.797      -221775.11      191.66956      192.10027      1059.2201    
     85600  -222956.74      1224.4898     -221732.25      191.66497      192.0977       1059.5911    
     85700  -222906.63      1182.8625     -221723.76      191.66156      192.09774      1059.9621    
     85800  -222855.77      1172.9827     -221682.79      191.66278      192.10246      1060.3331    
     85900  -222799.89      1206.2397     -221593.65      191.6647       192.10703      1060.7041    
     86000  -222770.71      1248.6467     -221522.07      191.67039      192.11098      1061.0751    
     86100  -222741.65      1211.0128     -221530.63      191.6817       192.11732      1061.4461    
     86200  -222720         1167.0548     -221552.94      191.69685      192.12474      1061.8171    
     86300  -222689.27      1175.4641     -221513.81      191.71212      192.1306       1062.1881    
     86400  -222665.6       1230.2454     -221435.35      191.7255       192.13356      1062.5591    
     86500  -222640.09      1236.7257     -221403.37      191.7363       192.13142      1062.9301    
     86600  -222612.97      1185.9998     -221426.97      191.74932      192.12563      1063.3011    
     86700  -222601.36      1174.5593     -221426.8       191.77186      192.1219       1063.6721    
     86800  -222581.73      1206.3074     -221375.43      191.80079      192.12226      1064.0432    
     86900  -222554.6       1226.1018     -221328.5       191.82989      192.12299      1064.4142    
     87000  -222549.8       1221.6439     -221328.15      191.85943      192.12611      1064.7852    
     87100  -222558.21      1191.6338     -221366.58      191.88927      192.1334       1065.1562    
     87200  -222565.35      1176.5788     -221388.77      191.91746      192.13806      1065.5272    
     87300  -222549.34      1187.8182     -221361.52      191.94354      192.14519      1065.8982    
     87400  -222545.28      1229.874      -221315.4       191.96821      192.15693      1066.2692    
     87500  -222528.12      1214.4984     -221313.63      191.99143      192.17385      1066.6402    
     87600  -222527.49      1191.2249     -221336.27      192.01411      192.19514      1067.0112    
     87700  -222528.78      1193.4859     -221335.29      192.03298      192.21253      1067.3822    
     87800  -222527.61      1214.3177     -221313.29      192.04998      192.22897      1067.7532    
     87900  -222525.54      1215.9699     -221309.57      192.06455      192.24357      1068.1242    
     88000  -222509.91      1186.2368     -221323.67      192.08036      192.258        1068.4952    
     88100  -222494.52      1183.3126     -221311.21      192.09702      192.27707      1068.8662    
     88200  -222478.9       1213.5438     -221265.35      192.1162       192.30394      1069.2372    
     88300  -222455.01      1226.2642     -221228.75      192.13779      192.33447      1069.6082    
     88400  -222463.51      1226.2466     -221237.26      192.15873      192.36421      1069.9792    
     88500  -222474.37      1187.276      -221287.1       192.17561      192.38318      1070.3502    
     88600  -222472.67      1164.3557     -221308.32      192.19895      192.40467      1070.7212    
     88700  -222476.96      1208.985      -221267.98      192.23228      192.42758      1071.0923    
     88800  -222448.94      1219.8734     -221229.07      192.26662      192.44563      1071.4633    
     88900  -222447.24      1218.6793     -221228.56      192.30403      192.46015      1071.8343    
     89000  -222450.73      1191.858      -221258.87      192.35092      192.47537      1072.2053    
     89100  -222446.1       1177.962      -221268.14      192.39906      192.49488      1072.5763    
     89200  -222441.63      1205.4127     -221236.21      192.44899      192.51837      1072.9473    
     89300  -222448.16      1239.3877     -221208.77      192.50233      192.54383      1073.3183    
     89400  -222446.17      1208.0489     -221238.12      192.5541       192.56633      1073.6893    
     89500  -222457.26      1179.72       -221277.54      192.60387      192.58947      1074.0603    
     89600  -222455.73      1181.5198     -221274.21      192.64953      192.61572      1074.4313    
     89700  -222451.47      1217.4566     -221234.01      192.69372      192.64183      1074.8023    
     89800  -222442.47      1227.4975     -221214.97      192.73629      192.66879      1075.1733    
     89900  -222442.25      1200.7787     -221241.47      192.77786      192.69711      1075.5443    
     90000  -222439.85      1176.4003     -221263.45      192.814        192.72774      1075.9153    
     90100  -222440.74      1197.2199     -221243.52      192.84759      192.75837      1076.2863    
     90200  -222441.85      1225.8775     -221215.98      192.88307      192.78973      1076.6573    
     90300  -222426.7       1205.9192     -221220.78      192.91802      192.82365      1077.0283    
     90400  -222421.1       1189.9296     -221231.17      192.95064      192.85378      1077.3993    
     90500  -222405.92      1188.0694     -221217.86      192.9829       192.88063      1077.7703    
     90600  -222396.44      1209.5171     -221186.92      193.01849      192.91108      1078.1414    
     90700  -222391.93      1218.5865     -221173.34      193.05868      192.94027      1078.5124    
     90800  -222394.13      1205.1942     -221188.94      193.09931      192.96449      1078.8834    
     90900  -222398.05      1188.5678     -221209.49      193.13843      192.98657      1079.2544    
     91000  -222385.92      1183.9723     -221201.95      193.17477      193.00691      1079.6254    
     91100  -222379.89      1210.1757     -221169.71      193.2094       193.02235      1079.9964    
     91200  -222375.48      1216.1074     -221159.37      193.23981      193.03803      1080.3674    
     91300  -222376.19      1198.0964     -221178.09      193.26669      193.05346      1080.7384    
     91400  -222379.75      1189.4872     -221190.26      193.29425      193.07142      1081.1094    
     91500  -222379.87      1201.906      -221177.96      193.33004      193.09387      1081.4804    
     91600  -222367.57      1206.9105     -221160.66      193.36558      193.11573      1081.8514    
     91700  -222366.49      1212.9264     -221153.57      193.39725      193.13427      1082.2224    
     91800  -222368.58      1202.1838     -221166.39      193.43205      193.15744      1082.5934    
     91900  -222372.31      1187.6528     -221184.66      193.46818      193.18275      1082.9644    
     92000  -222369.76      1190.9201     -221178.84      193.49906      193.2137       1083.3354    
     92100  -222373.69      1218.5735     -221155.12      193.521        193.24161      1083.7064    
     92200  -222366.41      1212.4062     -221154.01      193.53718      193.26215      1084.0774    
     92300  -222374.12      1198.5701     -221175.55      193.55606      193.28384      1084.4484    
     92400  -222377.22      1189.3225     -221187.89      193.57335      193.30936      1084.8194    
     92500  -222379.49      1200.4316     -221179.06      193.58681      193.33072      1085.1905    
     92600  -222375.97      1211.25       -221164.72      193.6016       193.34547      1085.5615    
     92700  -222381.83      1216.1478     -221165.68      193.61844      193.35858      1085.9325    
     92800  -222391.58      1202.4948     -221189.09      193.63704      193.37172      1086.3035    
     92900  -222391.01      1183.9802     -221207.03      193.655        193.3789       1086.6745    
     93000  -222389.01      1193.3828     -221195.63      193.66948      193.38138      1087.0455    
     93100  -222386         1214.7713     -221171.23      193.68727      193.39265      1087.4165    
     93200  -222382.91      1216.8766     -221166.04      193.7103       193.40714      1087.7875    
     93300  -222377.82      1194.6143     -221183.2       193.73873      193.41962      1088.1585    
     93400  -222387.1       1197.0647     -221190.04      193.76801      193.43617      1088.5295    
     93500  -222382.47      1198.3756     -221184.1       193.79337      193.4544       1088.9005    
     93600  -222370.63      1198.6478     -221171.98      193.81811      193.47402      1089.2715    
     93700  -222364.18      1208.1675     -221156.01      193.84773      193.49529      1089.6425    
     93800  -222366.79      1218.1391     -221148.65      193.882        193.51965      1090.0135    
     93900  -222360.71      1202.6254     -221158.09      193.91253      193.54196      1090.3845    
     94000  -222352.59      1190.4363     -221162.15      193.94327      193.56372      1090.7555    
     94100  -222352.91      1206.9562     -221145.96      193.97847      193.59108      1091.1265    
     94200  -222344.47      1209.6587     -221134.81      194.008        193.61717      1091.4975    
     94300  -222339.32      1202.1009     -221137.22      194.03503      193.6427       1091.8685    
     94400  -222336.35      1198.9756     -221137.38      194.06495      193.67152      1092.2396    
     94500  -222335.02      1205.8332     -221129.19      194.09099      193.69851      1092.6106    
     94600  -222327.32      1204.72       -221122.6       194.11555      193.72575      1092.9816    
     94700  -222319.76      1200.5806     -221119.18      194.13356      193.75075      1093.3526    
     94800  -222311.84      1201.283      -221110.56      194.14251      193.76932      1093.7236    
     94900  -222298.21      1199.9557     -221098.26      194.15165      193.78814      1094.0946    
     95000  -222296.76      1212.6334     -221084.12      194.16183      193.8027       1094.4656    
     95100  -222292.9       1207.4628     -221085.44      194.1735       193.81253      1094.8366    
     95200  -222296.02      1198.5392     -221097.49      194.18214      193.82641      1095.2076    
     95300  -222299.74      1197.4067     -221102.33      194.18249      193.8387       1095.5786    
     95400  -222290.03      1197.3675     -221092.67      194.18137      193.84798      1095.9496    
     95500  -222286.28      1206.6298     -221079.65      194.17908      193.85718      1096.3206    
     95600  -222281.13      1207.5804     -221073.55      194.17391      193.86817      1096.6916    
     95700  -222291.53      1212.0149     -221079.52      194.16604      193.88029      1097.0626    
     95800  -222296.7       1204.8284     -221091.87      194.16108      193.89428      1097.4336    
     95900  -222303.18      1190.4603     -221112.71      194.15811      193.91129      1097.8046    
     96000  -222298.47      1188.9771     -221109.49      194.15363      193.921        1098.1756    
     96100  -222288.69      1209.4768     -221079.21      194.14585      193.93033      1098.5466    
     96200  -222275.57      1220.1783     -221055.39      194.13538      193.94541      1098.9176    
     96300  -222280.92      1216.3233     -221064.6       194.12411      193.96108      1099.2887    
     96400  -222281.15      1193.1474     -221088         194.11771      193.97331      1099.6597    
     96500  -222268.44      1178.5032     -221089.94      194.11242      193.98467      1100.0307    
     96600  -222267.78      1209.5111     -221058.26      194.10494      193.99351      1100.4017    
     96700  -222256.76      1221.8819     -221034.87      194.09975      194.00494      1100.7727    
     96800  -222256.79      1209.355      -221047.43      194.10025      194.01707      1101.1437    
     96900  -222262.18      1188.0294     -221074.15      194.10563      194.02975      1101.5147    
     97000  -222269.95      1191.3621     -221078.59      194.11475      194.03796      1101.8857    
     97100  -222258.52      1200.974      -221057.54      194.12578      194.0445       1102.2567    
     97200  -222246.92      1214.6627     -221032.26      194.13437      194.0525       1102.6277    
     97300  -222246.49      1212.841      -221033.65      194.1403       194.05971      1102.9987    
     97400  -222249.03      1192.4931     -221056.54      194.15176      194.07259      1103.3697    
     97500  -222254.86      1189.5354     -221065.33      194.17217      194.08873      1103.7407    
     97600  -222248.57      1201.7069     -221046.86      194.19499      194.10713      1104.1117    
     97700  -222239.11      1216.3682     -221022.74      194.21362      194.13132      1104.4827    
     97800  -222239.04      1215.6924     -221023.35      194.22414      194.15055      1104.8537    
     97900  -222254.16      1205.2408     -221048.92      194.23217      194.16301      1105.2247    
     98000  -222247.22      1179.2924     -221067.92      194.2452       194.1765       1105.5957    
     98100  -222246.87      1196.351      -221050.52      194.25744      194.19206      1105.9667    
     98200  -222229.39      1208.5775     -221020.81      194.26732      194.20814      1106.3378    
     98300  -222217.75      1210.5878     -221007.16      194.27637      194.22694      1106.7088    
     98400  -222217.62      1202.7567     -221014.87      194.283        194.24649      1107.0798    
     98500  -222228.07      1199.6098     -221028.46      194.28785      194.26528      1107.4508    
     98600  -222227.12      1195.8906     -221031.23      194.29853      194.28147      1107.8218    
     98700  -222219.92      1199.2368     -221020.68      194.31068      194.29632      1108.1928    
     98800  -222220.67      1214.0688     -221006.6       194.31531      194.3106       1108.5638    
     98900  -222213.23      1217.1084     -220996.12      194.31529      194.32698      1108.9348    
     99000  -222219.04      1206.7406     -221012.3       194.31234      194.33968      1109.3058    
     99100  -222222.22      1187.9477     -221034.27      194.30698      194.3476       1109.6768    
     99200  -222224.35      1189.361      -221034.99      194.30412      194.36092      1110.0478    
     99300  -222209.56      1198.1037     -221011.46      194.30143      194.37584      1110.4188    
     99400  -222213.95      1224.8819     -220989.06      194.2982       194.38805      1110.7898    
     99500  -222213.69      1218.0759     -220995.61      194.29784      194.40099      1111.1608    
     99600  -222221.52      1196.9762     -221024.55      194.29929      194.4169       1111.5318    
     99700  -222226.9       1190.6752     -221036.22      194.29736      194.43294      1111.9028    
     99800  -222217.68      1190.4409     -221027.24      194.29994      194.44989      1112.2738    
     99900  -222219.85      1217.3672     -221002.48      194.30579      194.46928      1112.6448    
    100000  -222224.2       1218.8392     -221005.36      194.31283      194.48767      1113.0158    
Loop time of 5174.62 on 10 procs for 100000 steps with 31008 atoms

Performance: 1.670 ns/day, 14.374 hours/ns, 19.325 timesteps/s, 599.232 katom-step/s
92.2% CPU use with 10 MPI tasks x 1 OpenMP threads

MPI task timing breakdown:
Section |  min time  |  avg time  |  max time  |%varavg| %total
---------------------------------------------------------------
Pair    | 2754       | 3624.8     | 4234.6     | 725.5 | 70.05
Neigh   | 21.539     | 35.887     | 48.726     | 143.6 |  0.69
Comm    | 680.61     | 1075.9     | 2029.9     |1261.1 | 20.79
Output  | 1.1643     | 1.2311     | 1.3034     |   4.0 |  0.02
Modify  | 147.91     | 432.71     | 584.06     | 785.5 |  8.36
Other   |            | 4.07       |            |       |  0.08

Nlocal:         3100.8 ave        7536 max           1 min
Histogram: 2 2 0 0 2 1 2 0 0 1
Nghost:         2660.6 ave        4939 max         308 min
Histogram: 2 2 0 0 0 0 2 1 1 2
Neighs:              0 ave           0 max           0 min
Histogram: 10 0 0 0 0 0 0 0 0 0

Total # of neighbors = 0
Ave neighs/atom = 0
Neighbor list builds = 930
Dangerous builds = 0
Total wall time: 1:26:15
