LAMMPS (2 Aug 2023 - Update 3)
OMP_NUM_THREADS environment is not set. Defaulting to 1 thread. (src/comm.cpp:98)
  using 1 OpenMP thread(s) per MPI task

# 1------general---------------
units                             metal      #单位为lammps 中的metel 类型
dimension                    3          #模拟的维度 三维
boundary                    p p p      #周期边界条件
atom_style                  atomic   #原子类型自动
atom_modify              map array sort 100 2.0
neighbor                    3.0 bin
neigh_modify            every 1 delay 0 check yes
#2 -----global variable-------定义全局变量，方便统一修改；
variable temperature equal 300
variable tstep equal 0.001
variable pressure equal 0
variable thermalstep equal 100
variable dumpstep equal 1000
variable relaxtime equal 0
variable totaltime equal 200000
variable deformrate equal 5e-3
#3 -------model------------
#box tilt large
read_data     1.lmp
Reading data file ...
  orthogonal box = (-100 -100 -2.3312515) to (100 100 46.166171)
  3 by 4 by 1 MPI processor grid
  reading atoms ...
  1320 atoms
  read_data CPU = 0.748 seconds
group sr type 2 3
360 atoms in group sr
delete_atoms group sr
Deleted 360 atoms, new total = 960
replicate 1 1 9
Replication is creating a 1x1x9 = 9 times larger system...
  orthogonal box = (-100 -100 -2.3312515) to (100 100 434.14556)
  2 by 2 by 3 MPI processor grid
  8640 atoms
  replicate CPU = 0.860 seconds
write_data z.data
System init for write_data ...
WARNING: Communication cutoff is 0.0. No ghost atoms will be generated. Atoms may get lost. (src/comm_brick.cpp:210)
pair_style hybrid airebo 3.0 airebo 3.0 airebo 3.0 lj/cut 10
pair_coeff * * airebo 1 CH.airebo C NULL NULL
Reading airebo potential file CH.airebo with DATE: 2011-10-25
pair_coeff * * airebo 2 CH.airebo NULL C NULL
Reading airebo potential file CH.airebo with DATE: 2011-10-25
pair_coeff * * airebo 3 CH.airebo NULL NULL C
Reading airebo potential file CH.airebo with DATE: 2011-10-25
pair_coeff 1 2 lj/cut 0.00456 3.431
pair_coeff 1 3 lj/cut 0.00456 3.431
pair_coeff 2 3 lj/cut 0.00456 3.431

# 5------minimize -----------
min_style      sd
minimize       1.0e-4 1.0e-6 100 1000
Neighbor list info ...
  update: every = 1 steps, delay = 0 steps, check = yes
  max neighbors/atom: 2000, page size: 100000
  master list distance cutoff = 13.2
  ghost atom cutoff = 13.2
  binsize = 6.6, bins = 31 31 67
  6 neighbor lists, perpetual/occasional/extra = 6 0 0
  (1) pair airebo, perpetual, skip from (5)
      attributes: full, newton on, ghost
      pair build: skip/ghost
      stencil: none
      bin: none
  (2) pair airebo, perpetual, skip from (5)
      attributes: full, newton on, ghost
      pair build: skip/ghost
      stencil: none
      bin: none
  (3) pair airebo, perpetual, skip from (5)
      attributes: full, newton on, ghost
      pair build: skip/ghost
      stencil: none
      bin: none
  (4) pair lj/cut, perpetual, skip from (6)
      attributes: half, newton on, cut 13
      pair build: skip
      stencil: none
      bin: none
  (5) neighbor class addition, perpetual
      attributes: full, newton on, ghost
      pair build: full/bin/ghost
      stencil: full/ghost/bin/3d
      bin: standard
  (6) neighbor class addition, perpetual
      attributes: half, newton on, cut 13
      pair build: half/bin/atomonly/newton
      stencil: half/bin/3d
      bin: standard
Per MPI rank memory allocation (min/avg/max) = 11.71 | 11.71 | 11.71 Mbytes
   Step          Temp          E_pair         E_mol          TotEng         Press     
         0   0             -64002.385      0             -64002.385     -25.745857    
         1   0             -64002.544      0             -64002.544     -25.739335    
Loop time of 1.283 on 12 procs for 1 steps with 8640 atoms

38.8% CPU use with 12 MPI tasks x 1 OpenMP threads

Minimization stats:
  Stopping criterion = energy tolerance
  Energy initial, next-to-last, final = 
     -64002.3851522608  -64002.3851522608  -64002.5437645915
  Force two-norm initial, final = 6.4978635 0.65464688
  Force max component initial, final = 0.069876905 0.0070494245
  Final line search alpha, max atom move = 1 0.0070494245
  Iterations, force evaluations = 1 2

MPI task timing breakdown:
Section |  min time  |  avg time  |  max time  |%varavg| %total
---------------------------------------------------------------
Pair    | 0.025518   | 0.049843   | 0.097464   |   8.4 |  3.88
Neigh   | 0          | 0          | 0          |   0.0 |  0.00
Comm    | 0.12849    | 0.25019    | 0.32641    |  10.7 | 19.50
Output  | 0          | 0          | 0          |   0.0 |  0.00
Modify  | 0          | 0          | 0          |   0.0 |  0.00
Other   |            | 0.983      |            |       | 76.61

Nlocal:            720 ave         780 max         660 min
Histogram: 3 0 0 0 0 6 0 0 0 3
Nghost:           2664 ave        2724 max        2604 min
Histogram: 3 0 0 0 0 6 0 0 0 3
Neighs:              0 ave           0 max           0 min
Histogram: 12 0 0 0 0 0 0 0 0 0

Total # of neighbors = 0
Ave neighs/atom = 0
Neighbor list builds = 0
Dangerous builds = 0
#6----define computes------
variable nums equal count(all) #计算原子数目
variable toval equal 16.0428*16.0428*lz #计算系统总体积，单层石墨烯厚度为0.335nm
variable vol equal ${toval} #体系的初始体积
variable vol equal 112336.660782541 
variable vatom equal v_vol/v_nums #单个原子体积
compute 1 all stress/atom NULL #计算体系中单原子应力
compute xalls all reduce sum c_1[1]
variable xstress equal (c_xalls)/(v_toval*10000)
compute yalls all reduce sum c_1[2]
variable ystress equal (c_yalls)/(v_toval*10000)
compute zalls all reduce sum c_1[3]
variable zstress equal (c_zalls)/(v_toval*10000)
#7---------relaxation-------------------------
timestep ${tstep}
timestep 0.001
velocity all create ${temperature} 231743 units box dist gaussian
velocity all create 300 231743 units box dist gaussian
dump   1 all atom 100 all-cy.lammpstrj
#fix    1 all npt temp 300 300  0.1 aniso 0 0 10 drag 1  #三个方向独立控压
fix  1 all npt temp ${temperature} ${temperature} 0.1 x ${pressure} ${pressure} 10 y ${pressure} ${pressure} 10
fix  1 all npt temp 300 ${temperature} 0.1 x ${pressure} ${pressure} 10 y ${pressure} ${pressure} 10
fix  1 all npt temp 300 300 0.1 x ${pressure} ${pressure} 10 y ${pressure} ${pressure} 10
fix  1 all npt temp 300 300 0.1 x 0 ${pressure} 10 y ${pressure} ${pressure} 10
fix  1 all npt temp 300 300 0.1 x 0 0 10 y ${pressure} ${pressure} 10
fix  1 all npt temp 300 300 0.1 x 0 0 10 y 0 ${pressure} 10
fix  1 all npt temp 300 300 0.1 x 0 0 10 y 0 0 10
compute  2 all pe/atom
compute  pe all reduce sum c_2
variable PE equal "c_pe"
fix    pe all print 100 "${PE} " file PE.txt screen no
thermo  ${thermalstep}
thermo  100
#thermo_style  custom step pe ke etotal lx ly lz
run   ${relaxtime}
run   0
Per MPI rank memory allocation (min/avg/max) = 12.33 | 12.33 | 12.33 Mbytes
   Step          Temp          E_pair         E_mol          TotEng         Press          Volume    
         1   300           -64002.544      0             -63667.54      -5.2443644      17459072     
Loop time of 0.0686672 on 12 procs for 0 steps with 8640 atoms

30.9% CPU use with 12 MPI tasks x 1 OpenMP threads

MPI task timing breakdown:
Section |  min time  |  avg time  |  max time  |%varavg| %total
---------------------------------------------------------------
Pair    | 0          | 0          | 0          |   0.0 |  0.00
Neigh   | 0          | 0          | 0          |   0.0 |  0.00
Comm    | 0          | 0          | 0          |   0.0 |  0.00
Output  | 0          | 0          | 0          |   0.0 |  0.00
Modify  | 0          | 0          | 0          |   0.0 |  0.00
Other   |            | 0.06867    |            |       |100.00

Nlocal:            720 ave         720 max         720 min
Histogram: 12 0 0 0 0 0 0 0 0 0
Nghost:           2664 ave        2664 max        2664 min
Histogram: 12 0 0 0 0 0 0 0 0 0
Neighs:              0 ave           0 max           0 min
Histogram: 12 0 0 0 0 0 0 0 0 0

Total # of neighbors = 0
Ave neighs/atom = 0
Neighbor list builds = 0
Dangerous builds = 0
#8 -------tension-----------------------------
unfix  1
undump  1
unfix  pe
reset_timestep 0
fix avestress all ave/atom 1 ${dumpstep} ${dumpstep} c_1[1] c_1[2] c_1[3] c_1[4] c_1[5] c_1[6]
fix avestress all ave/atom 1 1000 ${dumpstep} c_1[1] c_1[2] c_1[3] c_1[4] c_1[5] c_1[6]
fix avestress all ave/atom 1 1000 1000 c_1[1] c_1[2] c_1[3] c_1[4] c_1[5] c_1[6]

#-----calculation of strain and Cumulative compression--------
variable                tmp equal "lz"
variable                L0 equal ${tmp}
variable                L0 equal 436.476807
variable                strain equal "(lz - v_L0)/v_L0"
variable                Cumulativels equal "(lz - v_L0)/10"
fix Step all print 100 "${strain} ${Cumulativels} ${zstress}" file grapoten.txt screen no

dump 2 all custom ${dumpstep} tension.xyz type x y z f_avestress[1] f_avestress[2] f_avestress[3] f_avestress[4] f_avestress[5] f_avestress[6]
dump 2 all custom 1000 tension.xyz type x y z f_avestress[1] f_avestress[2] f_avestress[3] f_avestress[4] f_avestress[5] f_avestress[6]

fix  1 all npt temp ${temperature} ${temperature} 0.1 y ${pressure} ${pressure} 10 x ${pressure} ${pressure} 10
fix  1 all npt temp 300 ${temperature} 0.1 y ${pressure} ${pressure} 10 x ${pressure} ${pressure} 10
fix  1 all npt temp 300 300 0.1 y ${pressure} ${pressure} 10 x ${pressure} ${pressure} 10
fix  1 all npt temp 300 300 0.1 y 0 ${pressure} 10 x ${pressure} ${pressure} 10
fix  1 all npt temp 300 300 0.1 y 0 0 10 x ${pressure} ${pressure} 10
fix  1 all npt temp 300 300 0.1 y 0 0 10 x 0 ${pressure} 10
fix  1 all npt temp 300 300 0.1 y 0 0 10 x 0 0 10

thermo_style custom step pe ke etotal lx ly lz
fix   2 all deform 1 z erate ${deformrate} remap x units box
fix   2 all deform 1 z erate 0.005 remap x units box
fix   3 all ave/time 2 500 1000 v_xstress v_ystress v_zstress file pressure.out
run   ${totaltime}
run   200000
WARNING: Dump 2 includes no atom IDs and is not sorted by ID. This may complicate post-processing tasks or visualization (src/dump.cpp:221)
Per MPI rank memory allocation (min/avg/max) = 13.83 | 13.83 | 13.83 Mbytes
   Step         PotEng         KinEng         TotEng           Lx             Ly             Lz      
         0  -64002.544      335.00352     -63667.54       200            200            436.47681    
       100  -63807.409      164.99442     -63642.415      199.99923      199.99936      436.69505    
       200  -63817.732      210.28112     -63607.451      199.99901      199.99909      436.91328    
       300  -63776.876      211.30529     -63565.571      200.00061      200.00042      437.13152    
       400  -63762.892      243.16086     -63519.731      199.99924      199.99841      437.34976    
       500  -63730.749      259.21674     -63471.533      200.00207      200.0006       437.568      
       600  -63717.416      294.32124     -63423.095      200.00082      199.99873      437.78624    
       700  -63689.676      311.70902     -63377.967      200.00323      200.00019      438.00448    
       800  -63672.043      332.54739     -63339.495      200.00053      199.99571      438.22271    
       900  -63650.987      337.67585     -63313.311      200.0027       199.99604      438.44095    
      1000  -63652.432      346.12529     -63306.307      200.00332      199.99406      438.65919    
      1100  -63659.701      338.50512     -63321.196      200.00286      199.99154      438.87743    
      1200  -63668.433      329.92064     -63338.512      200.00492      199.99098      439.09567    
      1300  -63669.091      325.10936     -63343.981      200.00485      199.9877       439.31391    
      1400  -63663.711      329.81424     -63333.897      200.00525      199.98531      439.53214    
      1500  -63652.068      335.96037     -63316.107      200.00461      199.98171      439.75038    
      1600  -63647.982      342.86849     -63305.113      200.00478      199.97887      439.96862    
      1700  -63652.249      342.65769     -63309.591      200.00611      199.97676      440.18686    
      1800  -63655.107      333.30431     -63321.802      200.00431      199.9711       440.4051     
      1900  -63660.498      331.91273     -63328.585      200.00665      199.9697       440.62334    
      2000  -63653.141      329.89309     -63323.248      200.00446      199.96353      440.84158    
      2100  -63646.874      338.04143     -63308.833      200.00362      199.95925      441.05981    
      2200  -63635.136      339.54507     -63295.591      200.00345      199.95563      441.27805    
      2300  -63633.444      340.03123     -63293.413      200.00122      199.95017      441.49629    
      2400  -63634.303      333.65852     -63300.644      200.00131      199.94745      441.71453    
      2500  -63639.7        332.3189      -63307.381      199.99784      199.94176      441.93277    
      2600  -63636.531      330.739       -63305.792      199.99688      199.93805      442.15101    
      2700  -63627.701      332.55952     -63295.141      199.99379      199.93293      442.36924    
      2800  -63617.762      335.59149     -63282.17       199.99026      199.92722      442.58748    
      2900  -63614.315      338.84653     -63275.469      199.98863      199.92417      442.80572    
      3000  -63614.065      335.5771      -63278.488      199.98416      199.91852      443.02396    
      3100  -63618.657      333.81666     -63284.841      199.98162      199.91479      443.2422     
      3200  -63614.571      328.19469     -63286.376      199.97739      199.90973      443.46044    
      3300  -63611.094      331.41899     -63279.675      199.97274      199.90454      443.67867    
      3400  -63602.459      335.33229     -63267.127      199.96849      199.89994      443.89691    
      3500  -63592.878      336.63693     -63256.242      199.96239      199.89352      444.11515    
      3600  -63593.82       340.60435     -63253.215      199.95892      199.89036      444.33339    
      3700  -63593.821      336.10922     -63257.712      199.9525       199.88399      444.55163    
      3800  -63593.384      331.00405     -63262.38       199.94731      199.87859      444.76987    
      3900  -63590.339      331.38532     -63258.954      199.9413       199.87235      444.9881     
      4000  -63582.473      335.77051     -63246.702      199.93444      199.86501      445.20634    
      4100  -63572.012      339.73836     -63232.273      199.92857      199.85853      445.42458    
      4200  -63564.657      340.1342      -63224.523      199.92241      199.85117      445.64282    
      4300  -63565.61       339.16561     -63226.444      199.91634      199.84408      445.86106    
      4400  -63565.98       333.80806     -63232.172      199.91024      199.83611      446.0793     
      4500  -63561.808      329.97267     -63231.835      199.90294      199.82696      446.29754    
      4600  -63555.188      333.23688     -63221.951      199.89679      199.81885      446.51577    
      4700  -63543.894      336.48319     -63207.411      199.88956      199.8091       446.73401    
      4800  -63538.097      341.23093     -63196.866      199.88309      199.80009      446.95225    
      4900  -63532.661      336.79917     -63195.862      199.87634      199.79032      447.17049    
      5000  -63533.856      333.73994     -63200.116      199.86919      199.78017      447.38873    
      5100  -63530.755      329.49126     -63201.264      199.86182      199.76978      447.60697    
      5200  -63524.203      329.72377     -63194.479      199.85393      199.75873      447.8252     
      5300  -63516.084      334.98941     -63181.094      199.84593      199.7478       448.04344    
      5400  -63507.509      339.16562     -63168.344      199.83714      199.73607      448.26168    
      5500  -63502.379      340.75942     -63161.619      199.82906      199.725        448.47992    
      5600  -63496.826      334.68243     -63162.144      199.81969      199.71344      448.69816    
      5700  -63499.685      335.49713     -63164.188      199.80959      199.70148      448.9164     
      5800  -63491.805      330.47781     -63161.327      199.79966      199.68967      449.13463    
      5900  -63488.032      337.73913     -63150.293      199.78881      199.67705      449.35287    
      6000  -63470.488      334.87043     -63135.617      199.77845      199.66491      449.57111    
      6100  -63465.275      340.43094     -63124.845      199.76742      199.652        449.78935    
      6200  -63458.699      336.46618     -63122.233      199.75676      199.63994      450.00759    
      6300  -63463.189      338.59995     -63124.589      199.74455      199.62618      450.22583    
      6400  -63456.806      332.69046     -63124.116      199.73272      199.61327      450.44406    
      6500  -63449.546      334.24853     -63115.298      199.72047      199.60015      450.6623     
      6600  -63435.795      335.50798     -63100.287      199.70693      199.58553      450.88054    
      6700  -63425.347      337.81309     -63087.534      199.69504      199.57246      451.09878    
      6800  -63418.71       337.18363     -63081.526      199.68107      199.55773      451.31702    
      6900  -63417.463      335.76795     -63081.695      199.66788      199.54326      451.53526    
      7000  -63413.331      332.09146     -63081.239      199.65433      199.52869      451.7535     
      7100  -63409.892      334.81622     -63075.076      199.63937      199.51217      451.97173    
      7200  -63393.476      331.29834     -63062.177      199.62575      199.49705      452.18997    
      7300  -63383.217      335.39452     -63047.823      199.61027      199.48005      452.40821    
      7400  -63376.204      338.10298     -63038.101      199.59564      199.46364      452.62645    
      7500  -63374.711      339.00982     -63035.701      199.58138      199.44708      452.84469    
      7600  -63367.439      332.18462     -63035.254      199.56443      199.42782      453.06293    
      7700  -63362.833      331.66144     -63031.171      199.55064      199.41096      453.28116    
      7800  -63355.84       336.39637     -63019.444      199.53315      199.38997      453.4994     
      7900  -63340.366      336.24772     -63004.119      199.51833      199.3718       453.71764    
      8000  -63331.415      339.58221     -62991.833      199.50248      199.35221      453.93588    
      8100  -63324.686      338.26942     -62986.417      199.48488      199.3303       454.15412    
      8200  -63323.174      337.58095     -62985.593      199.47048      199.31143      454.37236    
      8300  -63311.36       328.70297     -62982.657      199.45151      199.28728      454.59059    
      8400  -63304.831      331.35811     -62973.472      199.43549      199.26616      454.80883    
      8500  -63291.645      333.16507     -62958.48       199.41849      199.24381      455.02707    
      8600  -63282.404      338.15724     -62944.247      199.3989       199.21903      455.24531    
      8700  -63274.641      338.56087     -62936.08       199.38296      199.19771      455.46355    
      8800  -63268.886      335.53356     -62933.353      199.36153      199.17104      455.68179    
      8900  -63263.856      333.86814     -62929.988      199.34338      199.14762      455.90002    
      9000  -63252.184      330.52186     -62921.662      199.32389      199.12295      456.11826    
      9100  -63241.08       333.33911     -62907.741      199.30185      199.09553      456.3365     
      9200  -63230.228      336.6604      -62893.567      199.2835       199.07209      456.55474    
      9300  -63223.273      340.1621      -62883.111      199.25918      199.04289      456.77298    
      9400  -63214.263      335.67017     -62878.593      199.23824      199.01788      456.99122    
      9500  -63209.184      334.43746     -62874.746      199.21469      198.99028      457.20946    
      9600  -63194.982      327.94749     -62867.034      199.18939      198.96152      457.42769    
      9700  -63191.183      337.51798     -62853.665      199.16663      198.93571      457.64593    
      9800  -63177.065      338.34081     -62838.724      199.13865      198.90507      457.86417    
      9900  -63164.196      336.08485     -62828.111      199.11447      198.87794      458.08241    
     10000  -63154.248      332.33731     -62821.911      199.08639      198.84748      458.30065    
     10100  -63154.728      337.46081     -62817.267      199.05844      198.81708      458.51889    
     10200  -63145.691      337.08076     -62808.61       199.0319       198.7883       458.73712    
     10300  -63126.669      334.66307     -62792.006      199.00081      198.75546      458.95536    
     10400  -63118.092      341.01964     -62777.072      198.97365      198.72653      459.1736     
     10500  -63109.777      339.45399     -62770.323      198.9419       198.69319      459.39184    
     10600  -63098.822      333.64489     -62765.177      198.91099      198.66058      459.61008    
     10700  -63093.154      336.14694     -62757.007      198.88062      198.62838      459.82832    
     10800  -63077.342      331.54123     -62745.801      198.84719      198.59277      460.04655    
     10900  -63068.111      337.62251     -62730.488      198.81712      198.56002      460.26479    
     11000  -63049.436      335.87699     -62713.559      198.78295      198.523        460.48303    
     11100  -63045.195      338.1993      -62706.996      198.75086      198.48775      460.70127    
     11200  -63033.061      331.64328     -62701.418      198.7174       198.45073      460.91951    
     11300  -63027.012      334.23191     -62692.781      198.68216      198.41166      461.13775    
     11400  -63018.473      335.64584     -62682.828      198.65037      198.37555      461.35598    
     11500  -63002.309      332.86709     -62669.442      198.61398      198.33432      461.57422    
     11600  -62987.215      335.43267     -62651.783      198.58102      198.29618      461.79246    
     11700  -62978.907      337.94488     -62640.962      198.54605      198.2554       462.0107     
     11800  -62972.574      336.38784     -62636.186      198.50913      198.2122       462.22894    
     11900  -62960.614      333.38871     -62627.225      198.4764       198.17326      462.44718    
     12000  -62951.448      335.95532     -62615.493      198.43825      198.12827      462.66542    
     12100  -62934.766      331.93054     -62602.836      198.40406      198.08705      462.88365    
     12200  -62927.33       339.35694     -62587.973      198.36781      198.04342      463.10189    
     12300  -62907.132      333.77293     -62573.359      198.33041      197.99855      463.32013    
     12400  -62904.011      336.68312     -62567.328      198.29521      197.95578      463.53837    
     12500  -62895.112      334.16865     -62560.943      198.25571      197.90889      463.75661    
     12600  -62879.281      329.91764     -62549.363      198.21989      197.86603      463.97485    
     12700  -62874.838      340.78006     -62534.058      198.18053      197.81986      464.19308    
     12800  -62855.758      339.02861     -62516.729      198.14149      197.77456      464.41132    
     12900  -62842.605      339.65176     -62502.953      198.10435      197.73136      464.62956    
     13000  -62834.919      337.24118     -62497.678      198.06166      197.68303      464.8478     
     13100  -62822.801      331.98519     -62490.815      198.02465      197.6406       465.06604    
     13200  -62809.612      331.58696     -62478.025      197.98284      197.59388      465.28428    
     13300  -62797.19       337.06297     -62460.127      197.9415       197.54833      465.50251    
     13400  -62780.393      335.96252     -62444.431      197.90333      197.50635      465.72075    
     13500  -62770.058      337.04689     -62433.011      197.85799      197.45777      465.93899    
     13600  -62757.022      331.0003      -62426.021      197.81992      197.41654      466.15723    
     13700  -62750.556      330.77483     -62419.781      197.77561      197.36958      466.37547    
     13800  -62735.124      329.41735     -62405.707      197.7332       197.32418      466.59371    
     13900  -62723.989      335.82854     -62388.161      197.69354      197.28173      466.81195    
     14000  -62708.287      337.41345     -62370.874      197.64818      197.23353      467.03018    
     14100  -62690.474      333.81299     -62356.661      197.60923      197.19186      467.24842    
     14200  -62681.773      335.78122     -62345.992      197.56564      197.14519      467.46666    
     14300  -62671.804      331.02903     -62340.775      197.52339      197.09985      467.6849     
     14400  -62661.365      333.40153     -62327.963      197.4831       197.05604      467.90314    
     14500  -62641.29       331.08707     -62310.203      197.43906      197.00831      468.12138    
     14600  -62627.964      333.89408     -62294.07       197.4005       196.96566      468.33961    
     14700  -62612.833      332.77204     -62280.061      197.35815      196.91911      468.55785    
     14800  -62601.976      335.35522     -62266.621      197.31758      196.87383      468.77609    
     14900  -62590.431      334.53674     -62255.894      197.27956      196.83086      468.99433    
     15000  -62578.444      330.96706     -62247.477      197.23642      196.78207      469.21257    
     15100  -62558.196      324.33757     -62233.858      197.2003       196.74012      469.43081    
     15200  -62546.653      333.73007     -62212.923      197.15925      196.69315      469.64904    
     15300  -62534.649      337.39316     -62197.256      197.12152      196.64933      469.86728    
     15400  -62521.719      336.48459     -62185.235      197.08546      196.60702      470.08552    
     15500  -62510.272      334.89836     -62175.374      197.04415      196.55941      470.30376    
     15600  -62495.463      328.41218     -62167.051      197.01025      196.51925      470.522      
     15700  -62485.523      330.49374     -62155.029      196.97119      196.47335      470.74024    
     15800  -62467.16       334.98546     -62132.174      196.93481      196.43055      470.95847    
     15900  -62450.402      336.65969     -62113.742      196.90143      196.39042      471.17671    
     16000  -62436.544      338.43278     -62098.112      196.86244      196.34545      471.39495    
     16100  -62420.989      334.13337     -62086.856      196.8307       196.30763      471.61319    
     16200  -62407.319      329.22062     -62078.098      196.79302      196.26482      471.83143    
     16300  -62399.52       334.3947      -62065.125      196.75823      196.22511      472.04967    
     16400  -62380.038      336.81338     -62043.224      196.72564      196.18764      472.26791    
     16500  -62365.518      341.11094     -62024.407      196.68825      196.14618      472.48614    
     16600  -62352.512      339.76214     -62012.75       196.65788      196.11192      472.70438    
     16700  -62335.514      332.83704     -62002.677      196.62246      196.07326      472.92262    
     16800  -62324.802      334.05101     -61990.751      196.58912      196.03694      473.14086    
     16900  -62309.017      335.10723     -61973.909      196.55796      196.00359      473.3591     
     17000  -62291.874      341.51434     -61950.36       196.52267      195.96596      473.57734    
     17100  -62270.347      334.63587     -61935.711      196.49365      195.93513      473.79557    
     17200  -62262.667      337.77575     -61924.891      196.46008      195.89992      474.01381    
     17300  -62245.756      331.66171     -61914.095      196.42944      195.86785      474.23205    
     17400  -62228.477      329.06224     -61899.415      196.40028      195.83735      474.45029    
     17500  -62213.217      332.04225     -61881.174      196.36708      195.80284      474.66853    
     17600  -62195.084      330.58024     -61864.503      196.34092      195.7752       474.88677    
     17700  -62185.001      337.25905     -61847.742      196.3088       195.74161      475.105      
     17800  -62162.685      331.65188     -61831.033      196.28136      195.71285      475.32324    
     17900  -62155.733      339.96092     -61815.772      196.2543       195.68476      475.54148    
     18000  -62137.924      334.03447     -61803.89       196.22358      195.65286      475.75972    
     18100  -62125.282      332.60681     -61792.676      196.19914      195.62726      475.97796    
     18200  -62110.359      335.10022     -61775.259      196.16998      195.59657      476.1962     
     18300  -62083.726      332.14781     -61751.578      196.14408      195.56884      476.41443    
     18400  -62070.066      335.38176     -61734.684      196.11917      195.54169      476.63267    
     18500  -62056.383      335.40849     -61720.975      196.09198      195.51196      476.85091    
     18600  -62042.672      333.56533     -61709.106      196.06953      195.48663      477.06915    
     18700  -62026.099      328.23559     -61697.863      196.04365      195.45788      477.28739    
     18800  -62012.96       327.35888     -61685.601      196.01998      195.43129      477.50563    
     18900  -61992.296      328.01803     -61664.278      195.99702      195.40494      477.72387    
     19000  -61979.504      337.89383     -61641.61       195.97224      195.37656      477.9421     
     19100  -61960.111      337.74052     -61622.37       195.95181      195.35228      478.16034    
     19200  -61940.356      335.85375     -61604.502      195.9281       195.3247       478.37858    
     19300  -61927.195      336.12393     -61591.071      195.90728      195.29984      478.59682    
     19400  -61912.827      331.28327     -61581.544      195.88625      195.27449      478.81506    
     19500  -61898.521      333.35632     -61565.165      195.86283      195.24716      479.0333     
     19600  -61880.461      335.97279     -61544.488      195.84414      195.22474      479.25153    
     19700  -61862.252      336.79798     -61525.454      195.82102      195.19774      479.46977    
     19800  -61845.306      336.82647     -61508.48       195.80159      195.1748       479.68801    
     19900  -61827.156      334.95841     -61492.198      195.7817       195.15149      479.90625    
     20000  -61811.427      333.26386     -61478.163      195.75932      195.12572      480.12449    
     20100  -61795.479      329.10143     -61466.378      195.74188      195.1051       480.34273    
     20200  -61780.382      332.25589     -61448.126      195.71899      195.0794       480.56096    
     20300  -61759.397      335.55999     -61423.837      195.70016      195.05796      480.7792     
     20400  -61741.918      336.77323     -61405.145      195.68095      195.03698      480.99744    
     20500  -61722.605      332.69664     -61389.908      195.65927      195.01358      481.21568    
     20600  -61713.448      337.02558     -61376.423      195.64136      194.99443      481.43392    
     20700  -61692.981      328.1617      -61364.819      195.62017      194.97245      481.65216    
     20800  -61679.602      330.59011     -61349.012      195.59999      194.95162      481.87039    
     20900  -61656.24       333.70983     -61322.53       195.58181      194.93293      482.08863    
     21000  -61639.652      337.82028     -61301.832      195.56032      194.91138      482.30687    
     21100  -61618.798      335.54228     -61283.256      195.54254      194.8934       482.52511    
     21200  -61602.432      335.76207     -61266.67       195.52274      194.87396      482.74335    
     21300  -61588.981      335.75401     -61253.227      195.50283      194.85457      482.96159    
     21400  -61571.376      331.35489     -61240.021      195.48482      194.83719      483.17983    
     21500  -61554.536      334.83935     -61219.697      195.46424      194.81709      483.39806    
     21600  -61529.1        335.01091     -61194.089      195.44684      194.80025      483.6163     
     21700  -61512.381      336.48141     -61175.899      195.42761      194.78072      483.83454    
     21800  -61493.587      333.30878     -61160.279      195.40928      194.762        484.05278    
     21900  -61477.727      330.39579     -61147.332      195.39264      194.74519      484.27102    
     22000  -61460.433      328.90706     -61131.526      195.37196      194.72404      484.48926    
     22100  -61443.254      336.28992     -61106.964      195.35661      194.70829      484.70749    
     22200  -61419.625      336.01341     -61083.612      195.33733      194.68834      484.92573    
     22300  -61404.47       338.32316     -61066.146      195.31892      194.66873      485.14397    
     22400  -61390.001      337.33168     -61052.669      195.30393      194.65214      485.36221    
     22500  -61375.818      336.92326     -61038.895      195.28371      194.62988      485.58045    
     22600  -61349.869      330.07965     -61019.789      195.26872      194.61289      485.79869    
     22700  -61329.221      336.53492     -60992.686      195.2508       194.59315      486.01692    
     22800  -61311.149      337.95796     -60973.191      195.23287      194.57343      486.23516    
     22900  -61292.312      334.73369     -60957.578      195.21708      194.55562      486.4534     
     23000  -61275.954      333.47512     -60942.479      195.19815      194.5345       486.67164    
     23100  -61259.574      333.34666     -60926.227      195.18307      194.51676      486.88988    
     23200  -61242.533      337.58856     -60904.944      195.16544      194.49649      487.10812    
     23300  -61214.451      334.96336     -60879.488      195.14839      194.47653      487.32636    
     23400  -61196.441      336.23664     -60860.204      195.13287      194.4585       487.54459    
     23500  -61179.775      334.26011     -60845.515      195.11423      194.43766      487.76283    
     23600  -61161.841      331.23447     -60830.606      195.0977       194.4193       487.98107    
     23700  -61146.425      334.91519     -60811.51       195.07996      194.39946      488.19931    
     23800  -61125.733      334.76222     -60790.971      195.0626       194.38025      488.41755    
     23900  -61104.919      335.47393     -60769.445      195.04556      194.36106      488.63579    
     24000  -61086.377      339.80877     -60746.568      195.02726      194.3403       488.85402    
     24100  -61063.44       339.97921     -60723.461      195.01113      194.32214      489.07226    
     24200  -61042.634      338.10903     -60704.525      194.99274      194.30203      489.2905     
     24300  -61031.098      337.69254     -60693.406      194.97435      194.28288      489.50874    
     24400  -61009.528      332.47755     -60677.051      194.95727      194.26475      489.72698    
     24500  -60990.771      333.54405     -60657.227      194.93793      194.24473      489.94522    
     24600  -60967.421      334.67476     -60632.747      194.92089      194.22598      490.16345    
     24700  -60948.324      339.20644     -60609.117      194.90342      194.20702      490.38169    
     24800  -60929.29       337.52769     -60591.762      194.88491      194.18724      490.59993    
     24900  -60911.141      335.73921     -60575.402      194.86831      194.16991      490.81817    
     25000  -60889.929      332.50833     -60557.42       194.84841      194.14993      491.03641    
     25100  -60868.405      329.73787     -60538.667      194.83067      194.13251      491.25465    
     25200  -60852.965      335.09798     -60517.867      194.81218      194.11448      491.47288    
     25300  -60832.089      338.75266     -60493.336      194.79299      194.09541      491.69112    
     25400  -60806.984      336.61063     -60470.373      194.77564      194.07794      491.90936    
     25500  -60792.298      337.6514      -60454.646      194.75616      194.05801      492.1276     
     25600  -60778.396      336.44179     -60441.954      194.7386       194.04034      492.34584    
     25700  -60756.843      335.27367     -60421.569      194.71949      194.0216       492.56408    
     25800  -60734.536      336.67759     -60397.858      194.69993      194.0028       492.78232    
     25900  -60709.793      335.48791     -60374.306      194.68159      193.98534      493.00055    
     26000  -60691.99       337.68635     -60354.304      194.66158      193.96572      493.21879    
     26100  -60670.236      334.20822     -60336.028      194.64249      193.94651      493.43703    
     26200  -60657.636      332.72489     -60324.912      194.62376      193.92773      493.65527    
     26300  -60635.18       328.47406     -60306.706      194.60439      193.90806      493.87351    
     26400  -60611.488      331.77583     -60279.712      194.58535      193.88902      494.09175    
     26500  -60591.863      337.21541     -60254.648      194.56556      193.8694       494.30998    
     26600  -60569.433      337.29595     -60232.137      194.54649      193.85004      494.52822    
     26700  -60541.7        331.27744     -60210.422      194.52704      193.82937      494.74646    
     26800  -60527.043      336.68364     -60190.359      194.50803      193.80904      494.9647     
     26900  -60508.588      335.14328     -60173.444      194.48888      193.78806      495.18294    
     27000  -60486.127      329.31649     -60156.811      194.47068      193.76738      495.40118    
     27100  -60466.627      331.41231     -60135.215      194.45108      193.74553      495.61941    
     27200  -60441.857      334.45498     -60107.402      194.43226      193.72456      495.83765    
     27300  -60420.957      335.54643     -60085.411      194.4132       193.70319      496.05589    
     27400  -60404.135      336.47569     -60067.659      194.39307      193.6803       496.27413    
     27500  -60389.068      338.37669     -60050.692      194.37489      193.65898      496.49237    
     27600  -60364.276      330.83554     -60033.44       194.35517      193.63605      496.71061    
     27700  -60346.464      330.93101     -60015.533      194.33571      193.61323      496.92884    
     27800  -60324.866      333.72175     -59991.144      194.31717      193.59167      497.14708    
     27900  -60301.414      337.66924     -59963.745      194.29589      193.56781      497.36532    
     28000  -60277.325      336.98536     -59940.34       194.27693      193.54663      497.58356    
     28100  -60254.288      334.10385     -59920.184      194.25651      193.5239       497.8018     
     28200  -60236.896      332.75284     -59904.143      194.23566      193.50036      498.02004    
     28300  -60216.018      328.0213      -59887.996      194.21687      193.47959      498.23828    
     28400  -60196.796      333.29243     -59863.504      194.19528      193.45578      498.45651    
     28500  -60172.653      337.73318     -59834.92       194.17556      193.43466      498.67475    
     28600  -60145.708      332.35104     -59813.357      194.15483      193.41278      498.89299    
     28700  -60131.594      337.21656     -59794.378      194.13268      193.39024      499.11123    
     28800  -60107.964      331.47089     -59776.493      194.1129       193.36986      499.32947    
     28900  -60088.769      331.53831     -59757.231      194.09068      193.34759      499.54771    
     29000  -60063.851      332.23984     -59731.611      194.06941      193.32619      499.76594    
     29100  -60041.864      337.08835     -59704.776      194.04875      193.30573      499.98418    
     29200  -60019.557      336.26291     -59683.294      194.0257       193.28291      500.20242    
     29300  -60002.067      335.69402     -59666.373      194.00457      193.26276      500.42066    
     29400  -59980.954      330.13733     -59650.817      193.98154      193.2407       500.6389     
     29500  -59959.851      331.87345     -59627.978      193.95841      193.21866      500.85714    
     29600  -59938.623      341.87743     -59596.745      193.93729      193.19852      501.07537    
     29700  -59910.933      335.89533     -59575.037      193.91337      193.17555      501.29361    
     29800  -59890.799      334.75761     -59556.041      193.89122      193.15464      501.51185    
     29900  -59869.053      331.73009     -59537.323      193.86818      193.13266      501.73009    
     30000  -59848.345      332.49056     -59515.854      193.84443      193.10998      501.94833    
     30100  -59821.603      332.88781     -59488.715      193.82244      193.08867      502.16657    
     30200  -59800.527      338.27878     -59462.248      193.79777      193.06509      502.3848     
     30300  -59775.453      333.94641     -59441.506      193.77596      193.04398      502.60304    
     30400  -59760.982      337.81024     -59423.171      193.75253      193.02119      502.82128    
     30500  -59735.787      331.6998      -59404.087      193.72825      192.99681      503.03952    
     30600  -59714.405      334.1763      -59380.229      193.70699      192.97489      503.25776    
     30700  -59690.346      339.97259     -59350.373      193.68327      192.95038      503.476      
     30800  -59665.624      337.18049     -59328.443      193.65983      192.92614      503.69424    
     30900  -59647.683      335.46096     -59312.222      193.63764      192.90301      503.91247    
     31000  -59630.173      336.0806      -59294.092      193.61315      192.87688      504.13071    
     31100  -59598.571      326.77754     -59271.793      193.59195      192.85378      504.34895    
     31200  -59580.197      337.48989     -59242.707      193.568        192.82743      504.56719    
     31300  -59557.8        340.4998      -59217.301      193.54543      192.80222      504.78543    
     31400  -59532.702      334.61998     -59198.082      193.52398      192.77801      505.00367    
     31500  -59512.657      332.58404     -59180.072      193.4989       192.7504       505.2219     
     31600  -59490.028      329.28188     -59160.746      193.47794      192.72711      505.44014    
     31700  -59472.259      336.05621     -59136.203      193.45359      192.70054      505.65838    
     31800  -59440.845      336.13246     -59104.712      193.43027      192.67504      505.87662    
     31900  -59419.828      336.63267     -59083.196      193.40819      192.65067      506.09486    
     32000  -59399.638      333.86436     -59065.774      193.38346      192.62309      506.3131     
     32100  -59380.03       333.02999     -59047          193.36209      192.59929      506.53133    
     32200  -59356.473      332.74605     -59023.727      193.33798      192.57315      506.74957    
     32300  -59332.904      338.83978     -58994.064      193.31402      192.54767      506.96781    
     32400  -59304.934      336.52314     -58968.411      193.29201      192.52419      507.18605    
     32500  -59284.342      335.82842     -58948.513      193.2661       192.49736      507.40429    
     32600  -59262.218      331.96196     -58930.256      193.24423      192.47384      507.62253    
     32700  -59242.659      332.99099     -58909.668      193.22044      192.44852      507.84076    
     32800  -59221.152      336.29859     -58884.853      193.19583      192.42309      508.059      
     32900  -59193.064      338.69622     -58854.368      193.17333      192.40041      508.27724    
     33000  -59167.596      336.21601     -58831.38       193.14724      192.37461      508.49548    
     33100  -59149.859      336.92149     -58812.937      193.12321      192.3507       508.71372    
     33200  -59130.058      336.18492     -58793.873      193.09971      192.32687      508.93196    
     33300  -59102.607      331.99164     -58770.615      193.07345      192.30043      509.1502     
     33400  -59079.601      333.46589     -58746.135      193.05064      192.27784      509.36843    
     33500  -59051.599      329.51171     -58722.087      193.02526      192.25306      509.58667    
     33600  -59032.502      335.35359     -58697.148      192.999        192.22791      509.80491    
     33700  -59007.916      337.63379     -58670.282      192.97532      192.20527      510.02315    
     33800  -58981.15       336.81536     -58644.334      192.9491       192.18012      510.24139    
     33900  -58953.664      332.88346     -58620.78       192.92347      192.1549       510.45963    
     34000  -58939.284      335.60923     -58603.674      192.89979      192.13172      510.67786    
     34100  -58915.383      330.7669      -58584.616      192.87269      192.10498      510.8961     
     34200  -58892.089      331.62188     -58560.468      192.84843      192.08209      511.11434    
     34300  -58869.069      338.23264     -58530.836      192.82314      192.05763      511.33258    
     34400  -58843.499      338.45782     -58505.041      192.79568      192.03086      511.55082    
     34500  -58820.553      336.34638     -58484.207      192.77299      192.00794      511.76906    
     34600  -58796.591      333.28716     -58463.303      192.74563      191.97987      511.98729    
     34700  -58776.935      335.41905     -58441.516      192.72135      191.95484      512.20553    
     34800  -58749.861      331.65558     -58418.205      192.69739      191.9306       512.42377    
     34900  -58724.363      333.29523     -58391.068      192.66984      191.90296      512.64201    
     35000  -58701.791      336.93207     -58364.859      192.64745      191.87976      512.86025    
     35100  -58679.125      337.31051     -58341.814      192.62087      191.85191      513.07849    
     35200  -58658.936      334.63941     -58324.297      192.59648      191.82576      513.29673    
     35300  -58631.658      327.13299     -58304.525      192.57332      191.80066      513.51496    
     35400  -58611.224      333.48853     -58277.736      192.54632      191.77225      513.7332     
     35500  -58584.71       333.34253     -58251.367      192.52451      191.74889      513.95144    
     35600  -58563.979      337.26218     -58226.717      192.49896      191.72203      514.16968    
     35700  -58538.48       335.27843     -58203.201      192.47507      191.69605      514.38792    
     35800  -58514.215      332.601       -58181.614      192.45323      191.67168      514.60616    
     35900  -58494.946      332.34265     -58162.604      192.42646      191.64273      514.82439    
     36000  -58472.624      333.53547     -58139.089      192.4046       191.61836      515.04263    
     36100  -58441.106      333.3434      -58107.763      192.38105      191.59253      515.26087    
     36200  -58419.314      337.77802     -58081.536      192.3558       191.56523      515.47911    
     36300  -58391.013      333.63374     -58057.379      192.33481      191.5423       515.69735    
     36400  -58368.703      333.61908     -58035.084      192.30965      191.51473      515.91559    
     36500  -58346.916      330.34579     -58016.57       192.28718      191.48952      516.13382    
     36600  -58324.358      329.50025     -57994.858      192.26437      191.46474      516.35206    
     36700  -58296.291      332.20626     -57964.084      192.2391       191.43784      516.5703     
     36800  -58270.732      334.60498     -57936.127      192.2163       191.41412      516.78854    
     36900  -58253.317      340.88805     -57912.429      192.19206      191.38895      517.00678    
     37000  -58223.496      332.94264     -57890.554      192.16829      191.36405      517.22502    
     37100  -58201.69       331.63838     -57870.052      192.1453       191.34017      517.44325    
     37200  -58179.987      331.02782     -57848.959      192.12175      191.31581      517.66149    
     37300  -58153.561      332.34199     -57821.219      192.09709      191.29081      517.87973    
     37400  -58127.749      336.74917     -57791          192.07312      191.26736      518.09797    
     37500  -58103.937      338.26962     -57765.667      192.04824      191.24312      518.31621    
     37600  -58079.186      336.11224     -57743.074      192.02348      191.21915      518.53445    
     37700  -58059.107      334.95933     -57724.147      191.99964      191.1962       518.75269    
     37800  -58032.937      328.13559     -57704.802      191.97442      191.17203      518.97092    
     37900  -58006.391      329.6053      -57676.786      191.95002      191.14898      519.18916    
     38000  -57981.408      335.87363     -57645.534      191.92557      191.12604      519.4074     
     38100  -57954.772      334.29477     -57620.477      191.89933      191.10159      519.62564    
     38200  -57929.73       332.50302     -57597.227      191.87531      191.07889      519.84388    
     38300  -57907.929      331.8211      -57576.108      191.85025      191.05495      520.06212    
     38400  -57886.363      332.21706     -57554.146      191.82498      191.03069      520.28035    
     38500  -57860.732      332.89684     -57527.835      191.80189      191.00837      520.49859    
     38600  -57833.042      336.37876     -57496.664      191.77628      190.98382      520.71683    
     38700  -57810.011      338.66944     -57471.341      191.75288      190.96128      520.93507    
     38800  -57787.3        336.71919     -57450.581      191.72878      190.93786      521.15331    
     38900  -57763.559      331.34589     -57432.213      191.70401      190.91357      521.37155    
     39000  -57737.632      328.72998     -57408.902      191.68148      190.89099      521.58978    
     39100  -57718.362      336.54157     -57381.82       191.65666      190.86609      521.80802    
     39200  -57686.373      331.73931     -57354.633      191.63471      190.84377      522.02626    
     39300  -57662.271      336.08891     -57326.182      191.61292      190.82088      522.2445     
     39400  -57636.412      337.35098     -57299.061      191.58909      190.79575      522.46274    
     39500  -57613.562      336.82454     -57276.737      191.56904      190.77441      522.68098    
     39600  -57589.164      328.91322     -57260.25       191.54645      190.75004      522.89921    
     39700  -57567.329      331.64331     -57235.686      191.52377      190.72546      523.11745    
     39800  -57536.165      329.63833     -57206.527      191.5044       190.70414      523.33569    
     39900  -57515.163      336.09246     -57179.071      191.48144      190.67882      523.55393    
     40000  -57487.6        333.92227     -57153.678      191.46114      190.65562      523.77217    
     40100  -57463.224      334.05607     -57129.168      191.44155      190.6333       523.99041    
     40200  -57442.283      334.75682     -57107.526      191.41871      190.60809      524.20865    
     40300  -57419.021      331.1412      -57087.88       191.39947      190.58643      524.42688    
     40400  -57393.299      332.4764      -57060.822      191.37789      190.56256      524.64512    
     40500  -57362.915      333.43212     -57029.483      191.35654      190.53868      524.86336    
     40600  -57337.103      334.7423      -57002.36       191.33735      190.51704      525.0816     
     40700  -57317.408      340.23066     -56977.178      191.3152       190.49308      525.29984    
     40800  -57292.521      337.18166     -56955.339      191.29487      190.47108      525.51808    
     40900  -57265.765      329.00404     -56936.761      191.27477      190.44984      525.73631    
     41000  -57242.587      330.40573     -56912.182      191.25259      190.42641      525.95455    
     41100  -57214.684      335.28624     -56879.398      191.23238      190.40501      526.17279    
     41200  -57191.122      338.23319     -56852.889      191.2115       190.38392      526.39103    
     41300  -57162.151      333.70689     -56828.444      191.18888      190.36124      526.60927    
     41400  -57139.826      334.04012     -56805.786      191.16831      190.34095      526.82751    
     41500  -57116.324      332.26932     -56784.055      191.14629      190.31957      527.04574    
     41600  -57090.967      330.54049     -56760.427      191.12417      190.29853      527.26398    
     41700  -57065.091      335.75525     -56729.336      191.10325      190.2786       527.48222    
     41800  -57034.386      334.3856      -56700.001      191.08086      190.25761      527.70046    
     41900  -57016.485      340.47525     -56676.01       191.05854      190.23728      527.9187     
     42000  -56990.68       334.90835     -56655.771      191.03612      190.21707      528.13694    
     42100  -56969.319      334.70153     -56634.617      191.01337      190.19624      528.35517    
     42200  -56943.183      333.54749     -56609.635      190.99173      190.17711      528.57341    
     42300  -56912.065      335.37639     -56576.689      190.96909      190.15633      528.79165    
     42400  -56884.584      336.21316     -56548.371      190.94769      190.13708      529.00989    
     42500  -56862.038      336.37154     -56525.666      190.92614      190.11774      529.22813    
     42600  -56840.167      333.75562     -56506.411      190.9043       190.09795      529.44637    
     42700  -56817.796      334.68601     -56483.11       190.88305      190.07787      529.66461    
     42800  -56790.746      336.08401     -56454.662      190.86142      190.05763      529.88284    
     42900  -56760.357      334.85147     -56425.505      190.84148      190.03899      530.10108    
     43000  -56734.156      334.8925      -56399.263      190.81995      190.01868      530.31932    
     43100  -56708.183      332.56367     -56375.62       190.79995      189.99945      530.53756    
     43200  -56685.881      334.50765     -56351.374      190.78037      189.97998      530.7558     
     43300  -56660.998      334.39261     -56326.605      190.76156      189.96069      530.97404    
     43400  -56633.317      331.06969     -56302.247      190.74231      189.94054      531.19227    
     43500  -56609.895      334.51095     -56275.384      190.72266      189.91994      531.41051    
     43600  -56581.354      333.847       -56247.507      190.7048       189.901        531.62875    
     43700  -56554.411      335.25708     -56219.154      190.68493      189.87942      531.84699    
     43800  -56531.498      337.55689     -56193.941      190.66774      189.86026      532.06523    
     43900  -56510.414      334.83804     -56175.576      190.65004      189.8404       532.28347    
     44000  -56488.362      335.7887      -56152.573      190.63116      189.81874      532.5017     
     44100  -56459.762      334.52066     -56125.241      190.61607      189.80106      532.71994    
     44200  -56430.223      335.28143     -56094.941      190.59642      189.77917      532.93818    
     44300  -56404.474      341.4237      -56063.051      190.57814      189.75844      533.15642    
     44400  -56373.176      340.52894     -56032.647      190.56202      189.73993      533.37466    
     44500  -56351.381      342.8436      -56008.538      190.5418       189.71724      533.5929     
     44600  -56328.164      336.60914     -55991.555      190.52558      189.69888      533.81113    
     44700  -56304.299      333.82208     -55970.477      190.50819      189.67919      534.02937    
     44800  -56281.639      334.74134     -55946.897      190.48901      189.65809      534.24761    
     44900  -56252.014      332.36076     -55919.653      190.47306      189.64066      534.46585    
     45000  -56223.147      335.08823     -55888.058      190.45352      189.6198       534.68409    
     45100  -56197.164      336.93266     -55860.231      190.43427      189.59952      534.90233    
     45200  -56172.138      334.47587     -55837.662      190.4173       189.58189      535.12057    
     45300  -56151.348      330.89813     -55820.45       190.39737      189.56104      535.3388     
     45400  -56127.609      333.56489     -55794.044      190.37904      189.54224      535.55704    
     45500  -56095.717      331.44764     -55764.269      190.36213      189.52541      535.77528    
     45600  -56074.597      339.41583     -55735.181      190.34187      189.50514      535.99352    
     45700  -56047.674      338.55535     -55709.118      190.32366      189.48691      536.21176    
     45800  -56020.989      332.26566     -55688.723      190.30586      189.46953      536.43       
     45900  -56001.944      333.92699     -55668.017      190.28483      189.44941      536.64823    
     46000  -55974.228      334.33669     -55639.891      190.26682      189.4326       536.86647    
     46100  -55943.368      334.17541     -55609.193      190.24788      189.41491      537.08471    
     46200  -55917.678      335.39362     -55582.284      190.22824      189.3964       537.30295    
     46300  -55893.958      336.07119     -55557.886      190.21154      189.38109      537.52119    
     46400  -55868.492      333.32495     -55535.168      190.19196      189.36296      537.73943    
     46500  -55845.964      334.65912     -55511.305      190.17273      189.34567      537.95766    
     46600  -55819.942      333.46668     -55486.475      190.15552      189.32985      538.1759     
     46700  -55792.995      335.69573     -55457.299      190.13538      189.31119      538.39414    
     46800  -55763.124      336.8745      -55426.249      190.11778      189.2951       538.61238    
     46900  -55732.677      333.77884     -55398.898      190.09988      189.27866      538.83062    
     47000  -55714.084      335.25476     -55378.829      190.08038      189.26065      539.04886    
     47100  -55693.81       337.31699     -55356.493      190.06366      189.24488      539.2671     
     47200  -55663.217      333.50856     -55329.709      190.04677      189.22885      539.48533    
     47300  -55637.231      335.68229     -55301.548      190.02743      189.21026      539.70357    
     47400  -55609.82       338.14467     -55271.675      190.01123      189.19442      539.92181    
     47500  -55579.654      342.04111     -55237.613      189.99295      189.17702      540.14005    
     47600  -55555.486      341.55174     -55213.934      189.97498      189.15902      540.35829    
     47700  -55531.976      338.58406     -55193.392      189.95941      189.14314      540.57653    
     47800  -55501.277      331.34272     -55169.934      189.9412       189.12479      540.79476    
     47900  -55478.821      332.1797      -55146.641      189.92456      189.10789      541.013      
     48000  -55457.066      335.18173     -55121.885      189.90873      189.09172      541.23124    
     48100  -55427.768      330.78658     -55096.981      189.89132      189.073        541.44948    
     48200  -55401.573      333.21008     -55068.363      189.87476      189.0553       541.66772    
     48300  -55373.506      337.03221     -55036.474      189.85829      189.03763      541.88596    
     48400  -55345.061      336.48227     -55008.579      189.84074      189.01883      542.10419    
     48500  -55322.73       334.77027     -54987.96       189.82505      189.00145      542.32243    
     48600  -55301.404      335.17236     -54966.231      189.80918      188.98311      542.54067    
     48700  -55271.821      332.8537      -54938.967      189.79194      188.9644       542.75891    
     48800  -55244.945      334.92081     -54910.024      189.77586      188.94707      542.97715    
     48900  -55213.903      332.4529      -54881.45       189.75985      188.92921      543.19539    
     49000  -55189.972      334.64826     -54855.324      189.74228      188.90941      543.41362    
     49100  -55165.23       331.08007     -54834.15       189.72646      188.8915       543.63186    
     49200  -55141.557      330.53554     -54811.022      189.71005      188.87369      543.8501     
     49300  -55113.96       331.12324     -54782.837      189.69247      188.85527      544.06834    
     49400  -55086.614      337.32025     -54749.294      189.67714      188.83885      544.28658    
     49500  -55060.92       339.52052     -54721.399      189.65951      188.81988      544.50482    
     49600  -55038.143      340.08194     -54698.061      189.6429       188.80213      544.72306    
     49700  -55009.75       334.99017     -54674.76       189.62795      188.78588      544.94129    
     49800  -54984.106      332.99134     -54651.115      189.60929      188.76692      545.15953    
     49900  -54956.551      330.1059      -54626.445      189.59304      188.75049      545.37777    
     50000  -54933.94       332.81546     -54601.125      189.5772       188.7345       545.59601    
     50100  -54905.475      332.14424     -54573.331      189.55869      188.71616      545.81425    
     50200  -54878.291      336.53739     -54541.754      189.54327      188.70065      546.03249    
     50300  -54848.87       336.26099     -54512.609      189.52644      188.68445      546.25072    
     50400  -54826.219      335.72783     -54490.491      189.50797      188.66666      546.46896    
     50500  -54802.827      333.48859     -54469.338      189.49361      188.65268      546.6872     
     50600  -54775.788      333.65139     -54442.137      189.47561      188.63571      546.90544    
     50700  -54746.251      334.18093     -54412.07       189.45749      188.61903      547.12368    
     50800  -54717.752      333.91558     -54383.836      189.44279      188.60544      547.34192    
     50900  -54698.331      338.38325     -54359.948      189.42316      188.58705      547.56015    
     51000  -54672.906      334.27375     -54338.632      189.40677      188.57194      547.77839    
     51100  -54643.175      331.43037     -54311.744      189.39131      188.55797      547.99663    
     51200  -54615.821      335.68043     -54280.14       189.37093      188.53965      548.21487    
     51300  -54588.224      340.56246     -54247.662      189.35555      188.52598      548.43311    
     51400  -54559.837      337.25679     -54222.58       189.33824      188.51013      548.65135    
     51500  -54536.322      331.83754     -54204.485      189.31877      188.49187      548.86958    
     51600  -54511.944      333.50272     -54178.442      189.30267      188.47797      549.08782    
     51700  -54484.549      334.78776     -54149.761      189.28453      188.46149      549.30606    
     51800  -54455.915      336.76461     -54119.15       189.26553      188.44369      549.5243     
     51900  -54427.837      337.57942     -54090.257      189.24976      188.42896      549.74254    
     52000  -54403.872      335.59366     -54068.279      189.23223      188.41204      549.96078    
     52100  -54374.473      328.58497     -54045.888      189.21433      188.3947       550.17902    
     52200  -54352.018      333.87383     -54018.144      189.19806      188.37923      550.39725    
     52300  -54327.083      338.7785      -53988.305      189.17988      188.36146      550.61549    
     52400  -54294.112      336.95917     -53957.153      189.16225      188.34354      550.83373    
     52500  -54268.925      339.10221     -53929.822      189.14583      188.32668      551.05197    
     52600  -54245.277      335.31426     -53909.963      189.12847      188.30875      551.27021    
     52700  -54220.302      334.23816     -53886.064      189.112        188.29195      551.48845    
     52800  -54195.193      334.51971     -53860.673      189.09555      188.27481      551.70668    
     52900  -54166.657      331.99799     -53834.659      189.07859      188.25686      551.92492    
     53000  -54140.289      331.45511     -53808.833      189.06312      188.2396       552.14316    
     53100  -54115.172      332.14558     -53783.027      189.04693      188.22133      552.3614     
     53200  -54086.896      332.29277     -53754.604      189.03004      188.20309      552.57964    
     53300  -54058.559      335.96195     -53722.597      189.01484      188.18615      552.79788    
     53400  -54030.794      337.96809     -53692.826      188.99826      188.16737      553.01611    
     53500  -54004.717      332.82329     -53671.894      188.98292      188.14947      553.23435    
     53600  -53982.398      333.88682     -53648.511      188.96773      188.1318       553.45259    
     53700  -53958.638      338.59296     -53620.045      188.95187      188.11351      553.67083    
     53800  -53926.451      335.80187     -53590.649      188.93641      188.0959       553.88907    
     53900  -53903.297      340.36511     -53562.932      188.9202       188.07767      554.10731    
     54000  -53876.558      336.83904     -53539.719      188.90466      188.05984      554.32554    
     54100  -53847.349      331.08497     -53516.264      188.88908      188.04217      554.54378    
     54200  -53821.597      332.97643     -53488.621      188.87275      188.02443      554.76202    
     54300  -53793.121      338.1138      -53455.007      188.85604      188.0067       554.98026    
     54400  -53763.602      342.50395     -53421.098      188.84016      187.98948      555.1985     
     54500  -53735.054      338.07167     -53396.983      188.82478      187.97304      555.41674    
     54600  -53717.748      344.02436     -53373.723      188.80734      187.95522      555.63498    
     54700  -53687.519      337.33202     -53350.187      188.79082      187.93906      555.85321    
     54800  -53659.794      334.63125     -53325.162      188.77414      187.92246      556.07145    
     54900  -53631.44       332.45391     -53298.986      188.75552      187.90457      556.28969    
     55000  -53605.863      334.5204      -53271.343      188.73925      187.88915      556.50793    
     55100  -53579.34       334.72455     -53244.616      188.72138      187.87194      556.72617    
     55200  -53549.103      331.43521     -53217.668      188.7025       187.85483      556.94441    
     55300  -53527.603      336.75505     -53190.848      188.68645      187.84025      557.16264    
     55400  -53499.668      334.67738     -53164.991      188.66724      187.82279      557.38088    
     55500  -53475.263      336.00242     -53139.261      188.64804      187.80594      557.59912    
     55600  -53445.828      332.96433     -53112.863      188.63033      187.79069      557.81736    
     55700  -53420.341      336.56193     -53083.779      188.61027      187.77292      558.0356     
     55800  -53390.465      338.9964      -53051.469      188.5925       187.7574       558.25384    
     55900  -53359.862      339.73325     -53020.128      188.57361      187.74079      558.47207    
     56000  -53339.459      341.11338     -52998.346      188.55351      187.72307      558.69031    
     56100  -53311.241      337.58736     -52973.654      188.53694      187.70868      558.90855    
     56200  -53285.202      337.3313      -52947.87       188.51652      187.6902       559.12679    
     56300  -53255.478      333.59667     -52921.882      188.49822      187.67358      559.34503    
     56400  -53230.837      334.81915     -52896.018      188.4816       187.65819      559.56327    
     56500  -53205.497      331.72023     -52873.777      188.4617       187.63911      559.7815     
     56600  -53172.991      327.52217     -52845.469      188.44445      187.62282      559.99974    
     56700  -53145.076      336.01661     -52809.059      188.42674      187.60579      560.21798    
     56800  -53116.937      340.34633     -52776.591      188.40784      187.58704      560.43622    
     56900  -53089.309      337.84493     -52751.464      188.39144      187.57088      560.65446    
     57000  -53064.193      336.00805     -52728.185      188.3732       187.55234      560.8727     
     57100  -53037.656      334.94756     -52702.708      188.35682      187.53476      561.09094    
     57200  -53013.266      337.30676     -52675.959      188.34059      187.51723      561.30917    
     57300  -52987.117      337.27528     -52649.842      188.32177      187.49727      561.52741    
     57400  -52964.596      338.0957      -52626.5        188.3067       187.48103      561.74565    
     57500  -52931.825      330.13446     -52601.69       188.29018      187.46312      561.96389    
     57600  -52902.081      333.24014     -52568.841      188.27236      187.44329      562.18213    
     57700  -52870.259      333.62884     -52536.63       188.25726      187.42621      562.40037    
     57800  -52842.731      334.90614     -52507.825      188.23936      187.40635      562.6186     
     57900  -52816.627      334.37582     -52482.252      188.2233       187.38833      562.83684    
     58000  -52794.375      337.751       -52456.624      188.20655      187.36957      563.05508    
     58100  -52763.2        335.14713     -52428.053      188.1901       187.35079      563.27332    
     58200  -52737.219      338.35652     -52398.862      188.17371      187.33275      563.49156    
     58300  -52704.521      333.67784     -52370.843      188.15629      187.3136       563.7098     
     58400  -52679.914      334.44025     -52345.474      188.13951      187.29513      563.92803    
     58500  -52654.586      335.9355      -52318.65       188.12257      187.27675      564.14627    
     58600  -52622.254      333.73256     -52288.521      188.10463      187.25762      564.36451    
     58700  -52593.172      334.35313     -52258.819      188.08661      187.23948      564.58275    
     58800  -52570.543      337.1977      -52233.345      188.06923      187.22168      564.80099    
     58900  -52541.33       333.01369     -52208.316      188.05038      187.20275      565.01923    
     59000  -52515.412      336.70444     -52178.708      188.03226      187.18475      565.23747    
     59100  -52484.815      334.50718     -52150.308      188.01461      187.16739      565.4557     
     59200  -52459.534      334.65165     -52124.882      187.99498      187.14842      565.67394    
     59300  -52435.042      334.11245     -52100.929      187.97589      187.13072      565.89218    
     59400  -52406.228      335.10774     -52071.12       187.95824      187.11464      566.11042    
     59500  -52374.044      335.0907      -52038.953      187.93672      187.09447      566.32866    
     59600  -52341.306      333.04151     -52008.265      187.91848      187.0777       566.5469     
     59700  -52315.204      331.25527     -51983.949      187.8998       187.06063      566.76513    
     59800  -52292.468      334.44563     -51958.023      187.87955      187.04259      566.98337    
     59900  -52263.494      336.57013     -51926.924      187.86146      187.02606      567.20161    
     60000  -52235.134      337.23706     -51897.897      187.841        187.00711      567.41985    
     60100  -52209.398      335.72515     -51873.673      187.8228       186.99104      567.63809    
     60200  -52177.523      330.61437     -51846.908      187.8037       186.9737       567.85633    
     60300  -52150.968      335.6608      -51815.307      187.78353      186.9551       568.07456    
     60400  -52121.459      339.17347     -51782.285      187.76576      186.93912      568.2928     
     60500  -52089.1        333.81977     -51755.28       187.74551      186.92007      568.51104    
     60600  -52064.486      332.90297     -51731.583      187.72778      186.90336      568.72928    
     60700  -52035.106      333.99998     -51701.106      187.71025      186.88673      568.94752    
     60800  -52006.909      335.67535     -51671.234      187.68856      186.86608      569.16576    
     60900  -51978.666      335.65984     -51643.007      187.67251      186.85103      569.38399    
     61000  -51951.138      333.02831     -51618.11       187.65346      186.8323       569.60223    
     61100  -51923.663      335.35586     -51588.307      187.63434      186.81321      569.82047    
     61200  -51889.208      334.033       -51555.175      187.61856      186.79712      570.03871    
     61300  -51863.033      338.6645      -51524.368      187.59741      186.77575      570.25695    
     61400  -51834.257      333.72411     -51500.533      187.58081      186.75878      570.47519    
     61500  -51803.693      330.64367     -51473.049      187.56355      186.74098      570.69343    
     61600  -51777.74       337.66274     -51440.077      187.54336      186.72027      570.91166    
     61700  -51744.065      337.65134     -51406.414      187.5275       186.70373      571.1299     
     61800  -51712.791      335.02747     -51377.763      187.50795      186.68326      571.34814    
     61900  -51690.809      338.75393     -51352.055      187.49036      186.66438      571.56638    
     62000  -51659.522      337.72944     -51321.793      187.4738       186.64662      571.78462    
     62100  -51629.069      337.26511     -51291.804      187.45357      186.62518      572.00286    
     62200  -51597.957      334.73515     -51263.222      187.43764      186.60843      572.22109    
     62300  -51569.407      335.33885     -51234.068      187.41778      186.58773      572.43933    
     62400  -51537.488      335.2159      -51202.273      187.39949      186.56838      572.65757    
     62500  -51508.768      336.17112     -51172.597      187.38309      186.55069      572.87581    
     62600  -51482.16       337.60487     -51144.555      187.36283      186.52905      573.09405    
     62700  -51452.209      337.7217      -51114.488      187.34732      186.51206      573.31229    
     62800  -51420.809      337.9397      -51082.87       187.32813      186.49154      573.53052    
     62900  -51386          334.22277     -51051.777      187.30976      186.47225      573.74876    
     63000  -51358.634      337.1705      -51021.464      187.29348      186.45484      573.967      
     63100  -51328.259      337.0538      -50991.205      187.27283      186.43377      574.18524    
     63200  -51297.984      337.81202     -50960.172      187.25643      186.4171       574.40348    
     63300  -51267.302      336.21176     -50931.09       187.23727      186.39749      574.62172    
     63400  -51234.676      334.25467     -50900.422      187.21872      186.37872      574.83995    
     63500  -51203.848      334.56994     -50869.278      187.20207      186.36176      575.05819    
     63600  -51177.495      338.01475     -50839.48       187.18217      186.34206      575.27643    
     63700  -51144.503      335.95541     -50808.548      187.16557      186.32583      575.49467    
     63800  -51112.757      336.09172     -50776.666      187.14553      186.30616      575.71291    
     63900  -51081.019      335.82125     -50745.198      187.12778      186.28903      575.93115    
     64000  -51058.425      344.05703     -50714.368      187.11037      186.27233      576.14939    
     64100  -51016.751      333.871       -50682.88       187.08951      186.25246      576.36762    
     64200  -50988.071      337.09342     -50650.978      187.07315      186.23647      576.58586    
     64300  -50955.841      335.76618     -50620.075      187.05466      186.21915      576.8041     
     64400  -50921.29       333.45561     -50587.834      187.03495      186.20036      577.02234    
     64500  -50894.273      338.67583     -50555.597      187.01895      186.18537      577.24058    
     64600  -50860.679      335.99354     -50524.685      186.99849      186.16639      577.45882    
     64700  -50829.831      337.69655     -50492.134      186.98066      186.15003      577.67705    
     64800  -50792.391      333.28818     -50459.103      186.96254      186.1336       577.89529    
     64900  -50766.581      339.11627     -50427.465      186.94254      186.11528      578.11353    
     65000  -50731.081      337.29635     -50393.785      186.92546      186.09937      578.33177    
     65100  -50695.233      333.4256      -50361.808      186.90602      186.08139      578.55001    
     65200  -50664.615      335.40318     -50329.212      186.88814      186.06494      578.76825    
     65300  -50633.097      337.19829     -50295.899      186.86962      186.04761      578.98648    
     65400  -50596.324      333.74791     -50262.576      186.85098      186.03032      579.20472    
     65500  -50565.51       336.27065     -50229.239      186.83377      186.01398      579.42296    
     65600  -50536.502      338.55965     -50197.943      186.81494      185.99562      579.6412     
     65700  -50500.329      335.4704      -50164.859      186.7979       185.97881      579.85944    
     65800  -50471.741      339.91946     -50131.822      186.78025      185.96109      580.07768    
     65900  -50436.638      337.97282     -50098.665      186.76288      185.94369      580.29591    
     66000  -50398.59       334.22472     -50064.365      186.74543      185.92569      580.51415    
     66100  -50367.322      337.26481     -50030.057      186.72881      185.90824      580.73239    
     66200  -50336.702      339.87414     -49996.828      186.71221      185.89096      580.95063    
     66300  -50304.263      342.1456      -49962.117      186.69491      185.87277      581.16887    
     66400  -50269.794      341.63722     -49928.156      186.67974      185.85637      581.38711    
     66500  -50231.919      337.51006     -49894.408      186.66262      185.83785      581.60535    
     66600  -50194.67       334.54728     -49860.122      186.64693      185.82084      581.82358    
     66700  -50162.499      337.87215     -49824.626      186.63082      185.80334      582.04182    
     66800  -50128.142      338.13375     -49790.008      186.61488      185.7862       582.26006    
     66900  -50093.262      338.58117     -49754.68       186.59867      185.76861      582.4783     
     67000  -50061.627      341.62071     -49720.006      186.58388      185.75239      582.69654    
     67100  -50024.634      339.24094     -49685.393      186.56797      185.73477      582.91478    
     67200  -49988.145      338.96856     -49649.176      186.55284      185.71784      583.13301    
     67300  -49954.498      341.90556     -49612.592      186.53767      185.70098      583.35125    
     67400  -49911.721      335.30089     -49576.42       186.52253      185.68451      583.56949    
     67500  -49875.67       334.64956     -49541.02       186.5068       185.66794      583.78773    
     67600  -49845.661      340.04551     -49505.615      186.49183      185.652        584.00597    
     67700  -49802.575      333.33035     -49469.245      186.47624      185.63589      584.22421    
     67800  -49773.035      340.48218     -49432.553      186.46039      185.61941      584.44244    
     67900  -49735.843      340.2157      -49395.627      186.44584      185.60457      584.66068    
     68000  -49694.72       334.72313     -49359.997      186.43001      185.58838      584.87892    
     68100  -49660.858      338.26382     -49322.594      186.41445      185.57264      585.09716    
     68200  -49624.326      338.61769     -49285.709      186.39993      185.55811      585.3154     
     68300  -49590.423      340.6469      -49249.776      186.38374      185.54202      585.53364    
     68400  -49547.987      336.00056     -49211.986      186.36881      185.52739      585.75187    
     68500  -49513.245      339.04822     -49174.197      186.35312      185.51227      585.97011    
     68600  -49476.626      339.80536     -49136.821      186.33767      185.49756      586.18835    
     68700  -49438.392      339.64218     -49098.75       186.32244      185.48328      586.40659    
     68800  -49396.819      336.62044     -49060.199      186.30616      185.46813      586.62483    
     68900  -49362.093      340.44628     -49021.646      186.29184      185.45483      586.84307    
     69000  -49323.037      339.66631     -48983.37       186.27594      185.44015      587.06131    
     69100  -49283.935      339.29328     -48944.642      186.26013      185.42556      587.27954    
     69200  -49247.934      341.84359     -48906.091      186.24656      185.41336      587.49778    
     69300  -49209.842      341.21951     -48868.622      186.22966      185.39794      587.71602    
     69400  -49171.214      340.88531     -48830.329      186.21614      185.38573      587.93426    
     69500  -49128.067      337.53418     -48790.533      186.2006       185.37162      588.1525     
     69600  -49093.213      341.50214     -48751.711      186.18566      185.3581       588.37074    
     69700  -49051.546      338.7809      -48712.766      186.17145      185.34511      588.58897    
     69800  -49010.701      339.43026     -48671.271      186.1564       185.33131      588.80721    
     69900  -48973.814      341.66001     -48632.154      186.14268      185.31893      589.02545    
     70000  -48928.661      335.89646     -48592.764      186.12851      185.30581      589.24369    
     70100  -48896.899      342.7286      -48554.171      186.11439      185.29261      589.46193    
     70200  -48856.519      344.7762      -48511.743      186.10115      185.28011      589.68017    
     70300  -48810.242      339.81498     -48470.427      186.08719      185.26689      589.8984     
     70400  -48773.971      343.10362     -48430.867      186.07353      185.25389      590.11664    
     70500  -48733.944      345.21619     -48388.728      186.06054      185.24143      590.33488    
     70600  -48689.721      341.87004     -48347.851      186.04668      185.22771      590.55312    
     70700  -48646.992      343.49811     -48303.494      186.03387      185.21552      590.77136    
     70800  -48607.741      344.73149     -48263.009      186.02049      185.20247      590.9896     
     70900  -48570.136      348.52649     -48221.609      186.0077       185.18988      591.20784    
     71000  -48522.418      344.00133     -48178.417      185.99482      185.17705      591.42607    
     71100  -48480.396      342.568       -48137.828      185.98228      185.1643       591.64431    
     71200  -48437.448      341.92821     -48095.519      185.96988      185.15156      591.86255    
     71300  -48399.88       346.14865     -48053.732      185.95643      185.13784      592.08079    
     71400  -48358.705      347.94661     -48010.758      185.94476      185.12578      592.29903    
     71500  -48310.66       342.48073     -47968.179      185.9322       185.11255      592.51727    
     71600  -48268.791      342.88166     -47925.91       185.91969      185.09935      592.7355     
     71700  -48228.045      345.94168     -47882.103      185.90826      185.08707      592.95374    
     71800  -48186.422      345.83941     -47840.582      185.89565      185.07376      593.17198    
     71900  -48146.738      348.2329      -47798.505      185.88383      185.06108      593.39022    
     72000  -48102.268      347.813       -47754.455      185.87254      185.04881      593.60846    
     72100  -48058.768      346.57451     -47712.193      185.86         185.03505      593.8267     
     72200  -48017.398      345.94381     -47671.454      185.84924      185.02325      594.04493    
     72300  -47971.502      344.61469     -47626.887      185.83676      185.00963      594.26317    
     72400  -47926.476      345.23923     -47581.237      185.82542      184.99729      594.48141    
     72500  -47882.562      348.25985     -47534.302      185.81397      184.98474      594.69965    
     72600  -47841.262      349.4492      -47491.813      185.80205      184.97168      594.91789    
     72700  -47795.804      351.47615     -47444.328      185.79132      184.95995      595.13613    
     72800  -47745.914      345.69602     -47400.218      185.77949      184.94733      595.35436    
     72900  -47707.043      351.60187     -47355.441      185.76815      184.93501      595.5726     
     73000  -47663.677      353.06998     -47310.607      185.75709      184.92305      595.79084    
     73100  -47614.64       348.11594     -47266.524      185.74547      184.91056      596.00908    
     73200  -47573.434      354.7324      -47218.701      185.73434      184.89872      596.22732    
     73300  -47523.199      353.28447     -47169.914      185.72262      184.88636      596.44556    
     73400  -47476.741      354.30426     -47122.437      185.71132      184.87474      596.6638     
     73500  -47430.806      352.93325     -47077.873      185.69946      184.86258      596.88203    
     73600  -47388.269      358.27419     -47029.995      185.68784      184.85084      597.10027    
     73700  -47334.155      350.69009     -46983.465      185.67639      184.83915      597.31851    
     73800  -47294.861      358.13059     -46936.73       185.66482      184.82731      597.53675    
     73900  -47249.485      361.43405     -46888.051      185.65315      184.81556      597.75499    
     74000  -47196.786      359.87996     -46836.906      185.64105      184.80366      597.97323    
     74100  -47152.818      365.73915     -46787.079      185.62957      184.7925       598.19146    
     74200  -47105.397      365.53444     -46739.863      185.61731      184.78076      598.4097     
     74300  -47053.008      358.65623     -46694.351      185.60518      184.7693       598.62794    
     74400  -47010.076      362.15865     -46647.917      185.59327      184.758        598.84618    
     74500  -46961.222      362.43036     -46598.792      185.58083      184.74605      599.06442    
     74600  -46911.276      363.93413     -46547.342      185.5689       184.73472      599.28266    
     74700  -46867.398      371.57012     -46495.828      185.55662      184.72309      599.50089    
     74800  -46816.982      370.06449     -46446.918      185.54416      184.71145      599.71913    
     74900  -46770.317      374.77215     -46395.545      185.53199      184.70017      599.93737    
     75000  -46709.181      364.89177     -46344.289      185.51961      184.68849      600.15561    
     75100  -46665.557      376.16899     -46289.388      185.50742      184.67694      600.37385    
     75200  -46615.896      375.07118     -46240.825      185.49509      184.66523      600.59209    
     75300  -46566.322      378.26392     -46188.058      185.48262      184.65346      600.81032    
     75400  -46516.805      381.87463     -46134.93       185.47024      184.64182      601.02856    
     75500  -46467.029      386.23946     -46080.79       185.45774      184.63         601.2468     
     75600  -46415.138      385.55058     -46029.587      185.4452       184.61814      601.46504    
     75700  -46363.481      388.58618     -45974.895      185.43289      184.60633      601.68328    
     75800  -46311.897      394.55739     -45917.339      185.42022      184.59399      601.90152    
     75900  -46259.766      394.89849     -45864.867      185.40764      184.58175      602.11976    
     76000  -46204.779      385.95556     -45818.823      185.39516      184.56977      602.33799    
     76100  -46159.105      392.74066     -45766.364      185.38234      184.55755      602.55623    
     76200  -46108.261      395.45259     -45712.809      185.36967      184.5454       602.77447    
     76300  -46060.657      393.21105     -45667.446      185.357        184.53297      602.99271    
     76400  -46005.802      396.89465     -45608.908      185.34425      184.52036      603.21095    
     76500  -45950.87       401.94304     -45548.927      185.3312       184.50745      603.42919    
     76600  -45891.301      395.68162     -45495.619      185.31824      184.49482      603.64742    
     76700  -45845.423      405.66718     -45439.756      185.30533      184.4823       603.86566    
     76800  -45790.7        404.46444     -45386.235      185.29187      184.46925      604.0839     
     76900  -45735.087      403.9839      -45331.103      185.27879      184.45645      604.30214    
     77000  -45685.378      410.4476      -45274.93       185.26569      184.4436       604.52038    
     77100  -45625.336      407.68741     -45217.648      185.25189      184.43003      604.73862    
     77200  -45567.032      413.39707     -45153.635      185.23876      184.41706      604.95685    
     77300  -45514.957      418.93734     -45096.02       185.22512      184.40352      605.17509    
     77400  -45466.748      426.71855     -45040.03       185.21152      184.39014      605.39333    
     77500  -45410.744      423.21065     -44987.534      185.198        184.37692      605.61157    
     77600  -45351.39       426.47964     -44924.911      185.18357      184.36282      605.82981    
     77700  -45289.558      429.82062     -44859.738      185.16997      184.34947      606.04805    
     77800  -45235.741      434.61773     -44801.123      185.15587      184.33541      606.26628    
     77900  -45178.885      435.78081     -44743.105      185.14158      184.32111      606.48452    
     78000  -45133.272      452.35394     -44680.918      185.12784      184.30739      606.70276    
     78100  -45216.745      570.6467      -44646.099      185.1129       184.29275      606.921      
     78200  -45749.941      1144.2508     -44605.69       185.10042      184.28062      607.13924    
     78300  -47101.722      1762.9697     -45338.752      185.09558      184.27983      607.35748    
     78400  -48937.893      2104.4569     -46833.436      185.10107      184.29078      607.57572    
     78500  -50749.412      1997.8197     -48751.592      185.13382      184.32942      607.79395    
     78600  -51917.014      1519.4089     -50397.605      185.17295      184.36967      608.01219    
     78700  -52799.031      1248.1003     -51550.931      185.19866      184.40454      608.23043    
     78800  -53670.182      1136.6343     -52533.548      185.2176       184.43407      608.44867    
     78900  -54450.956      1038.3146     -53412.641      185.24573      184.47261      608.66691    
     79000  -55131.164      942.79769     -54188.366      185.27705      184.51675      608.88515    
     79100  -55737.75       863.63477     -54874.115      185.31115      184.56659      609.10338    
     79200  -56277.025      796.27396     -55480.751      185.34577      184.61923      609.32162    
     79300  -56763.278      741.31485     -56021.963      185.38284      184.67528      609.53986    
     79400  -57209.197      697.97572     -56511.222      185.41765      184.73017      609.7581     
     79500  -57618.189      660.48803     -56957.701      185.4525       184.78589      609.97634    
     79600  -58000.295      630.9516      -57369.343      185.48613      184.84007      610.19458    
     79700  -58360.773      607.26463     -57753.508      185.51771      184.89131      610.41281    
     79800  -58701.691      586.79571     -58114.895      185.54898      184.94113      610.63105    
     79900  -59026.259      569.36477     -58456.894      185.58018      184.9905       610.84929    
     80000  -59336.693      554.26802     -58782.425      185.61104      185.03937      611.06753    
     80100  -59634.989      541.29447     -59093.695      185.64095      185.08691      611.28577    
     80200  -59923.04       530.41957     -59392.621      185.67089      185.13394      611.50401    
     80300  -60201.262      520.4118      -59680.85       185.69996      185.17923      611.72225    
     80400  -60470.802      511.11801     -59959.684      185.72838      185.22327      611.94048    
     80500  -60733.149      503.04539     -60230.103      185.75641      185.26655      612.15872    
     80600  -60989.196      496.1298      -60493.066      185.78352      185.30839      612.37696    
     80700  -61239.45       490.06526     -60749.385      185.81028      185.34936      612.5952     
     80800  -61484.156      484.46454     -60999.692      185.83636      185.38919      612.81344    
     80900  -61723.984      479.37326     -61244.61       185.86178      185.42796      613.03168    
     81000  -61953.907      469.8316      -61484.076      185.88679      185.466        613.24991    
     81100  -62163.012      453.37252     -61709.64       185.91175      185.5036       613.46815    
     81200  -62352.095      435.53616     -61916.559      185.93676      185.54098      613.68639    
     81300  -62525.005      419.59557     -62105.41       185.96143      185.57773      613.90463    
     81400  -62681.197      404.21368     -62276.984      185.98639      185.61441      614.12287    
     81500  -62821.392      389.64592     -62431.746      186.01126      185.65065      614.34111    
     81600  -62945.672      375.81252     -62569.859      186.03626      185.68676      614.55934    
     81700  -63053.867      362.64755     -62691.219      186.06155      185.72287      614.77758    
     81800  -63145.877      350.45279     -62795.424      186.08697      185.75887      614.99582    
     81900  -63221.074      339.4071      -62881.667      186.11302      185.79525      615.21406    
     82000  -63278.563      330.01291     -62948.55       186.13947      185.83178      615.4323     
     82100  -63317.793      323.88704     -62993.906      186.1664       185.86866      615.65054    
     82200  -63342.062      325.47612     -63016.586      186.19251      185.90422      615.86877    
     82300  -63351.134      329.47551     -63021.658      186.2183       185.93916      616.08701    
     82400  -63344.248      328.42659     -63015.821      186.24377      185.97364      616.30525    
     82500  -63318.378      321.26288     -62997.115      186.26692      186.00543      616.52349    
     82600  -63270.533      314.51109     -62956.022      186.28892      186.03571      616.74173    
     82700  -63198.122      307.41626     -62890.705      186.31039      186.06573      616.95997    
     82800  -63100.93       292.04573     -62808.884      186.33099      186.0949       617.17821    
     82900  -62987.19       270.96934     -62716.22       186.35107      186.12312      617.39644    
     83000  -62857.437      238.71473     -62618.723      186.36991      186.14984      617.61468    
     83100  -62721.3        197.04841     -62524.252      186.38949      186.17654      617.83292    
     83200  -62637.897      205.76344     -62432.134      186.4034       186.19661      618.05116    
     83300  -62618.93       294.55331     -62324.377      186.40249      186.20199      618.2694     
     83400  -62678.696      439.15923     -62239.537      186.4078       186.21187      618.48764    
     83500  -62734.563      385.39912     -62349.164      186.41438      186.22477      618.70587    
     83600  -62770.501      312.54491     -62457.956      186.4353       186.2436       618.92411    
     83700  -62776.803      289.0601      -62487.742      186.45253      186.2599       619.14235    
     83800  -62786.002      341.99146     -62444.011      186.47206      186.2777       619.36059    
     83900  -62794.097      382.81824     -62411.279      186.49473      186.29463      619.57883    
     84000  -62815.519      349.11414     -62466.405      186.51103      186.31371      619.79707    
     84100  -62829.299      304.75417     -62524.545      186.54094      186.34045      620.0153     
     84200  -62845.058      316.06224     -62528.996      186.56033      186.36233      620.23354    
     84300  -62851.611      344.46402     -62507.147      186.57106      186.38093      620.45178    
     84400  -62850.781      349.43236     -62501.348      186.58857      186.41538      620.67002    
     84500  -62851.418      332.73488     -62518.683      186.59737      186.44893      620.88826    
     84600  -62854.029      324.30019     -62529.729      186.61171      186.48528      621.1065     
     84700  -62852.098      330.62945     -62521.469      186.61978      186.50683      621.32473    
     84800  -62846.716      344.19209     -62502.524      186.63447      186.52992      621.54297    
     84900  -62867.785      362.54041     -62505.245      186.64971      186.56319      621.76121    
     85000  -62885.168      332.90943     -62552.259      186.65448      186.58901      621.97945    
     85100  -62913.003      321.9655      -62591.037      186.67333      186.62064      622.19769    
     85200  -62934.801      331.33236     -62603.469      186.68768      186.64923      622.41593    
     85300  -62938.934      338.55402     -62600.38       186.7027       186.67664      622.63417    
     85400  -62943.124      342.52924     -62600.595      186.71316      186.70567      622.8524     
     85500  -62948.904      337.15476     -62611.749      186.72394      186.73845      623.07064    
     85600  -62965.67       338.03232     -62627.638      186.73974      186.77467      623.28888    
     85700  -62980.371      335.44853     -62644.922      186.74962      186.8092       623.50712    
     85800  -62991.997      330.47009     -62661.527      186.76392      186.84733      623.72536    
     85900  -63004.606      331.55423     -62673.052      186.77474      186.87571      623.9436     
     86000  -63008.306      330.75494     -62677.551      186.79184      186.91615      624.16183    
     86100  -63017.254      339.17441     -62678.08       186.80496      186.9434       624.38007    
     86200  -63020.815      334.36776     -62686.448      186.81875      186.96934      624.59831    
     86300  -63025.461      329.26431     -62696.197      186.8272       186.98851      624.81655    
     86400  -63031.195      334.44363     -62696.751      186.83882      187.01027      625.03479    
     86500  -63037.546      341.52805     -62696.018      186.85325      187.02475      625.25303    
     86600  -63038.89       333.35104     -62705.539      186.86873      187.03448      625.47126    
     86700  -63051.471      337.01368     -62714.457      186.89074      187.04526      625.6895     
     86800  -63057.982      335.18048     -62722.801      186.91076      187.0528       625.90774    
     86900  -63060.928      331.36325     -62729.565      186.92811      187.05691      626.12598    
     87000  -63069.299      340.52953     -62728.77       186.94866      187.06242      626.34422    
     87100  -63070.154      341.15138     -62729.003      186.97511      187.06855      626.56246    
     87200  -63072.917      333.28239     -62739.634      186.99626      187.06666      626.78069    
     87300  -63075.861      328.67215     -62747.189      187.01813      187.06424      626.99893    
     87400  -63062.286      326.13189     -62736.154      187.04481      187.06255      627.21717    
     87500  -63050.039      337.40318     -62712.636      187.06588      187.05858      627.43541    
     87600  -63033.875      339.99688     -62693.878      187.08533      187.05712      627.65365    
     87700  -63025.193      341.48745     -62683.706      187.10143      187.0579       627.87189    
     87800  -63021.03       337.95781     -62683.072      187.12232      187.06531      628.09013    
     87900  -63030.188      340.31996     -62689.868      187.13491      187.07176      628.30836    
     88000  -63034.82       331.37483     -62703.445      187.14611      187.07982      628.5266     
     88100  -63043.409      328.97922     -62714.43       187.15346      187.09216      628.74484    
     88200  -63058.725      338.57712     -62720.148      187.1614       187.11001      628.96308    
     88300  -63057.287      328.3115      -62728.975      187.16646      187.1279       629.18132    
     88400  -63063.573      330.7037      -62732.869      187.16675      187.14986      629.39956    
     88500  -63068.474      337.47336     -62731.001      187.16795      187.17584      629.61779    
     88600  -63065.625      335.13084     -62730.494      187.15874      187.20057      629.83603    
     88700  -63061.682      331.36653     -62730.315      187.15212      187.23412      630.05427    
     88800  -63058.06       333.81265     -62724.248      187.14316      187.26739      630.27251    
     88900  -63054.329      337.41995     -62716.909      187.13549      187.30145      630.49075    
     89000  -63050.15       337.94662     -62712.204      187.12203      187.33204      630.70899    
     89100  -63044.84       334.53095     -62710.309      187.10989      187.36601      630.92722    
     89200  -63040.219      337.05761     -62703.161      187.10122      187.40268      631.14546    
     89300  -63025.914      331.25807     -62694.656      187.08989      187.43269      631.3637     
     89400  -63021.964      335.09941     -62686.864      187.08421      187.46515      631.58194    
     89500  -63009.864      330.24698     -62679.617      187.08003      187.49498      631.80018    
     89600  -63006.231      332.42515     -62673.806      187.07232      187.51887      632.01842    
     89700  -62995.693      330.2565      -62665.436      187.06701      187.54475      632.23665    
     89800  -62995.483      343.21446     -62652.268      187.06563      187.56381      632.45489    
     89900  -62987.786      339.85216     -62647.934      187.06679      187.58112      632.67313    
     90000  -62995.758      336.10947     -62659.648      187.07689      187.59723      632.89137    
     90100  -63003.14       327.42094     -62675.719      187.08873      187.60363      633.10961    
     90200  -63013.999      335.44971     -62678.549      187.11012      187.61244      633.32785    
     90300  -63017.627      339.38028     -62678.247      187.12821      187.61598      633.54609    
     90400  -63027.661      342.1668      -62685.494      187.1512       187.6229       633.76432    
     90500  -63032.492      333.02787     -62699.465      187.17427      187.62064      633.98256    
     90600  -63037.295      326.34515     -62710.95       187.19884      187.61952      634.2008     
     90700  -63044.142      332.28661     -62711.856      187.22252      187.6173       634.41904    
     90800  -63041.224      336.09791     -62705.126      187.24214      187.60861      634.63728    
     90900  -63039.54       337.89415     -62701.646      187.26889      187.60499      634.85552    
     91000  -63045.909      336.67378     -62709.235      187.28982      187.59463      635.07375    
     91100  -63051.989      331.17391     -62720.815      187.31252      187.58561      635.29199    
     91200  -63049.698      328.71676     -62720.981      187.33364      187.57615      635.51023    
     91300  -63048.22       338.17802     -62710.042      187.3513       187.56727      635.72847    
     91400  -63041.628      339.56837     -62702.06       187.36599      187.56133      635.94671    
     91500  -63040.966      334.79517     -62706.171      187.37557      187.55437      636.16495    
     91600  -63048.086      333.43982     -62714.646      187.38369      187.55306      636.38318    
     91700  -63051.531      334.57521     -62716.956      187.38954      187.558        636.60142    
     91800  -63040.142      328.744       -62711.398      187.39228      187.56614      636.81966    
     91900  -63042.14       339.84602     -62702.294      187.39522      187.57684      637.0379     
     92000  -63048.009      341.92939     -62706.079      187.39514      187.58912      637.25614    
     92100  -63059.992      335.08967     -62724.902      187.3913       187.60443      637.47438    
     92200  -63074.385      331.00501     -62743.38       187.38718      187.62379      637.69262    
     92300  -63075.312      325.09672     -62750.215      187.3816       187.64338      637.91085    
     92400  -63069.471      326.90686     -62742.564      187.36955      187.66148      638.12909    
     92500  -63062.905      338.40431     -62724.501      187.36031      187.68404      638.34733    
     92600  -63057.093      342.58399     -62714.509      187.34721      187.70415      638.56557    
     92700  -63058.959      340.65836     -62718.301      187.3344       187.7229       638.78381    
     92800  -63065.933      335.26826     -62730.665      187.3242       187.74106      639.00205    
     92900  -63063.427      325.07859     -62738.348      187.31561      187.7543       639.22028    
     93000  -63057.019      328.19354     -62728.826      187.30979      187.76465      639.43852    
     93100  -63043.224      340.24796     -62702.976      187.30482      187.77056      639.65676    
     93200  -63029.439      345.63511     -62683.803      187.30535      187.77255      639.875      
     93300  -63031.468      345.5632      -62685.905      187.30836      187.77468      640.09324    
     93400  -63038.342      331.69756     -62706.644      187.31716      187.77267      640.31148    
     93500  -63052.716      325.85374     -62726.862      187.33089      187.76852      640.52971    
     93600  -63056.735      325.59188     -62731.143      187.34423      187.75979      640.74795    
     93700  -63049.069      332.10235     -62716.966      187.36126      187.75105      640.96619    
     93800  -63039.67       340.96127     -62698.709      187.37611      187.74021      641.18443    
     93900  -63039.777      345.48673     -62694.29       187.39157      187.73015      641.40267    
     94000  -63046.38       339.05971     -62707.32       187.40724      187.72063      641.62091    
     94100  -63057.582      328.47709     -62729.104      187.42152      187.7111       641.83914    
     94200  -63063.291      323.84751     -62739.444      187.43519      187.70324      642.05738    
     94300  -63061.225      332.07476     -62729.15       187.4474       187.69578      642.27562    
     94400  -63050.135      339.86269     -62710.272      187.45745      187.68974      642.49386    
     94500  -63047.706      346.6593      -62701.046      187.46593      187.68497      642.7121     
     94600  -63049.309      338.12798     -62711.181      187.47438      187.68239      642.93034    
     94700  -63059.118      328.98789     -62730.13       187.47924      187.67879      643.14858    
     94800  -63061.498      322.22183     -62739.276      187.48378      187.67746      643.36681    
     94900  -63057.215      329.08343     -62728.131      187.48597      187.67762      643.58505    
     95000  -63040.715      335.90088     -62704.814      187.48529      187.67613      643.80329    
     95100  -63034.233      345.5494      -62688.684      187.4853       187.67747      644.02153    
     95200  -63030.708      341.68083     -62689.027      187.48264      187.67815      644.23977    
     95300  -63039.267      334.51733     -62704.75       187.48212      187.68332      644.45801    
     95400  -63049.456      328.00155     -62721.454      187.4752       187.68636      644.67624    
     95500  -63053.79       328.26576     -62725.524      187.47229      187.69613      644.89448    
     95600  -63053.362      336.72781     -62716.634      187.46713      187.70505      645.11272    
     95700  -63049.699      340.48663     -62709.212      187.45915      187.71205      645.33096    
     95800  -63059.919      344.47566     -62715.443      187.45499      187.72624      645.5492     
     95900  -63073.906      336.15175     -62737.755      187.44462      187.73803      645.76744    
     96000  -63088.279      329.78218     -62758.497      187.43601      187.754        645.98567    
     96100  -63089.735      326.01583     -62763.72       187.42672      187.76909      646.20391    
     96200  -63077.692      327.29446     -62750.398      187.41437      187.78284      646.42215    
     96300  -63068.081      340.4251      -62727.656      187.40639      187.80123      646.64039    
     96400  -63056.485      341.98569     -62714.499      187.39472      187.81389      646.85863    
     96500  -63057.216      338.93916     -62718.277      187.38794      187.82716      647.07687    
     96600  -63056.713      328.70935     -62728.003      187.38275      187.83815      647.2951     
     96700  -63057.522      328.35256     -62729.17       187.3813       187.8476       647.51334    
     96800  -63044.648      327.55297     -62717.096      187.38208      187.8526       647.73158    
     96900  -63033.667      337.43115     -62696.236      187.38304      187.85153      647.94982    
     97000  -63025.15       342.80283     -62682.347      187.38834      187.84927      648.16806    
     97100  -63028.911      342.49832     -62686.413      187.39303      187.84251      648.3863     
     97200  -63034.585      332.06438     -62702.52       187.40256      187.83633      648.60454    
     97300  -63042.517      326.82872     -62715.689      187.40757      187.82724      648.82277    
     97400  -63047.16       332.57833     -62714.582      187.41642      187.8192       649.04101    
     97500  -63040.167      336.67115     -62703.496      187.42405      187.808        649.25925    
     97600  -63042.377      344.94848     -62697.428      187.43156      187.79618      649.47749    
     97700  -63049.882      341.022       -62708.86       187.43803      187.78254      649.69573    
     97800  -63060.474      329.91012     -62730.564      187.44565      187.76947      649.91397    
     97900  -63067.561      324.68937     -62742.871      187.4517       187.75792      650.1322     
     98000  -63063.022      327.08038     -62735.941      187.45535      187.74656      650.35044    
     98100  -63054.817      337.88449     -62716.933      187.46008      187.73732      650.56868    
     98200  -63047.544      343.21081     -62704.3