LAMMPS (2 Aug 2023 - Update 3)
OMP_NUM_THREADS environment is not set. Defaulting to 1 thread. (src/comm.cpp:98)
  using 1 OpenMP thread(s) per MPI task

# 1------general---------------
units                             metal      #单位为lammps 中的metel 类型
dimension                    3          #模拟的维度 三维
boundary                    p p p      #周期边界条件
atom_style                  atomic   #原子类型自动
atom_modify              map array sort 100 2.0
neighbor                    3.0 bin
neigh_modify            every 1 delay 0 check yes
#2 -----global variable-------定义全局变量，方便统一修改；
variable temperature equal 300
variable tstep equal 0.001
variable pressure equal 0
variable thermalstep equal 100
variable dumpstep equal 1000
variable relaxtime equal 0
variable totaltime equal 200000
variable deformrate equal 5e-3
#3 -------model------------
#box tilt large
read_data     1.lmp
Reading data file ...
  orthogonal box = (-100 -100 -2.3312515) to (100 100 46.166171)
  3 by 4 by 1 MPI processor grid
  reading atoms ...
  1320 atoms
  read_data CPU = 0.056 seconds
replicate 1 1 7
Replication is creating a 1x1x7 = 7 times larger system...
  orthogonal box = (-100 -100 -2.3312515) to (100 100 337.15071)
  2 by 2 by 3 MPI processor grid
  9240 atoms
  replicate CPU = 0.095 seconds
write_data z.data
System init for write_data ...
WARNING: Communication cutoff is 0.0. No ghost atoms will be generated. Atoms may get lost. (src/comm_brick.cpp:210)
pair_style hybrid airebo 3.0 airebo 3.0 airebo 3.0 lj/cut 10
pair_coeff * * airebo 1 CH.airebo C NULL NULL
Reading airebo potential file CH.airebo with DATE: 2011-10-25
pair_coeff * * airebo 2 CH.airebo NULL C NULL
Reading airebo potential file CH.airebo with DATE: 2011-10-25
pair_coeff * * airebo 3 CH.airebo NULL NULL C
Reading airebo potential file CH.airebo with DATE: 2011-10-25
pair_coeff 1 2 lj/cut 0.00456 3.431
pair_coeff 1 3 lj/cut 0.00456 3.431
pair_coeff 2 3 lj/cut 0.00456 3.431

# 5------minimize -----------
min_style      sd
minimize       1.0e-4 1.0e-6 100 1000
Neighbor list info ...
  update: every = 1 steps, delay = 0 steps, check = yes
  max neighbors/atom: 2000, page size: 100000
  master list distance cutoff = 13.2
  ghost atom cutoff = 13.2
  binsize = 6.6, bins = 31 31 52
  6 neighbor lists, perpetual/occasional/extra = 6 0 0
  (1) pair airebo, perpetual, skip from (5)
      attributes: full, newton on, ghost
      pair build: skip/ghost
      stencil: none
      bin: none
  (2) pair airebo, perpetual, skip from (5)
      attributes: full, newton on, ghost
      pair build: skip/ghost
      stencil: none
      bin: none
  (3) pair airebo, perpetual, skip from (5)
      attributes: full, newton on, ghost
      pair build: skip/ghost
      stencil: none
      bin: none
  (4) pair lj/cut, perpetual, skip from (6)
      attributes: half, newton on, cut 13
      pair build: skip
      stencil: none
      bin: none
  (5) neighbor class addition, perpetual
      attributes: full, newton on, ghost
      pair build: full/bin/ghost
      stencil: full/ghost/bin/3d
      bin: standard
  (6) neighbor class addition, perpetual
      attributes: half, newton on, cut 13
      pair build: half/bin/atomonly/newton
      stencil: half/bin/3d
      bin: standard
Per MPI rank memory allocation (min/avg/max) = 12.09 | 12.73 | 12.86 Mbytes
   Step          Temp          E_pair         E_mol          TotEng         Press     
         0   0             -56473.862      0             -56473.862      5481.8219    
        30   0             -66804.732      0             -66804.732      34.778352    
Loop time of 3.55103 on 12 procs for 30 steps with 9240 atoms

72.0% CPU use with 12 MPI tasks x 1 OpenMP threads

Minimization stats:
  Stopping criterion = energy tolerance
  Energy initial, next-to-last, final = 
      -56473.861556333  -66800.4685021838  -66804.7319542927
  Force two-norm initial, final = 5204.3958 26.172977
  Force max component initial, final = 534.82797 1.9411106
  Final line search alpha, max atom move = 0.051917894 0.10077838
  Iterations, force evaluations = 30 54

MPI task timing breakdown:
Section |  min time  |  avg time  |  max time  |%varavg| %total
---------------------------------------------------------------
Pair    | 0.56393    | 0.67638    | 0.83716    |   8.8 | 19.05
Neigh   | 0          | 0          | 0          |   0.0 |  0.00
Comm    | 1.0331     | 1.1911     | 1.3312     |   9.2 | 33.54
Output  | 0          | 0          | 0          |   0.0 |  0.00
Modify  | 0          | 0          | 0          |   0.0 |  0.00
Other   |            | 1.684      |            |       | 47.41

Nlocal:            770 ave         821 max         721 min
Histogram: 3 0 0 0 4 2 0 0 0 3
Nghost:        3030.33 ave        3084 max        2977 min
Histogram: 2 1 0 0 4 2 0 0 1 2
Neighs:              0 ave           0 max           0 min
Histogram: 12 0 0 0 0 0 0 0 0 0

Total # of neighbors = 0
Ave neighs/atom = 0
Neighbor list builds = 0
Dangerous builds = 0
#6----define computes------
variable nums equal count(all) #计算原子数目
variable toval equal 16.0428*16.0428*lz #计算系统总体积，单层石墨烯厚度为0.335nm
variable vol equal ${toval} #体系的初始体积
variable vol equal 87372.958386421 
variable vatom equal v_vol/v_nums #单个原子体积
compute 1 all stress/atom NULL #计算体系中单原子应力
compute xalls all reduce sum c_1[1]
variable xstress equal (c_xalls)/(v_toval*10000)
compute yalls all reduce sum c_1[2]
variable ystress equal (c_yalls)/(v_toval*10000)
compute zalls all reduce sum c_1[3]
variable zstress equal (c_zalls)/(v_toval*10000)
#7---------relaxation-------------------------
timestep ${tstep}
timestep 0.001
velocity all create ${temperature} 231743 units box dist gaussian
velocity all create 300 231743 units box dist gaussian
dump   1 all atom 100 all-cy.lammpstrj
#fix    1 all npt temp 300 300  0.1 aniso 0 0 10 drag 1  #三个方向独立控压
fix  1 all npt temp ${temperature} ${temperature} 0.1 x ${pressure} ${pressure} 10 y ${pressure} ${pressure} 10
fix  1 all npt temp 300 ${temperature} 0.1 x ${pressure} ${pressure} 10 y ${pressure} ${pressure} 10
fix  1 all npt temp 300 300 0.1 x ${pressure} ${pressure} 10 y ${pressure} ${pressure} 10
fix  1 all npt temp 300 300 0.1 x 0 ${pressure} 10 y ${pressure} ${pressure} 10
fix  1 all npt temp 300 300 0.1 x 0 0 10 y ${pressure} ${pressure} 10
fix  1 all npt temp 300 300 0.1 x 0 0 10 y 0 ${pressure} 10
fix  1 all npt temp 300 300 0.1 x 0 0 10 y 0 0 10
compute  2 all pe/atom
compute  pe all reduce sum c_2
variable PE equal "c_pe"
fix    pe all print 100 "${PE} " file PE.txt screen no
thermo  ${thermalstep}
thermo  100
#thermo_style  custom step pe ke etotal lx ly lz
run   ${relaxtime}
run   0
Per MPI rank memory allocation (min/avg/max) = 13.48 | 13.58 | 13.87 Mbytes
   Step          Temp          E_pair         E_mol          TotEng         Press          Volume    
        30   300           -66804.732      0             -66446.462      62.959148      13579278     
Loop time of 0.0196743 on 12 procs for 0 steps with 9240 atoms

54.4% CPU use with 12 MPI tasks x 1 OpenMP threads

MPI task timing breakdown:
Section |  min time  |  avg time  |  max time  |%varavg| %total
---------------------------------------------------------------
Pair    | 0          | 0          | 0          |   0.0 |  0.00
Neigh   | 0          | 0          | 0          |   0.0 |  0.00
Comm    | 0          | 0          | 0          |   0.0 |  0.00
Output  | 0          | 0          | 0          |   0.0 |  0.00
Modify  | 0          | 0          | 0          |   0.0 |  0.00
Other   |            | 0.01967    |            |       |100.00

Nlocal:            770 ave         776 max         763 min
Histogram: 2 0 0 2 1 2 2 0 0 3
Nghost:        3028.67 ave        3039 max        3020 min
Histogram: 3 0 0 2 1 2 1 2 0 1
Neighs:              0 ave           0 max           0 min
Histogram: 12 0 0 0 0 0 0 0 0 0

Total # of neighbors = 0
Ave neighs/atom = 0
Neighbor list builds = 0
Dangerous builds = 0
#8 -------tension-----------------------------
unfix  1
undump  1
unfix  pe
reset_timestep 0
fix avestress all ave/atom 1 ${dumpstep} ${dumpstep} c_1[1] c_1[2] c_1[3] c_1[4] c_1[5] c_1[6]
fix avestress all ave/atom 1 1000 ${dumpstep} c_1[1] c_1[2] c_1[3] c_1[4] c_1[5] c_1[6]
fix avestress all ave/atom 1 1000 1000 c_1[1] c_1[2] c_1[3] c_1[4] c_1[5] c_1[6]

#-----calculation of strain and Cumulative compression--------
variable                tmp equal "lz"
variable                L0 equal ${tmp}
variable                L0 equal 339.481961
variable                strain equal "(lz - v_L0)/v_L0"
variable                Cumulativels equal "(lz - v_L0)/10"
fix Step all print 100 "${strain} ${Cumulativels} ${zstress}" file grapoten.txt screen no

dump 2 all custom ${dumpstep} tension.xyz type x y z f_avestress[1] f_avestress[2] f_avestress[3] f_avestress[4] f_avestress[5] f_avestress[6]
dump 2 all custom 1000 tension.xyz type x y z f_avestress[1] f_avestress[2] f_avestress[3] f_avestress[4] f_avestress[5] f_avestress[6]

fix  1 all npt temp ${temperature} ${temperature} 0.1 y ${pressure} ${pressure} 10 x ${pressure} ${pressure} 10
fix  1 all npt temp 300 ${temperature} 0.1 y ${pressure} ${pressure} 10 x ${pressure} ${pressure} 10
fix  1 all npt temp 300 300 0.1 y ${pressure} ${pressure} 10 x ${pressure} ${pressure} 10
fix  1 all npt temp 300 300 0.1 y 0 ${pressure} 10 x ${pressure} ${pressure} 10
fix  1 all npt temp 300 300 0.1 y 0 0 10 x ${pressure} ${pressure} 10
fix  1 all npt temp 300 300 0.1 y 0 0 10 x 0 ${pressure} 10
fix  1 all npt temp 300 300 0.1 y 0 0 10 x 0 0 10

thermo_style custom step pe ke etotal lx ly lz
fix   2 all deform 1 z erate ${deformrate} remap x units box
fix   2 all deform 1 z erate 0.005 remap x units box
fix   3 all ave/time 2 500 1000 v_xstress v_ystress v_zstress file pressure.out
run   ${totaltime}
run   200000
WARNING: Dump 2 includes no atom IDs and is not sorted by ID. This may complicate post-processing tasks or visualization (src/dump.cpp:221)
Per MPI rank memory allocation (min/avg/max) = 14.98 | 15.08 | 15.37 Mbytes
   Step         PotEng         KinEng         TotEng           Lx             Ly             Lz      
         0  -66804.732      358.27034     -66446.462      200            200            339.48196    
       100  -66800.931      376.4366      -66424.494      200.027        199.93705      339.6517     
       200  -66762.503      319.05023     -66443.453      200.03085      199.809        339.82144    
       300  -66683.388      262.42345     -66420.965      200.14099      199.74325      339.99118    
       400  -66710.07       319.53558     -66390.534      200.16105      199.65953      340.16092    
       500  -66742.988      360.93151     -66382.057      200.22549      199.68355      340.33067    
       600  -66710.85       315.74819     -66395.102      200.19897      199.7224       340.50041    
       700  -66753.344      379.86147     -66373.483      200.16939      199.79143      340.67015    
       800  -66762.197      373.80495     -66388.392      200.00219      199.81313      340.83989    
       900  -66747.375      342.36127     -66405.014      199.95386      199.88229      341.00963    
      1000  -66730.07       340.03872     -66390.032      199.91739      199.93245      341.17937    
      1100  -66709.881      344.40948     -66365.472      199.86885      199.94952      341.34911    
      1200  -66709.085      364.76001     -66344.325      199.89356      199.98669      341.51885    
      1300  -66734.405      388.05154     -66346.354      199.91297      199.94714      341.68859    
      1400  -66750.101      376.39314     -66373.707      199.92311      199.86963      341.85833    
      1500  -66749.498      355.16589     -66394.332      199.95853      199.79647      342.02808    
      1600  -66739.227      340.16109     -66399.066      200.02141      199.76579      342.19782    
      1700  -66721.424      343.19378     -66378.231      200.0021       199.76826      342.36756    
      1800  -66732.403      376.67293     -66355.731      199.9504       199.81013      342.5373     
      1900  -66737.999      372.57991     -66365.419      199.90847      199.8705       342.70704    
      2000  -66727.718      347.11406     -66380.604      199.82457      199.8901       342.87678    
      2100  -66730.522      349.53278     -66380.989      199.81312      199.92386      343.04652    
      2200  -66716.968      350.04898     -66366.919      199.79444      199.91677      343.21626    
      2300  -66706.263      360.79578     -66345.467      199.79415      199.89739      343.386      
      2400  -66707.375      372.88113     -66334.494      199.82269      199.8835       343.55574    
      2500  -66716.026      367.7489      -66348.278      199.83415      199.84402      343.72549    
      2600  -66716.964      353.45514     -66363.509      199.85757      199.81114      343.89523    
      2700  -66721.161      350.88869     -66370.273      199.86344      199.78129      344.06497    
      2800  -66710.387      347.97595     -66362.411      199.86879      199.77695      344.23471    
      2900  -66704.57       361.12835     -66343.442      199.83513      199.78717      344.40445    
      3000  -66701.675      366.62266     -66335.053      199.79905      199.82411      344.57419    
      3100  -66706.01       363.70433     -66342.305      199.75599      199.8536       344.74393    
      3200  -66700.13       352.45663     -66347.673      199.7273       199.86968      344.91367    
      3300  -66692.447      350.66275     -66341.784      199.72584      199.87454      345.08341    
      3400  -66682.841      355.23631     -66327.604      199.71965      199.8478       345.25315    
      3500  -66675.648      358.69327     -66316.955      199.74183      199.82924      345.4229     
      3600  -66684.854      367.59096     -66317.263      199.74341      199.79778      345.59264    
      3700  -66686.795      358.64801     -66328.147      199.76074      199.77844      345.76238    
      3800  -66684.89       353.17542     -66331.714      199.76914      199.76461      345.93212    
      3900  -66679.931      352.18955     -66327.741      199.76202      199.75969      346.10186    
      4000  -66678.827      362.92279     -66315.904      199.74141      199.76687      346.2716     
      4100  -66670.019      361.01694     -66309.002      199.70626      199.77913      346.44134    
      4200  -66665.657      356.23415     -66309.422      199.68275      199.80072      346.61108    
      4300  -66664.116      355.38673     -66308.73       199.65859      199.81194      346.78082    
      4400  -66658.005      353.38359     -66304.621      199.65832      199.81877      346.95056    
      4500  -66654.593      358.38622     -66296.207      199.65078      199.8042       347.12031    
      4600  -66652.019      363.4725      -66288.546      199.65691      199.78379      347.29005    
      4700  -66647.294      359.18458     -66288.109      199.66384      199.7615       347.45979    
      4800  -66647.941      359.27302     -66288.668      199.66333      199.74092      347.62953    
      4900  -66641.349      354.61361     -66286.735      199.67553      199.73658      347.79927    
      5000  -66637.845      355.20862     -66282.637      199.66551      199.73116      347.96901    
      5100  -66633.879      360.12069     -66273.759      199.65624      199.73818      348.13875    
      5200  -66628.8        361.30948     -66267.49       199.62982      199.73991      348.30849    
      5300  -66625.349      353.94335     -66271.406      199.60604      199.74641      348.47823    
      5400  -66626.801      357.61317     -66269.188      199.59421      199.75414      348.64797    
      5500  -66618.138      357.55999     -66260.578      199.58244      199.75224      348.81771    
      5600  -66607.185      356.09236     -66251.092      199.58555      199.75138      348.98746    
      5700  -66603.625      358.31554     -66245.31       199.57794      199.73565      349.1572     
      5800  -66602.233      359.37506     -66242.858      199.57686      199.72394      349.32694    
      5900  -66600.593      356.58931     -66244.004      199.57146      199.70847      349.49668    
      6000  -66597.878      351.71003     -66246.168      199.56999      199.69997      349.66642    
      6100  -66591.496      353.33965     -66238.156      199.57133      199.69716      349.83616    
      6200  -66591.1        362.30426     -66228.795      199.56328      199.69153      350.0059     
      6300  -66579.508      355.52135     -66223.986      199.5564       199.69029      350.17564    
      6400  -66579.95       361.58827     -66218.362      199.53763      199.67985      350.34538    
      6500  -66567.785      358.36732     -66209.417      199.53142      199.67877      350.51512    
      6600  -66560.908      361.51811     -66199.39       199.51844      199.67497      350.68487    
      6700  -66553.693      358.81742     -66194.876      199.5135       199.67521      350.85461    
      6800  -66554.508      359.07243     -66195.435      199.50364      199.67354      351.02435    
      6900  -66552.156      357.13509     -66195.021      199.48837      199.66833      351.19409    
      7000  -66546.74       357.743       -66188.997      199.4814       199.66585      351.36383    
      7100  -66542.999      360.85736     -66182.142      199.46916      199.65562      351.53357    
      7200  -66535.069      359.59599     -66175.473      199.4703       199.64861      351.70331    
      7300  -66527.757      358.83373     -66168.923      199.46595      199.6344       351.87305    
      7400  -66525.747      359.13222     -66166.615      199.46531      199.62571      352.04279    
      7500  -66518.734      354.03952     -66164.694      199.45875      199.61708      352.21253    
      7600  -66513.033      356.27589     -66156.757      199.44392      199.61082      352.38228    
      7700  -66501.266      358.13509     -66143.131      199.43161      199.61285      352.55202    
      7800  -66492.982      358.6278      -66134.354      199.40994      199.61277      352.72176    
      7900  -66487.337      359.04434     -66128.293      199.39544      199.61953      352.8915     
      8000  -66484.661      358.3586      -66126.302      199.37844      199.617        353.06124    
      8100  -66479.446      352.65488     -66126.791      199.36865      199.61239      353.23098    
      8200  -66475.078      355.15113     -66119.927      199.36341      199.60069      353.40072    
      8300  -66465.149      355.26264     -66109.887      199.36564      199.58289      353.57046    
      8400  -66461.895      359.20592     -66102.689      199.3719       199.56264      353.7402     
      8500  -66452.151      354.04301     -66098.108      199.37248      199.53902      353.90994    
      8600  -66452.105      361.39861     -66090.707      199.37065      199.52464      354.07969    
      8700  -66439.916      360.33302     -66079.583      199.35873      199.51745      354.24943    
      8800  -66429.36       360.36707     -66068.993      199.34359      199.51867      354.41917    
      8900  -66426.195      361.37607     -66064.819      199.3236       199.52314      354.58891    
      9000  -66424.552      357.41554     -66067.136      199.3024       199.52492      354.75865    
      9100  -66416.756      355.84897     -66060.907      199.2881       199.52296      354.92839    
      9200  -66407.63       358.45797     -66049.172      199.27257      199.51129      355.09813    
      9300  -66394.956      355.86696     -66039.089      199.27509      199.50029      355.26787    
      9400  -66394.316      362.08077     -66032.236      199.2718       199.47778      355.43761    
      9500  -66390.496      356.13516     -66034.361      199.27641      199.45812      355.60735    
      9600  -66386.324      356.65867     -66029.665      199.27545      199.43571      355.7771     
      9700  -66372.7        353.77593     -66018.924      199.26973      199.42031      355.94684    
      9800  -66365.435      359.41708     -66006.018      199.25973      199.41397      356.11658    
      9900  -66355.306      358.4041      -65996.902      199.23659      199.41298      356.28632    
     10000  -66354.43       363.57456     -65990.856      199.21361      199.41999      356.45606    
     10100  -66340.93       352.57081     -65988.359      199.18883      199.42418      356.6258     
     10200  -66336.288      347.01602     -65989.272      199.17003      199.42477      356.79554    
     10300  -66330.508      348.29325     -65982.214      199.15592      199.41374      356.96528    
     10400  -66320.974      356.10963     -65964.864      199.15076      199.39784      357.13502    
     10500  -66309.488      356.62303     -65952.865      199.14866      199.37815      357.30476    
     10600  -66303.565      360.54827     -65943.016      199.14645      199.35783      357.4745     
     10700  -66298.215      359.87575     -65938.339      199.14277      199.34055      357.64425    
     10800  -66293.256      358.5505      -65934.706      199.13318      199.32479      357.81399    
     10900  -66282.023      353.29715     -65928.726      199.12381      199.3181       357.98373    
     11000  -66275.801      361.31789     -65914.483      199.10024      199.31165      358.15347    
     11100  -66260.727      359.71566     -65901.011      199.07954      199.31401      358.32321    
     11200  -66250.052      356.28976     -65893.762      199.05419      199.31392      358.49295    
     11300  -66246.128      358.55515     -65887.573      199.03288      199.31164      358.66269    
     11400  -66241.222      357.82155     -65883.4        199.02059      199.30536      358.83243    
     11500  -66236.652      354.2811      -65882.371      199.00691      199.28888      359.00217    
     11600  -66226.068      350.82932     -65875.239      199.00325      199.27265      359.17191    
     11700  -66216.533      357.42734     -65859.106      198.99513      199.25192      359.34166    
     11800  -66208.169      360.31748     -65847.852      198.98737      199.23209      359.5114     
     11900  -66197.523      359.90028     -65837.623      198.98164      199.21735      359.68114    
     12000  -66190.29       360.52067     -65829.769      198.96715      199.20362      359.85088    
     12100  -66181.855      355.27198     -65826.583      198.95092      199.19623      360.02062    
     12200  -66172.322      350.67745     -65821.644      198.9275       199.19039      360.19036    
     12300  -66162.86       354.5297      -65808.331      198.90439      199.18753      360.3601     
     12400  -66151.692      360.01636     -65791.676      198.88315      199.18274      360.52984    
     12500  -66141.77       358.45619     -65783.314      198.8663       199.17577      360.69958    
     12600  -66135.918      357.67618     -65778.242      198.84912      199.16308      360.86932    
     12700  -66122.193      351.98843     -65770.204      198.83616      199.14829      361.03907    
     12800  -66115.314      359.78333     -65755.531      198.82483      199.1303       361.20881    
     12900  -66103.519      362.64821     -65740.871      198.81346      199.11144      361.37855    
     13000  -66094.595      360.24732     -65734.347      198.80248      199.09548      361.54829    
     13100  -66089.36       360.20724     -65729.153      198.78968      199.08078      361.71803    
     13200  -66076.799      354.98095     -65721.818      198.77352      199.06859      361.88777    
     13300  -66067.127      353.4796      -65713.648      198.75273      199.05647      362.05751    
     13400  -66060.774      356.54722     -65704.227      198.73166      199.0474       362.22725    
     13500  -66049.78       361.79502     -65687.985      198.70838      199.03788      362.39699    
     13600  -66041.42       365.46986     -65675.95       198.69043      199.02798      362.56673    
     13700  -66027.68       355.14891     -65672.531      198.67242      199.01529      362.73648    
     13800  -66018.39       352.7904      -65665.599      198.6552       199.00016      362.90622    
     13900  -66011.806      358.67074     -65653.135      198.64056      198.98508      363.07596    
     14000  -65998.652      359.35408     -65639.298      198.62259      198.96656      363.2457     
     14100  -65989.969      361.92622     -65628.043      198.60942      198.94952      363.41544    
     14200  -65980.88       361.02618     -65619.854      198.59138      198.93014      363.58518    
     14300  -65974.021      361.12434     -65612.897      198.5772       198.91566      363.75492    
     14400  -65961.399      358.17194     -65603.227      198.55657      198.90036      363.92466    
     14500  -65949.43       356.71398     -65592.716      198.53721      198.88727      364.0944     
     14600  -65942.217      360.28906     -65581.927      198.51648      198.87408      364.26414    
     14700  -65930.023      358.65908     -65571.364      198.49247      198.859        364.43389    
     14800  -65923.091      360.59756     -65562.493      198.47395      198.84554      364.60363    
     14900  -65910.58       356.32012     -65554.26       198.45285      198.83001      364.77337    
     15000  -65898.902      354.85447     -65544.048      198.43342      198.81445      364.94311    
     15100  -65883.774      355.70203     -65528.072      198.41417      198.79803      365.11285    
     15200  -65873.076      358.74283     -65514.333      198.39359      198.77861      365.28259    
     15300  -65867.274      359.39041     -65507.883      198.37675      198.75943      365.45233    
     15400  -65859.157      356.26075     -65502.897      198.35752      198.73863      365.62207    
     15500  -65846.448      354.76998     -65491.678      198.33987      198.72144      365.79181    
     15600  -65837.811      359.6998      -65478.111      198.319        198.70575      365.96155    
     15700  -65822.51       359.47609     -65463.034      198.29241      198.69003      366.13129    
     15800  -65810.815      361.30387     -65449.511      198.26966      198.67869      366.30104    
     15900  -65801.606      365.03294     -65436.573      198.24095      198.66249      366.47078    
     16000  -65789.456      358.03033     -65431.426      198.21727      198.64786      366.64052    
     16100  -65786.112      361.10199     -65425.01       198.19456      198.63157      366.81026    
     16200  -65769.855      354.96644     -65414.888      198.17149      198.6134       366.98       
     16300  -65757.783      359.23329     -65398.55       198.1514       198.59411      367.14974    
     16400  -65743.652      361.21628     -65382.436      198.13132      198.57272      367.31948    
     16500  -65733.517      360.67529     -65372.842      198.11236      198.54948      367.48922    
     16600  -65726.929      361.79667     -65365.132      198.09272      198.52464      367.65896    
     16700  -65715.088      358.56688     -65356.521      198.07316      198.50217      367.8287     
     16800  -65707.434      361.21501     -65346.219      198.04996      198.48105      367.99845    
     16900  -65686.912      353.79272     -65333.119      198.02579      198.46475      368.16819    
     17000  -65672.718      360.07668     -65312.642      197.99732      198.44808      368.33793    
     17100  -65661.726      361.01036     -65300.716      197.96937      198.43328      368.50767    
     17200  -65652.665      358.28183     -65294.383      197.94012      198.41573      368.67741    
     17300  -65646.671      359.54301     -65287.128      197.91297      198.39751      368.84715    
     17400  -65635.899      359.85615     -65276.043      197.88597      198.37917      369.01689    
     17500  -65617.343      355.45233     -65261.891      197.85877      198.35887      369.18663    
     17600  -65609.064      362.0754      -65246.988      197.83465      198.33938      369.35637    
     17700  -65594.524      360.45569     -65234.068      197.80955      198.31444      369.52611    
     17800  -65579.225      358.4342      -65220.791      197.78933      198.28999      369.69586    
     17900  -65567.711      356.20633     -65211.505      197.76808      198.26475      369.8656     
     18000  -65561.741      358.27711     -65203.464      197.74115      198.24075      370.03534    
     18100  -65546.643      355.30979     -65191.333      197.71412      198.22067      370.20508    
     18200  -65533.468      359.90915     -65173.559      197.68234      198.20083      370.37482    
     18300  -65519.131      361.37392     -65157.757      197.65286      198.18253      370.54456    
     18400  -65509.248      360.86803     -65148.38       197.6248       198.16336      370.7143     
     18500  -65495.437      356.00379     -65139.433      197.59685      198.14171      370.88404    
     18600  -65484.448      356.62464     -65127.823      197.57126      198.11793      371.05378    
     18700  -65472.55       356.37544     -65116.175      197.54455      198.09203      371.22352    
     18800  -65461.344      358.1031      -65103.241      197.51826      198.06615      371.39327    
     18900  -65447.982      360.66339     -65087.319      197.49226      198.04035      371.56301    
     19000  -65432.387      361.93382     -65070.454      197.46586      198.01577      371.73275    
     19100  -65418.646      360.99549     -65057.65       197.43874      197.99276      371.90249    
     19200  -65411.629      358.36784     -65053.262      197.40865      197.97095      372.07223    
     19300  -65397.101      354.33887     -65042.762      197.37667      197.9497       372.24197    
     19400  -65388.071      361.23566     -65026.836      197.34476      197.9289       372.41171    
     19500  -65368.464      358.16069     -65010.303      197.3117       197.90628      372.58145    
     19600  -65351.396      357.14384     -64994.252      197.28136      197.88321      372.75119    
     19700  -65341.421      364.34737     -64977.073      197.2533       197.85844      372.92093    
     19800  -65324.61       360.41215     -64964.198      197.22553      197.83237      373.09068    
     19900  -65322.052      362.88811     -64959.164      197.19918      197.80788      373.26042    
     20000  -65305.224      355.90754     -64949.316      197.16877      197.78128      373.43016    
     20100  -65294.573      357.61737     -64936.955      197.14083      197.75571      373.5999     
     20200  -65277.636      357.81584     -64919.82       197.11205      197.72846      373.76964    
     20300  -65262.978      361.92599     -64901.052      197.08344      197.70219      373.93938    
     20400  -65251.587      362.33023     -64889.257      197.05319      197.6772       374.10912    
     20500  -65238.971      353.99347     -64884.978      197.01917      197.65158      374.27886    
     20600  -65230.114      357.68047     -64872.433      196.98742      197.62923      374.4486     
     20700  -65213.349      356.40044     -64856.948      196.95419      197.60619      374.61834    
     20800  -65200.37       361.28124     -64839.089      196.92159      197.58321      374.78808    
     20900  -65188.693      366.11772     -64822.575      196.89166      197.56005      374.95783    
     21000  -65173.648      360.44301     -64813.205      196.85816      197.53318      375.12757    
     21100  -65157.721      350.65126     -64807.07       196.82769      197.50713      375.29731    
     21200  -65147.674      356.4032      -64791.271      196.7956       197.47914      375.46705    
     21300  -65130.093      357.71118     -64772.382      196.76521      197.45197      375.63679    
     21400  -65115.374      359.30907     -64756.065      196.73645      197.42564      375.80653    
     21500  -65104.466      361.62525     -64742.841      196.70611      197.39906      375.97627    
     21600  -65089.773      357.76435     -64732.009      196.67511      197.37402      376.14601    
     21700  -65073.976      354.51154     -64719.464      196.64095      197.3488       376.31575    
     21800  -65065.302      362.54462     -64702.757      196.60729      197.32435      376.48549    
     21900  -65042.746      363.01618     -64679.73       196.5741       197.29905      376.65524    
     22000  -65035.295      365.97441     -64669.32       196.5414       197.27302      376.82498    
     22100  -65017.469      355.45335     -64662.016      196.5109       197.2471       376.99472    
     22200  -65011.263      361.54371     -64649.719      196.47968      197.21998      377.16446    
     22300  -64990.512      355.34915     -64635.162      196.4506       197.19421      377.3342     
     22400  -64978.186      362.97261     -64615.214      196.41831      197.1655       377.50394    
     22500  -64961.61       364.06426     -64597.545      196.39049      197.1385       377.67368    
     22600  -64948.57       361.05082     -64587.519      196.35931      197.10903      377.84342    
     22700  -64936.783      357.28941     -64579.493      196.32902      197.08167      378.01316    
     22800  -64920.827      356.40373     -64564.423      196.29828      197.05752      378.1829     
     22900  -64904.633      358.63458     -64545.998      196.26053      197.03203      378.35265    
     23000  -64887.983      359.84343     -64528.14       196.22772      197.0114       378.52239    
     23100  -64873.191      360.52548     -64512.665      196.19162      196.98877      378.69213    
     23200  -64862.692      358.30576     -64504.387      196.15833      196.96604      378.86187    
     23300  -64845.203      350.00333     -64495.2        196.12751      196.94188      379.03161    
     23400  -64833.893      356.16088     -64477.732      196.09576      196.91402      379.20135    
     23500  -64817.348      359.93919     -64457.409      196.06828      196.88785      379.37109    
     23600  -64802.68       360.63524     -64442.045      196.03735      196.85705      379.54083    
     23700  -64789.15       358.85866     -64430.292      196.01177      196.82842      379.71057    
     23800  -64772.215      353.92906     -64418.286      195.985        196.79917      379.88031    
     23900  -64759.425      358.94524     -64400.48       195.95532      196.77094      380.05006    
     24000  -64741.504      363.26172     -64378.242      195.92699      196.74724      380.2198     
     24100  -64723.926      359.4444      -64364.481      195.89216      196.723        380.38954    
     24200  -64714.648      358.89935     -64355.748      195.85968      196.70188      380.55928    
     24300  -64701.471      358.0141      -64343.457      195.82635      196.67929      380.72902    
     24400  -64688.945      361.17281     -64327.772      195.79298      196.65573      380.89876    
     24500  -64666.663      356.43877     -64310.225      195.76316      196.6331       381.0685     
     24600  -64647.073      355.47756     -64291.595      195.73047      196.60848      381.23824    
     24700  -64630.41       361.05503     -64269.355      195.70182      196.58499      381.40798    
     24800  -64618.245      369.83473     -64248.41       195.67366      196.55971      381.57772    
     24900  -64604.278      362.77591     -64241.502      195.64587      196.53284      381.74747    
     25000  -64585.067      352.88267     -64232.185      195.61996      196.50643      381.91721    
     25100  -64579.175      358.74418     -64220.43       195.59197      196.47909      382.08695    
     25200  -64564.82       358.54384     -64206.276      195.56569      196.45386      382.25669    
     25300  -64545.118      357.53821     -64187.58       195.53705      196.42901      382.42643    
     25400  -64523.876      358.34242     -64165.533      195.50762      196.40678      382.59617    
     25500  -64514.42       365.16231     -64149.258      195.47619      196.38596      382.76591    
     25600  -64494.369      356.65781     -64137.711      195.44362      196.36599      382.93565    
     25700  -64481.341      355.87052     -64125.471      195.41291      196.34735      383.10539    
     25800  -64470.417      360.29455     -64110.123      195.3823       196.32701      383.27513    
     25900  -64448.934      355.40857     -64093.526      195.35341      196.3058       383.44487    
     26000  -64434.364      359.90484     -64074.459      195.32659      196.28391      383.61462    
     26100  -64417.455      363.2119      -64054.243      195.29916      196.2598       383.78436    
     26200  -64401.116      363.78066     -64037.335      195.27327      196.23641      383.9541     
     26300  -64387.174      357.60925     -64029.565      195.2469       196.2127       384.12384    
     26400  -64373.705      355.12043     -64018.585      195.22041      196.18863      384.29358    
     26500  -64359.863      356.95565     -64002.907      195.19732      196.16566      384.46332    
     26600  -64343.188      360.52691     -63982.661      195.17313      196.14133      384.63306    
     26700  -64319.777      358.94232     -63960.834      195.15139      196.1179       384.8028     
     26800  -64308.364      362.89875     -63945.465      195.12668      196.09503      384.97254    
     26900  -64292.066      358.76288     -63933.303      195.10031      196.07402      385.14228    
     27000  -64282.368      362.08111     -63920.287      195.0721       196.0553       385.31203    
     27100  -64259.218      355.14603     -63904.072      195.0437       196.03628      385.48177    
     27200  -64247.345      361.07125     -63886.273      195.01649      196.01778      385.65151    
     27300  -64227.216      358.00049     -63869.215      194.99032      195.99905      385.82125    
     27400  -64212.478      359.83287     -63852.645      194.9645       195.97946      385.99099    
     27500  -64196.136      358.28485     -63837.851      194.94064      195.96017      386.16073    
     27600  -64181.93       360.16585     -63821.764      194.91693      195.94055      386.33047    
     27700  -64156.202      357.23937     -63798.962      194.89366      195.92011      386.50021    
     27800  -64142.991      364.15471     -63778.836      194.87127      195.89781      386.66995    
     27900  -64128.581      361.84711     -63766.734      194.85034      195.87571      386.83969    
     28000  -64114.404      358.76273     -63755.641      194.82874      195.85314      387.00944    
     28100  -64094.481      354.23259     -63740.248      194.8062       195.83168      387.17918    
     28200  -64081.345      358.74453     -63722.6        194.78419      195.81249      387.34892    
     28300  -64062.992      359.41701     -63703.575      194.75867      195.79367      387.51866    
     28400  -64046.797      367.71736     -63679.08       194.73422      195.77718      387.6884     
     28500  -64024.219      361.62444     -63662.594      194.71138      195.76112      387.85814    
     28600  -64015.392      364.64206     -63650.75       194.68683      195.74348      388.02788    
     28700  -63997.885      359.77369     -63638.111      194.6662       195.72773      388.19762    
     28800  -63979.498      354.90803     -63624.59       194.64233      195.70782      388.36736    
     28900  -63963.93       354.50506     -63609.425      194.62225      195.68764      388.5371     
     29000  -63949.393      361.25168     -63588.141      194.60215      195.66541      388.70685    
     29100  -63924.055      358.37979     -63565.675      194.58214      195.64319      388.87659    
     29200  -63909.207      358.24399     -63550.963      194.56536      195.62426      389.04633    
     29300  -63894.395      354.89495     -63539.5        194.54486      195.60404      389.21607    
     29400  -63881.778      357.66895     -63524.109      194.52547      195.58697      389.38581    
     29500  -63865.886      360.17099     -63505.715      194.5051       195.57078      389.55555    
     29600  -63844.708      357.74194     -63486.967      194.48309      195.55395      389.72529    
     29700  -63823.134      353.81557     -63469.318      194.4627       195.53847      389.89503    
     29800  -63811.318      357.89892     -63453.419      194.44043      195.52176      390.06477    
     29900  -63795.394      353.94008     -63441.454      194.4197       195.50575      390.23451    
     30000  -63780.288      354.64202     -63425.646      194.39887      195.4882       390.40426    
     30100  -63760.937      357.49716     -63403.439      194.37942      195.47061      390.574      
     30200  -63737.017      355.77089     -63381.246      194.36044      195.45247      390.74374    
     30300  -63722.695      358.41268     -63364.282      194.34217      195.43426      390.91348    
     30400  -63708.993      358.85454     -63350.139      194.32411      195.41592      391.08322    
     30500  -63694.032      354.27163     -63339.761      194.30852      195.39893      391.25296    
     30600  -63676.648      350.26133     -63326.386      194.29121      195.38081      391.4227     
     30700  -63655.774      355.23188     -63300.542      194.27489      195.36354      391.59244    
     30800  -63640.907      361.87227     -63279.034      194.25641      195.34498      391.76218    
     30900  -63621.813      360.38573     -63261.427      194.2373       195.32679      391.93192    
     31000  -63606.115      359.8925      -63246.223      194.21897      195.3116       392.10166    
     31100  -63586.664      354.96783     -63231.696      194.19599      195.2968       392.27141    
     31200  -63571.133      356.93962     -63214.193      194.17561      195.28604      392.44115    
     31300  -63551.973      361.68499     -63190.288      194.15325      195.27396      392.61089    
     31400  -63531.745      361.06269     -63170.682      194.13221      195.26104      392.78063    
     31500  -63514.986      358.497       -63156.489      194.11361      195.24719      392.95037    
     31600  -63498.721      353.72218     -63144.998      194.0934       195.2311       393.12011    
     31700  -63489.527      354.71154     -63134.816      194.07683      195.21613      393.28985    
     31800  -63469.284      354.94619     -63114.338      194.05883      195.19892      393.45959    
     31900  -63444.605      354.56571     -63090.039      194.04294      195.18223      393.62933    
     32000  -63431.192      361.92473     -63069.267      194.0274       195.16565      393.79907    
     32100  -63407.864      359.47909     -63048.385      194.01005      195.14792      393.96882    
     32200  -63391.476      359.35362     -63032.123      193.99558      195.13259      394.13856    
     32300  -63376.973      357.38354     -63019.589      193.97688      195.11519      394.3083     
     32400  -63361.118      357.10304     -63004.015      193.95914      195.10018      394.47804    
     32500  -63335.939      355.62021     -62980.319      193.94173      195.0877       394.64778    
     32600  -63320.146      362.75525     -62957.391      193.9206       195.07367      394.81752    
     32700  -63304.761      362.27054     -62942.491      193.90312      195.06187      394.98726    
     32800  -63285.891      356.96738     -62928.924      193.88207      195.04668      395.157      
     32900  -63268.833      356.52799     -62912.305      193.86506      195.0333       395.32674    
     33000  -63243.187      354.53825     -62888.648      193.84866      195.01932      395.49648    
     33100  -63225.352      359.95515     -62865.397      193.82923      195.00387      395.66623    
     33200  -63213.036      362.25605     -62850.78       193.8149       194.99067      395.83597    
     33300  -63195.178      356.77976     -62838.398      193.79742      194.97517      396.00571    
     33400  -63176.878      355.1099      -62821.768      193.78145      194.95923      396.17545    
     33500  -63159.359      357.70023     -62801.659      193.7683       194.94435      396.34519    
     33600  -63144.992      364.47631     -62780.516      193.75009      194.92553      396.51493    
     33700  -63122.501      360.30118     -62762.2        193.73742      194.91019      396.68467    
     33800  -63105.208      360.26029     -62744.948      193.72041      194.89379      396.85441    
     33900  -63086.592      358.38162     -62728.211      193.70295      194.87804      397.02415    
     34000  -63062.924      351.94553     -62710.978      193.68818      194.86618      397.19389    
     34100  -63048.892      358.05705     -62690.835      193.66622      194.8512       397.36364    
     34200  -63028.673      360.52892     -62668.144      193.64929      194.84         397.53338    
     34300  -63012.529      365.11313     -62647.416      193.63093      194.82669      397.70312    
     34400  -62994.052      358.2358      -62635.816      193.61225      194.81204      397.87286    
     34500  -62978.955      356.42553     -62622.529      193.59732      194.80027      398.0426     
     34600  -62957.529      355.03642     -62602.492      193.57821      194.78537      398.21234    
     34700  -62935.583      356.20279     -62579.38       193.56251      194.77254      398.38208    
     34800  -62917.52       358.81765     -62558.703      193.54589      194.75873      398.55182    
     34900  -62902.584      360.73258     -62541.851      193.52697      194.7427       398.72156    
     35000  -62883.675      359.01492     -62524.66       193.51305      194.72854      398.8913     
     35100  -62863.622      356.08141     -62507.541      193.49744      194.71173      399.06105    
     35200  -62844.019      353.63297     -62490.386      193.48113      194.69418      399.23079    
     35300  -62831.316      359.33315     -62471.983      193.46834      194.67977      399.40053    
     35400  -62811.152      362.23088     -62448.921      193.44977      194.66273      399.57027    
     35500  -62782.362      355.53069     -62426.832      193.4344       194.64972      399.74001    
     35600  -62770.743      359.53892     -62411.204      193.41657      194.63662      399.90975    
     35700  -62753.132      353.52187     -62399.61       193.39534      194.62266      400.07949    
     35800  -62738.739      356.71855     -62382.02       193.37957      194.61365      400.24923    
     35900  -62715.07       353.79921     -62361.27       193.35741      194.60085      400.41897    
     36000  -62698.304      357.92361     -62340.381      193.33988      194.58923      400.58871    
     36100  -62682.384      362.0821      -62320.302      193.32383      194.57614      400.75845    
     36200  -62661.166      359.98847     -62301.177      193.30489      194.55896      400.9282     
     36300  -62635.976      354.62476     -62281.351      193.2923       194.54406      401.09794    
     36400  -62621.161      360.15324     -62261.008      193.27554      194.52544      401.26768    
     36500  -62600.858      357.03614     -62243.822      193.26109      194.50795      401.43742    
     36600  -62589.7        360.42975     -62229.27       193.24727      194.49178      401.60716    
     36700  -62563.824      350.15869     -62213.665      193.22941      194.47381      401.7769     
     36800  -62546.529      354.78328     -62191.746      193.21685      194.46075      401.94664    
     36900  -62529.506      363.99619     -62165.51       193.19833      194.44599      402.11638    
     37000  -62506.377      358.73689     -62147.64       193.17955      194.43304      402.28612    
     37100  -62489.125      355.38974     -62133.735      193.16197      194.42158      402.45586    
     37200  -62471.958      353.93613     -62118.022      193.14099      194.40764      402.62561    
     37300  -62452.104      353.6856      -62098.419      193.12452      194.39565      402.79535    
     37400  -62431.142      360.90974     -62070.232      193.10534      194.38106      402.96509    
     37500  -62412.297      361.03021     -62051.267      193.08815      194.36652      403.13483    
     37600  -62396.887      359.07299     -62037.814      193.07146      194.35197      403.30457    
     37700  -62378.39       356.02924     -62022.361      193.05159      194.33548      403.47431    
     37800  -62357.083      354.35081     -62002.732      193.03479      194.32113      403.64405    
     37900  -62340.93       365.52962     -61975.401      193.01746      194.3057       403.81379    
     38000  -62316.673      362.14299     -61954.53       192.99989      194.29038      403.98353    
     38100  -62297.334      357.48927     -61939.845      192.9842       194.27689      404.15327    
     38200  -62281.283      356.34053     -61924.943      192.96511      194.26217      404.32302    
     38300  -62264.378      357.07818     -61907.299      192.948        194.24817      404.49276    
     38400  -62244.877      360.66755     -61884.21       192.92982      194.23371      404.6625     
     38500  -62221.462      362.69797     -61858.764      192.90981      194.2175       404.83224    
     38600  -62203.181      360.69202     -61842.489      192.89294      194.20317      405.00198    
     38700  -62186.195      357.80721     -61828.388      192.87429      194.18785      405.17172    
     38800  -62166.405      356.20572     -61810.199      192.85512      194.17306      405.34146    
     38900  -62152.552      362.02098     -61790.531      192.83775      194.15933      405.5112     
     39000  -62126.796      356.92814     -61769.868      192.81722      194.144        405.68094    
     39100  -62104.61       359.85229     -61744.758      192.79852      194.13042      405.85068    
     39200  -62083.717      363.6518      -61720.065      192.77923      194.11537      406.02043    
     39300  -62069.932      365.27153     -61704.661      192.75999      194.09956      406.19017    
     39400  -62048.753      358.46284     -61690.29       192.74354      194.08492      406.35991    
     39500  -62033.148      358.91816     -61674.23       192.72413      194.06915      406.52965    
     39600  -62013.718      356.05462     -61657.664      192.70631      194.05464      406.69939    
     39700  -61993.028      355.24036     -61637.788      192.68895      194.03961      406.86913    
     39800  -61968.74       358.45729     -61610.283      192.66964      194.02296      407.03887    
     39900  -61954.218      364.87369     -61589.344      192.65136      194.007        407.20861    
     40000  -61933.311      358.58825     -61574.723      192.63185      193.99038      407.37835    
     40100  -61916.231      356.80277     -61559.428      192.61365      193.97368      407.54809    
     40200  -61893.452      353.49329     -61539.959      192.59721      193.95871      407.71784    
     40300  -61876.888      358.28595     -61518.602      192.57658      193.94267      407.88758    
     40400  -61858.65       361.05519     -61497.595      192.55727      193.92874      408.05732    
     40500  -61835.12       357.98496     -61477.135      192.53744      193.91495      408.22706    
     40600  -61819.785      361.43458     -61458.351      192.51455      193.89976      408.3968     
     40700  -61796.255      355.76224     -61440.493      192.4946       193.8859       408.56654    
     40800  -61779.531      357.33369     -61422.197      192.47436      193.87015      408.73628    
     40900  -61762.536      361.4054      -61401.131      192.4564       193.85338      408.90602    
     41000  -61737.427      362.44871     -61374.979      192.43891      193.83697      409.07576    
     41100  -61715.693      360.28963     -61355.404      192.4185       193.81771      409.2455     
     41200  -61700.972      358.36817     -61342.604      192.4015       193.80085      409.41524    
     41300  -61679.775      354.82625     -61324.948      192.38227      193.78321      409.58499    
     41400  -61658.77       354.77013     -61304          192.36028      193.76582      409.75473    
     41500  -61637.921      357.0901      -61280.831      192.34097      193.75136      409.92447    
     41600  -61620.297      362.60682     -61257.69       192.31864      193.7347       410.09421    
     41700  -61597.767      364.17302     -61233.594      192.29816      193.72021      410.26395    
     41800  -61576.027      360.33101     -61215.696      192.27639      193.7055       410.43369    
     41900  -61564.479      360.57241     -61203.907      192.2528       193.69005      410.60343    
     42000  -61544.327      357.08954     -61187.238      192.23292      193.67702      410.77317    
     42100  -61529.432      361.00491     -61168.427      192.20956      193.66173      410.94291    
     42200  -61501.896      355.49076     -61146.405      192.18675      193.64661      411.11265    
     42300  -61483.272      363.39863     -61119.873      192.16659      193.6321       411.2824     
     42400  -61460.681      360.54049     -61100.14       192.14393      193.61441      411.45214    
     42500  -61444.123      358.24522     -61085.878      192.12401      193.59705      411.62188    
     42600  -61428.242      358.78301     -61069.459      192.10454      193.57913      411.79162    
     42700  -61406.598      357.23312     -61049.365      192.08477      193.55936      411.96136    
     42800  -61386.138      358.75269     -61027.385      192.06723      193.54126      412.1311     
     42900  -61360.865      356.49321     -61004.372      192.0463       193.52205      412.30084    
     43000  -61343.272      361.67747     -60981.595      192.02533      193.50515      412.47058    
     43100  -61323.334      362.09547     -60961.239      192.0036       193.48935      412.64032    
     43200  -61307.345      358.62596     -60948.719      191.97944      193.47252      412.81006    
     43300  -61286.407      353.59386     -60932.813      191.95797      193.45724      412.97981    
     43400  -61268.426      357.01302     -60911.413      191.93509      193.44064      413.14955    
     43500  -61245.989      360.08996     -60885.899      191.91344      193.42293      413.31929    
     43600  -61220.649      357.62845     -60863.02       191.89351      193.40551      413.48903    
     43700  -61203.166      356.96837     -60846.198      191.8707       193.38431      413.65877    
     43800  -61193.026      356.57731     -60836.449      191.85142      193.36597      413.82851    
     43900  -61169.377      353.32427     -60816.053      191.82972      193.34683      413.99825    
     44000  -61147.481      357.47022     -60790.01       191.80695      193.32815      414.16799    
     44100  -61126.259      360.33836     -60765.921      191.78603      193.31144      414.33773    
     44200  -61104.61       358.34195     -60746.268      191.76238      193.29253      414.50747    
     44300  -61092.669      360.9073      -60731.762      191.74085      193.27503      414.67722    
     44400  -61072.074      355.8689      -60716.205      191.7204       193.2576       414.84696    
     44500  -61052.55       357.5345      -60695.016      191.69728      193.23794      415.0167     
     44600  -61024.472      354.80159     -60669.67       191.67577      193.21872      415.18644    
     44700  -61008.272      359.56704     -60648.705      191.65362      193.19943      415.35618    
     44800  -60989.219      359.55565     -60629.664      191.63125      193.18021      415.52592    
     44900  -60969.966      358.72399     -60611.242      191.60905      193.16195      415.69566    
     45000  -60948.935      356.65429     -60592.28       191.5856       193.1437       415.8654     
     45100  -60930.534      359.13517     -60571.399      191.56272      193.12617      416.03514    
     45200  -60906.815      360.04219     -60546.773      191.53921      193.10791      416.20488    
     45300  -60885.337      362.3944      -60522.943      191.51593      193.08883      416.37463    
     45400  -60870.749      364.37485     -60506.374      191.4947       193.06964      416.54437    
     45500  -60851.699      358.28911     -60493.41       191.47273      193.04833      416.71411    
     45600  -60829.712      356.55189     -60473.16       191.45181      193.02789      416.88385    
     45700  -60810.433      359.37901     -60451.054      191.43066      193.00775      417.05359    
     45800  -60787.647      359.45579     -60428.192      191.40869      192.98751      417.22333    
     45900  -60765.535      361.84353     -60403.692      191.38728      192.96924      417.39307    
     46000  -60743.393      362.06232     -60381.331      191.36274      192.94965      417.56281    
     46100  -60723.276      355.21732     -60368.059      191.33737      192.93105      417.73255    
     46200  -60709.156      356.86297     -60352.293      191.31224      192.91217      417.90229    
     46300  -60686.924      354.90695     -60332.017      191.28751      192.89397      418.07203    
     46400  -60666.914      358.54767     -60308.366      191.26332      192.87488      418.24178    
     46500  -60642.353      360.30124     -60282.052      191.24015      192.85587      418.41152    
     46600  -60624.056      362.11833     -60261.937      191.21864      192.8375       418.58126    
     46700  -60606.541      354.70697     -60251.834      191.19373      192.81766      418.751      
     46800  -60592.116      359.29988     -60232.816      191.1698       192.79925      418.92074    
     46900  -60567.56       357.55954     -60210          191.14587      192.78045      419.09048    
     47000  -60544.451      359.29861     -60185.153      191.12048      192.759        419.26022    
     47100  -60521.954      358.61001     -60163.344      191.09844      192.73958      419.42996    
     47200  -60508.273      358.46741     -60149.806      191.07432      192.71795      419.5997     
     47300  -60489.136      355.46556     -60133.67       191.05175      192.698        419.76944    
     47400  -60467.148      355.77924     -60111.369      191.02962      192.67896      419.93919    
     47500  -60438.654      352.46512     -60086.189      191.00417      192.65845      420.10893    
     47600  -60425.332      364.27244     -60061.06       190.97982      192.63941      420.27867    
     47700  -60404.88       362.44168     -60042.438      190.9544       192.62085      420.44841    
     47800  -60384.195      359.16803     -60025.027      190.92814      192.60168      420.61815    
     47900  -60367.272      359.25289     -60008.019      190.90299      192.58339      420.78789    
     48000  -60347.571      356.83985     -59990.731      190.87819      192.56501      420.95763    
     48100  -60326.479      355.47029     -59971.009      190.85316      192.54579      421.12737    
     48200  -60304.393      358.33704     -59946.056      190.83072      192.52778      421.29711    
     48300  -60283.984      364.71469     -59919.269      190.80635      192.50615      421.46685    
     48400  -60261.914      361.0042      -59900.91       190.7828       192.48534      421.6366     
     48500  -60244.281      358.62757     -59885.654      190.75945      192.46391      421.80634    
     48600  -60225.234      358.68551     -59866.549      190.73337      192.44139      421.97608    
     48700  -60203.487      357.45387     -59846.033      190.71083      192.42232      422.14582    
     48800  -60184.487      359.55924     -59824.928      190.68678      192.40195      422.31556    
     48900  -60162.444      359.63258     -59802.811      190.66264      192.38148      422.4853     
     49000  -60141.98       361.19911     -59780.781      190.63951      192.3622       422.65504    
     49100  -60124.171      360.57477     -59763.597      190.61444      192.34174      422.82478    
     49200  -60106.996      358.77257     -59748.223      190.58923      192.32143      422.99452    
     49300  -60083.213      354.08902     -59729.124      190.56554      192.30277      423.16426    
     49400  -60064.61       361.86222     -59702.748      190.54003      192.28174      423.33401    
     49500  -60034.687      358.38428     -59676.303      190.51659      192.26256      423.50375    
     49600  -60016.413      358.86591     -59657.547      190.49252      192.24298      423.67349    
     49700  -59996.474      355.46604     -59641.008      190.46672      192.22237      423.84323    
     49800  -59980.525      356.5601      -59623.965      190.4438       192.20449      424.01297    
     49900  -59963.474      359.03029     -59604.444      190.41744      192.18423      424.18271    
     50000  -59936.054      356.49027     -59579.564      190.39116      192.16361      424.35245    
     50100  -59913.42       362.22354     -59551.197      190.36758      192.14535      424.52219    
     50200  -59895.986      362.48765     -59533.499      190.34161      192.1252       424.69193    
     50300  -59876.336      358.4769      -59517.859      190.31714      192.10582      424.86167    
     50400  -59859.507      360.29662     -59499.21       190.29386      192.0862       425.03142    
     50500  -59834.825      356.13202     -59478.693      190.26931      192.0642       425.20116    
     50600  -59813.161      355.62027     -59457.541      190.24794      192.04402      425.3709     
     50700  -59796.651      360.40527     -59436.245      190.22538      192.02224      425.54064    
     50800  -59775.034      357.67481     -59417.359      190.20162      192.00023      425.71038    
     50900  -59755.499      356.03344     -59399.466      190.17924      191.98051      425.88012    
     51000  -59738.176      356.85924     -59381.317      190.15415      191.96064      426.04986    
     51100  -59714.828      354.42805     -59360.4        190.12858      191.94164      426.2196     
     51200  -59692.982      360.57904     -59332.403      190.10344      191.9239       426.38934    
     51300  -59668.908      360.55433     -59308.354      190.07792      191.9058       426.55908    
     51400  -59653.024      361.30897     -59291.715      190.05217      191.88714      426.72882    
     51500  -59633.092      357.92126     -59275.171      190.02784      191.86894      426.89857    
     51600  -59613.271      358.95879     -59254.312      190.00277      191.84873      427.06831    
     51700  -59593.668      361.93128     -59231.737      189.9794       191.82947      427.23805    
     51800  -59568.267      360.19567     -59208.072      189.95562      191.80925      427.40779    
     51900  -59545.228      361.84311     -59183.385      189.93243      191.78981      427.57753    
     52000  -59527.232      361.31347     -59165.919      189.9088       191.77148      427.74727    
     52100  -59510.159      359.14675     -59151.012      189.88446      191.75316      427.91701    
     52200  -59485.335      353.72789     -59131.607      189.86065      191.73568      428.08675    
     52300  -59464.482      355.05723     -59109.424      189.83581      191.7165       428.25649    
     52400  -59444.134      361.70149     -59082.433      189.81257      191.69754      428.42623    
     52500  -59425.145      368.47059     -59056.675      189.78964      191.67771      428.59598    
     52600  -59403.447      360.53807     -59042.909      189.76744      191.65786      428.76572    
     52700  -59387.161      362.08038     -59025.08       189.74579      191.63888      428.93546    
     52800  -59366.897      361.1634      -59005.734      189.72343      191.62011      429.1052     
     52900  -59345.233      359.1543      -58986.079      189.69997      191.60122      429.27494    
     53000  -59322.65       355.08334     -58967.567      189.67798      191.58394      429.44468    
     53100  -59303.757      355.41362     -58948.344      189.65394      191.56484      429.61442    
     53200  -59274.942      351.55404     -58923.387      189.63127      191.54729      429.78416    
     53300  -59257.863      362.15991     -58895.703      189.60958      191.52846      429.9539     
     53400  -59239.001      364.18287     -58874.819      189.58745      191.50726      430.12364    
     53500  -59219.328      360.34302     -58858.985      189.5681       191.48823      430.29339    
     53600  -59198.361      357.96129     -58840.4        189.54695      191.46815      430.46313    
     53700  -59176.095      357.72557     -58818.369      189.52463      191.44838      430.63287    
     53800  -59151.376      356.84044     -58794.536      189.50515      191.43213      430.80261    
     53900  -59133.924      360.99371     -58772.931      189.48294      191.41287      430.97235    
     54000  -59117.034      357.96021     -58759.074      189.46182      191.39605      431.14209    
     54100  -59096.797      356.65999     -58740.137      189.44198      191.37977      431.31183    
     54200  -59074.518      357.69412     -58716.824      189.42024      191.35999      431.48157    
     54300  -59050.444      360.55957     -58689.884      189.39968      191.34193      431.65131    
     54400  -59027.265      364.4605      -58662.805      189.37922      191.32372      431.82105    
     54500  -59008.303      359.81471     -58648.488      189.35762      191.3042       431.9908     
     54600  -58993.377      361.25861     -58632.118      189.33987      191.28774      432.16054    
     54700  -58970.031      357.61767     -58612.414      189.31885      191.26856      432.33028    
     54800  -58947.389      356.70434     -58590.685      189.29827      191.25053      432.50002    
     54900  -58925.894      359.25686     -58566.637      189.28         191.23473      432.66976    
     55000  -58900.314      356.48307     -58543.831      189.25955      191.2157       432.8395     
     55100  -58885.404      359.8426      -58525.561      189.24106      191.19811      433.00924    
     55200  -58866.999      357.42185     -58509.578      189.22316      191.18109      433.17898    
     55300  -58844.551      356.82095     -58487.73       189.20447      191.16342      433.34872    
     55400  -58824.006      361.75013     -58462.256      189.18752      191.14731      433.51846    
     55500  -58799.198      366.43298     -58432.765      189.16916      191.12975      433.68821    
     55600  -58773.862      363.69138     -58410.17       189.15055      191.11218      433.85795    
     55700  -58760.463      363.94707     -58396.516      189.13236      191.09587      434.02769    
     55800  -58741.75       363.10643     -58378.644      189.11333      191.07821      434.19743    
     55900  -58719.951      359.0897      -58360.861      189.09483      191.06116      434.36717    
     56000  -58697.959      357.10056     -58340.858      189.07772      191.04555      434.53691    
     56100  -58674.788      357.90792     -58316.88       189.06066      191.03006      434.70665    
     56200  -58648.87       359.34629     -58289.523      189.04345      191.0141       434.87639    
     56300  -58628.516      363.50714     -58265.009      189.02689      190.99916      435.04613    
     56400  -58610.32       359.01306     -58251.307      189.00975      190.98423      435.21587    
     56500  -58589.691      357.54032     -58232.151      188.99205      190.96906      435.38561    
     56600  -58567.284      355.67565     -58211.608      188.97421      190.95382      435.55536    
     56700  -58545.999      355.17345     -58190.825      188.95638      190.93828      435.7251     
     56800  -58528.379      356.45423     -58171.925      188.93934      190.9237       435.89484    
     56900  -58506.97       353.20543     -58153.764      188.92254      190.90777      436.06458    
     57000  -58486.891      356.24466     -58130.647      188.90819      190.89289      436.23432    
     57100  -58464.43       364.78621     -58099.644      188.89239      190.87682      436.40406    
     57200  -58438.827      362.83847     -58075.989      188.87666      190.86241      436.5738     
     57300  -58414.973      356.94353     -58058.029      188.8611       190.84945      436.74354    
     57400  -58399.505      360.02185     -58039.483      188.84373      190.83425      436.91328    
     57500  -58373.995      355.66823     -58018.327      188.82929      190.82112      437.08302    
     57600  -58358.048      359.86885     -57998.179      188.81331      190.80619      437.25277    
     57700  -58335.649      356.61673     -57979.033      188.79747      190.79232      437.42251    
     57800  -58317.261      355.55426     -57961.707      188.78377      190.78054      437.59225    
     57900  -58295.326      352.59419     -57942.732      188.76717      190.76555      437.76199    
     58000  -58271.529      357.74595     -57913.783      188.75331      190.7539       437.93173    
     58100  -58243.956      357.08398     -57886.873      188.73769      190.73988      438.10147    
     58200  -58225.687      360.15424     -57865.532      188.72248      190.72635      438.27121    
     58300  -58205.987      358.54922     -57847.438      188.70853      190.71431      438.44095    
     58400  -58185.367      357.80468     -57827.563      188.69391      190.70119      438.61069    
     58500  -58162.096      357.15606     -57804.94       188.68089      190.68913      438.78043    
     58600  -58144.228      362.3507      -57781.877      188.66853      190.67706      438.95018    
     58700  -58114.468      354.81962     -57759.648      188.65604      190.66508      439.11992    
     58800  -58097.739      359.95529     -57737.784      188.64294      190.65284      439.28966    
     58900  -58074.699      358.52571     -57716.173      188.62676      190.64009      439.4594     
     59000  -58056.726      362.42463     -57694.301      188.61261      190.63116      439.62914    
     59100  -58032.967      360.03958     -57672.927      188.59594      190.62014      439.79888    
     59200  -58013.15       361.88802     -57651.262      188.58096      190.61009      439.96862    
     59300  -57992.033      362.09564     -57629.938      188.56833      190.60063      440.13836    
     59400  -57971.811      361.40807     -57610.403      188.55424      190.58883      440.3081     
     59500  -57951.32       358.07608     -57593.244      188.54243      190.58027      440.47784    
     59600  -57927.281      355.3342      -57571.947      188.52803      190.56905      440.64759    
     59700  -57904.148      358.40209     -57545.746      188.51437      190.55812      440.81733    
     59800  -57882.462      361.25522     -57521.207      188.50294      190.54931      440.98707    
     59900  -57854.571      356.15206     -57498.419      188.49013      190.53792      441.15681    
     60000  -57835.117      357.09873     -57478.019      188.4791       190.52828      441.32655    
     60100  -57816.486      358.18951     -57458.297      188.46781      190.51781      441.49629    
     60200  -57792.586      355.82349     -57436.763      188.45564      190.50599      441.66603    
     60300  -57774.216      359.46344     -57414.753      188.44436      190.49588      441.83577    
     60400  -57747.44       354.25138     -57393.189      188.431        190.48351      442.00551    
     60500  -57730.334      361.29027     -57369.044      188.42025      190.47486      442.17525    
     60600  -57703.871      362.02084     -57341.851      188.40803      190.46523      442.345      
     60700  -57674.22       358.30623     -57315.914      188.39594      190.45616      442.51474    
     60800  -57655.808      358.32985     -57297.478      188.38647      190.44906      442.68448    
     60900  -57638.742      360.16909     -57278.573      188.37485      190.43786      442.85422    
     61000  -57613.007      358.13024     -57254.876      188.36441      190.42847      443.02396    
     61100  -57590.315      357.67093     -57232.644      188.35407      190.41911      443.1937     
     61200  -57569.401      354.62323     -57214.778      188.34181      190.40684      443.36344    
     61300  -57550.096      357.60175     -57192.494      188.33313      190.39893      443.53318    
     61400  -57522.748      356.1998      -57166.548      188.32126      190.38695      443.70292    
     61500  -57499.668      358.69084     -57140.977      188.31205      190.37863      443.87266    
     61600  -57480.249      363.5025      -57116.746      188.30383      190.36835      444.0424     
     61700  -57455.737      360.56536     -57095.171      188.29538      190.3549       444.21215    
     61800  -57433.557      360.38599     -57073.171      188.29002      190.34469      444.38189    
     61900  -57409.471      360.00309     -57049.468      188.28105      190.33132      444.55163    
     62000  -57381.428      356.07478     -57025.354      188.27398      190.3216       444.72137    
     62100  -57361.375      356.94219     -57004.432      188.26447      190.31137      444.89111    
     62200  -57343.278      359.87141     -56983.406      188.25411      190.30324      445.06085    
     62300  -57313.068      354.97483     -56958.093      188.24316      190.29591      445.23059    
     62400  -57290.291      356.27688     -56934.014      188.23139      190.2878       445.40033    
     62500  -57276.089      363.70221     -56912.387      188.22069      190.28046      445.57007    
     62600  -57251.456      357.70005     -56893.756      188.20901      190.27068      445.73981    
     62700  -57225.7        357.14316     -56868.557      188.19945      190.26172      445.90956    
     62800  -57200.591      359.30262     -56841.288      188.19034      190.251        446.0793     
     62900  -57176.622      361.57375     -56815.048      188.18227      190.24004      446.24904    
     63000  -57152.348      357.15097     -56795.197      188.17552      190.22919      446.41878    
     63100  -57130.639      357.48841     -56773.151      188.16906      190.21702      446.58852    
     63200  -57104.687      357.92971     -56746.758      188.16359      190.20625      446.75826    
     63300  -57081.565      359.95742     -56721.608      188.15693      190.19615      446.928      
     63400  -57060.87       358.86421     -56702.006      188.14763      190.18596      447.09774    
     63500  -57033.297      355.11876     -56678.179      188.13875      190.1786       447.26748    
     63600  -57013.988      362.08807     -56651.9        188.12693      190.16973      447.43722    
     63700  -56989.192      362.27557     -56626.917      188.1157       190.16297      447.60697    
     63800  -56963.569      358.58507     -56604.984      188.10429      190.15503      447.77671    
     63900  -56941.862      357.42631     -56584.435      188.09369      190.14597      447.94645    
     64000  -56917.418      360.42869     -56556.989      188.084        190.13765      448.11619    
     64100  -56888.623      359.41683     -56529.206      188.07478      190.12809      448.28593    
     64200  -56862.722      358.46495     -56504.257      188.06701      190.11876      448.45567    
     64300  -56846.119      361.70121     -56484.418      188.05935      190.10774      448.62541    
     64400  -56813.729      355.18841     -56458.541      188.05229      190.09674      448.79515    
     64500  -56795.227      363.16172     -56432.065      188.04527      190.08541      448.96489    
     64600  -56763.988      356.72519     -56407.263      188.03837      190.07413      449.13463    
     64700  -56744.531      356.86431     -56387.667      188.03052      190.06386      449.30438    
     64800  -56716.273      355.95785     -56360.315      188.02268      190.05365      449.47412    
     64900  -56689.019      357.74729     -56331.271      188.01397      190.04232      449.64386    
     65000  -56664.055      360.32905     -56303.726      188.00615      190.03225      449.8136     
     65100  -56641.531      357.61999     -56283.911      187.99651      190.0196       449.98334    
     65200  -56614.465      357.12343     -56257.342      187.9891       190.01039      450.15308    
     65300  -56591.381      361.88957     -56229.492      187.97954      189.9975       450.32282    
     65400  -56564.026      360.40687     -56203.619      187.97225      189.98832      450.49256    
     65500  -56540.569      358.04458     -56182.525      187.96359      189.97829      450.6623     
     65600  -56510.837      356.04835     -56154.789      187.95414      189.96682      450.83204    
     65700  -56485.69       360.19239     -56125.497      187.94739      189.95823      451.00179    
     65800  -56455.528      354.34513     -56101.183      187.93783      189.94521      451.17153    
     65900  -56436.215      358.06614     -56078.149      187.93033      189.93483      451.34127    
     66000  -56408.847      359.63853     -56049.208      187.92177      189.92288      451.51101    
     66100  -56380.11       359.3271      -56020.783      187.91182      189.91036      451.68075    
     66200  -56356.926      360.73003     -55996.196      187.90242      189.90056      451.85049    
     66300  -56329.826      358.94599     -55970.88       187.89162      189.89008      452.02023    
     66400  -56300.604      359.85144     -55940.752      187.88134      189.88039      452.18997    
     66500  -56272.989      359.78105     -55913.207      187.87132      189.87027      452.35971    
     66600  -56248.092      358.91274     -55889.18       187.86145      189.85953      452.52945    
     66700  -56221.153      359.92551     -55861.227      187.8525       189.8491       452.69919    
     66800  -56194.11       361.33249     -55832.778      187.84327      189.8372       452.86894    
     66900  -56166.88       359.7615      -55807.119      187.83457      189.8244       453.03868    
     67000  -56138.599      359.22044     -55779.378      187.82722      189.81281      453.20842    
     67100  -56114.316      363.85046     -55750.465      187.81822      189.79913      453.37816    
     67200  -56084.27       362.05829     -55722.212      187.81081      189.78747      453.5479     
     67300  -56054.161      359.39704     -55694.764      187.80127      189.77429      453.71764    
     67400  -56031.898      364.81575     -55667.082      187.79108      189.76204      453.88738    
     67500  -55998.14       359.5611      -55638.578      187.78095      189.75172      454.05712    
     67600  -55974.14       363.18703     -55610.953      187.76833      189.73986      454.22686    
     67700  -55945.269      362.6206      -55582.648      187.75659      189.73018      454.3966     
     67800  -55916.745      362.30632     -55554.438      187.74364      189.71936      454.56635    
     67900  -55890.119      363.70163     -55526.417      187.73109      189.7084       454.73609    
     68000  -55859.903      360.56125     -55499.342      187.72066      189.69828      454.90583    
     68100  -55833.266      363.25203     -55470.014      187.70962      189.68515      455.07557    
     68200  -55803.464      362.75658     -55440.708      187.70116      189.67351      455.24531    
     68300  -55775.533      364.74437     -55410.789      187.69082      189.65862      455.41505    
     68400  -55745.995      364.74234     -55381.253      187.68189      189.64544      455.58479    
     68500  -55717.737      364.29338     -55353.443      187.67289      189.63066      455.75453    
     68600  -55680.873      357.52512     -55323.348      187.66301      189.61433      455.92427    
     68700  -55654.759      361.44696     -55293.312      187.65471      189.60016      456.09401    
     68800  -55626.1        362.66308     -55263.437      187.64484      189.58329      456.26376    
     68900  -55594.905      361.9421      -55232.963      187.63593      189.56878      456.4335     
     69000  -55569.384      366.59528     -55202.789      187.62577      189.55474      456.60324    
     69100  -55530.816      356.86482     -55173.951      187.61306      189.53991      456.77298    
     69200  -55504.795      360.64717     -55144.148      187.60153      189.52889      456.94272    
     69300  -55476.931      361.5808      -55115.35       187.58719      189.51524      457.11246    
     69400  -55447.848      361.63439     -55086.213      187.57354      189.5038       457.2822     
     69500  -55418.689      363.20084     -55055.488      187.55999      189.4921       457.45194    
     69600  -55384.55       360.2638      -55024.286      187.54528      189.47739      457.62168    
     69700  -55355.864      362.96879     -54992.895      187.5349       189.46583      457.79142    
     69800  -55326.909      365.6884      -54961.22       187.52238      189.44809      457.96117    
     69900  -55294.121      364.75837     -54929.363      187.51295      189.43239      458.13091    
     70000  -55263.493      363.31091     -54900.182      187.50357      189.41552      458.30065    
     70100  -55231.891      363.06212     -54868.829      187.49247      189.39572      458.47039    
     70200  -55205.412      368.28719     -54837.125      187.48417      189.37964      458.64013    
     70300  -55166.997      361.78521     -54805.212      187.4719       189.35919      458.80987    
     70400  -55137.712      365.26034     -54772.452      187.46195      189.34348      458.97961    
     70500  -55103.998      362.19685     -54741.801      187.44991      189.32702      459.14935    
     70600  -55073.461      364.71241     -54708.748      187.43531      189.30946      459.31909    
     70700  -55038.754      363.55286     -54675.202      187.42363      189.29717      459.48883    
     70800  -55010.694      365.84782     -54644.846      187.40746      189.27972      459.65858    
     70900  -54975.468      362.56607     -54612.902      187.39435      189.26611      459.82832    
     71000  -54947.578      365.1015      -54582.477      187.38007      189.25013      459.99806    
     71100  -54917.534      367.26652     -54550.268      187.36479      189.23231      460.1678     
     71200  -54887.071      370.21857     -54516.853      187.3526       189.21767      460.33754    
     71300  -54853.238      370.32447     -54482.913      187.33732      189.1982       460.50728    
     71400  -54822.407      370.50879     -54451.898      187.32522      189.18169      460.67702    
     71500  -54788.681      369.38375     -54419.297      187.31187      189.16224      460.84676    
     71600  -54754.269      368.15727     -54386.112      187.29857      189.14178      461.0165     
     71700  -54719.074      367.80648     -54351.268      187.28738      189.12393      461.18624    
     71800  -54681.485      365.40236     -54316.082      187.27286      189.10244      461.35598    
     71900  -54650.932      367.40291     -54283.529      187.26032      189.08426      461.52573    
     72000  -54618.2        369.29528     -54248.904      187.24664      189.06477      461.69547    
     72100  -54582.568      366.66825     -54215.9        187.23224      189.04471      461.86521    
     72200  -54548.898      365.98963     -54182.908      187.21898      189.02693      462.03495    
     72300  -54512.597      366.20333     -54146.394      187.2039       189.00674      462.20469    
     72400  -54479.569      368.58875     -54110.98       187.18948      188.9875       462.37443    
     72500  -54444.195      367.72889     -54076.466      187.17434      188.96796      462.54417    
     72600  -54412.315      370.14698     -54042.168      187.15796      188.94776      462.71391    
     72700  -54373.609      366.59629     -54007.013      187.14249      188.92912      462.88365    
     72800  -54341.663      372.63459     -53969.028      187.12571      188.9084       463.05339    
     72900  -54307.89       373.9979      -53933.892      187.10923      188.88821      463.22314    
     73000  -54270.12       373.91252     -53896.208      187.09341      188.86862      463.39288    
     73100  -54237.345      376.88958     -53860.455      187.07647      188.84684      463.56262    
     73200  -54205.912      380.09087     -53825.821      187.06202      188.82693      463.73236    
     73300  -54164.04       372.79574     -53791.245      187.04636      188.80396      463.9021     
     73400  -54128.609      372.9701      -53755.639      187.03144      188.78124      464.07184    
     73500  -54098.368      376.88615     -53721.482      187.01737      188.75924      464.24158    
     73600  -54054.594      370.90661     -53683.687      187.00129      188.735        464.41132    
     73700  -54019.932      373.95195     -53645.98       186.98629      188.71329      464.58106    
     73800  -53989.167      378.89113     -53610.276      186.96938      188.68999      464.7508     
     73900  -53953.183      379.2949      -53573.889      186.95197      188.66719      464.92055    
     74000  -53911.916      377.81034     -53534.106      186.93492      188.64544      465.09029    
     74100  -53878.666      382.94489     -53495.721      186.91624      188.62174      465.26003    
     74200  -53840.074      378.05122     -53462.023      186.89919      188.59968      465.42977    
     74300  -53803.366      380.90306     -53422.463      186.88119      188.5762       465.59951    
     74400  -53767.068      383.60804     -53383.46       186.86287      188.55232      465.76925    
     74500  -53732.06       388.94492     -53343.115      186.84544      188.52943      465.93899    
     74600  -53693.237      389.25171     -53303.985      186.82697      188.50475      466.10873    
     74700  -53659.146      392.70459     -53266.442      186.80975      188.48142      466.27847    
     74800  -53613.367      389.55902     -53223.808      186.79171      188.45674      466.44821    
     74900  -53583.034      399.47813     -53183.556      186.77352      188.43164      466.61796    
     75000  -53537.313      392.04339     -53145.27       186.7556       188.40766      466.7877     
     75100  -53500.017      395.66728     -53104.35       186.736        188.38236      466.95744    
     75200  -53464.366      400.12331     -53064.242      186.71756      188.358        467.12718    
     75300  -53415.375      393.46528     -53021.91       186.6986       188.33229      467.29692    
     75400  -53386.222      400.28398     -52985.938      186.67961      188.30595      467.46666    
     75500  -53352.776      404.59289     -52948.183      186.66145      188.28028      467.6364     
     75600  -53315.811      407.15934     -52908.652      186.64201      188.25327      467.80614    
     75700  -53260.667      396.78024     -52863.887      186.62289      188.22713      467.97588    
     75800  -53226.923      401.45635     -52825.467      186.60317      188.2009       468.14562    
     75900  -53183.604      396.02811     -52787.576      186.58278      188.17421      468.31537    
     76000  -53149.688      402.06008     -52747.627      186.5626       188.14807      468.48511    
     76100  -53116.319      410.2795      -52706.04       186.54196      188.12153      468.65485    
     76200  -53072.032      412.12581     -52659.906      186.52123      188.09513      468.82459    
     76300  -53023.345      407.91599     -52615.429      186.5005       188.06873      468.99433    
     76400  -52983.459      414.27168     -52569.188      186.47929      188.04171      469.16407    
     76500  -52943.143      419.16209     -52523.981      186.45827      188.01464      469.33381    
     76600  -52897.336      418.38945     -52478.947      186.43755      187.98717      469.50355    
     76700  -52853.111      421.59607     -52431.514      186.4163       187.95876      469.67329    
     76800  -52807.287      425.40759     -52381.879      186.39587      187.93051      469.84303    
     76900  -52795.573      455.25584     -52340.317      186.37498      187.90135      470.01278    
     77000  -52966.844      643.37136     -52323.473      186.35367      187.87263      470.18252    
     77100  -53487.925      998.23192     -52489.693      186.33477      187.84774      470.35226    
     77200  -54432.647      1467.5833     -52965.064      186.32275      187.82803      470.522      
     77300  -55705.501      1727.684      -53977.817      186.33186      187.83137      470.69174    
     77400  -56795.787      1601.4662     -55194.321      186.35183      187.84907      470.86148    
     77500  -57799.93       1454.5921     -56345.338      186.35384      187.84943      471.03122    
     77600  -58640.719      1275.293      -57365.426      186.36455      187.86115      471.20096    
     77700  -59396.885      1142.0234     -58254.861      186.38048      187.87898      471.3707     
     77800  -60057.215      1026.2553     -59030.96       186.39055      187.89296      471.54044    
     77900  -60637.793      930.29852     -59707.494      186.40581      187.91956      471.71018    
     78000  -61147.941      849.92307     -60298.018      186.41555      187.94361      471.87993    
     78100  -61603.833      784.9452      -60818.888      186.42543      187.9733       472.04967    
     78200  -62028.686      740.81365     -61287.872      186.43026      188.0026       472.21941    
     78300  -62425.745      705.35294     -61720.392      186.43103      188.03065      472.38915    
     78400  -62798.467      675.70322     -62122.764      186.433        188.06236      472.55889    
     78500  -63149.767      650.08723     -62499.679      186.43354      188.09164      472.72863    
     78600  -63481.374      627.31454     -62854.06       186.43577      188.1215       472.89837    
     78700  -63797.051      607.80119     -63189.25       186.43888      188.15025      473.06811    
     78800  -64098.506      591.10525     -63507.401      186.44175      188.17757      473.23785    
     78900  -64390.32       578.00992     -63812.31       186.44469      188.20534      473.40759    
     79000  -64672.496      566.4975      -64105.999      186.44719      188.2318       473.57734    
     79100  -64945.46       555.85165     -64389.608      186.45104      188.25862      473.74708    
     79200  -65208.65       545.15367     -64663.496      186.45589      188.28564      473.91682    
     79300  -65465.399      536.79184     -64928.607      186.46094      188.31201      474.08656    
     79400  -65694.659      513.79726     -65180.862      186.46695      188.33884      474.2563     
     79500  -65894.642      486.07685     -65408.565      186.47348      188.36599      474.42604    
     79600  -66072.453      461.48968     -65610.964      186.48008      188.39384      474.59578    
     79700  -66227.613      438.16906     -65789.444      186.48662      188.42258      474.76552    
     79800  -66362.363      417.0512      -65945.312      186.49369      188.45243      474.93526    
     79900  -66477.141      397.46603     -66079.675      186.50165      188.48352      475.105      
     80000  -66571.02       378.82062     -66192.199      186.51069      188.5166       475.27475    
     80100  -66643.201      361.65768     -66281.543      186.52045      188.55031      475.44449    
     80200  -66693.245      348.04495     -66345.2        186.53174      188.58605      475.61423    
     80300  -66719.077      339.94343     -66379.133      186.54376      188.62369      475.78397    
     80400  -66725.548      345.89082     -66379.658      186.55513      188.66147      475.95371    
     80500  -66714.783      357.19615     -66357.586      186.56576      188.69972      476.12345    
     80600  -66680.663      349.31066     -66331.353      186.57465      188.73628      476.29319    
     80700  -66619.737      328.82965     -66290.908      186.58312      188.77241      476.46293    
     80800  -66530.29       310.74329     -66219.547      186.59059      188.80696      476.63267    
     80900  -66419.927      291.6381      -66128.289      186.59653      188.84034      476.80241    
     81000  -66344.232      315.80765     -66028.424      186.59897      188.87124      476.97216    
     81100  -66300.456      365.75642     -65934.7        186.59023      188.89179      477.1419     
     81200  -66229.95       356.98627     -65872.964      186.59687      188.90518      477.31164    
     81300  -66224.079      390.84942     -65833.23       186.63195      188.90535      477.48138    
     81400  -66223.699      368.88465     -65854.815      186.68484      188.89892      477.65112    
     81500  -66203.002      317.60428     -65885.398      186.73027      188.88379      477.82086    
     81600  -66200.14       345.88207     -65854.258      186.77641      188.88707      477.9906     
     81700  -66166.089      369.21294     -65796.876      186.8044       188.90512      478.16034    
     81800  -66145.685      389.81705     -65755.868      186.82553      188.95062      478.33008    
     81900  -66164.938      389.39199     -65775.546      186.83928      189.00986      478.49982    
     82000  -66179.003      343.968       -65835.035      186.8456       189.05557      478.66957    
     82100  -66188.279      331.24987     -65857.029      186.85446      189.11165      478.83931    
     82200  -66173.804      342.50155     -65831.302      186.85858      189.1664       479.00905    
     82300  -66167.773      378.84325     -65788.93       186.86305      189.22337      479.17879    
     82400  -66151.358      367.75071     -65783.608      186.868        189.27175      479.34853    
     82500  -66153.485      351.7346      -65801.75       186.88056      189.31463      479.51827    
     82600  -66177.893      359.61196     -65818.281      186.89775      189.35531      479.68801    
     82700  -66190.146      353.91105     -65836.234      186.91339      189.39383      479.85775    
     82800  -66195.908      351.28187     -65844.626      186.92947      189.42889      480.02749    
     82900  -66203.357      364.30148     -65839.056      186.95136      189.46008      480.19723    
     83000  -66191.274      357.0635      -65834.211      186.98004      189.49351      480.36697    
     83100  -66203.53       370.19274     -65833.337      186.99946      189.53282      480.53672    
     83200  -66211.74       357.58004     -65854.16       187.01391      189.57541      480.70646    
     83300  -66229.685      353.79138     -65875.894      187.03545      189.62204      480.8762     
     83400  -66244.826      359.69868     -65885.127      187.05166      189.65967      481.04594    
     83500  -66261.548      367.75611     -65893.792      187.0741       189.70517      481.21568    
     83600  -66258.225      347.07643     -65911.148      187.09075      189.7489       481.38542    
     83700  -66269.509      358.32532     -65911.184      187.10221      189.80404      481.55516    
     83800  -66269.766      361.95622     -65907.809      187.10991      189.86106      481.7249     
     83900  -66272.87       362.81091     -65910.059      187.11514      189.91911      481.89464    
     84000  -66277.452      359.67826     -65917.774      187.12773      189.98884      482.06438    
     84100  -66286.482      356.75606     -65929.726      187.13934      190.05125      482.23413    
     84200  -66297.846      356.75742     -65941.089      187.15516      190.11371      482.40387    
     84300  -66296.541      351.76637     -65944.774      187.17025      190.17033      482.57361    
     84400  -66299.982      358.1743      -65941.808      187.19002      190.23173      482.74335    
     84500  -66306.09       361.88378     -65944.206      187.20597      190.29539      482.91309    
     84600  -66324.736      364.93521     -65959.8        187.21766      190.35855      483.08283    
     84700  -66337.609      353.94531     -65983.663      187.23022      190.42388      483.25257    
     84800  -66345.711      345.52918     -66000.182      187.23644      190.47959      483.42231    
     84900  -66349.526      351.84334     -65997.683      187.2472       190.53313      483.59205    
     85000  -66353.961      369.863       -65984.098      187.2569       190.58181      483.76179    
     85100  -66352.464      365.72638     -65986.738      187.2734       190.63736      483.93154    
     85200  -66369.006      360.54229     -66008.464      187.29227      190.6882       484.10128    
     85300  -66375.61       345.87602     -66029.734      187.31502      190.72958      484.27102    
     85400  -66382.399      352.17053     -66030.228      187.34483      190.76505      484.44076    
     85500  -66383.119      363.87129     -66019.248      187.37636      190.79439      484.6105     
     85600  -66386.836      367.04057     -66019.795      187.40556      190.81814      484.78024    
     85700  -66398.166      359.83695     -66038.329      187.43531      190.84474      484.94998    
     85800  -66406.461      349.62533     -66056.835      187.46566      190.86827      485.11972    
     85900  -66408.829      349.37007     -66059.459      187.49644      190.88582      485.28946    
     86000  -66408.282      361.42406     -66046.858      187.52367      190.89672      485.4592     
     86100  -66406.608      365.21803     -66041.39       187.54998      190.90796      485.62895    
     86200  -66406.332      358.26182     -66048.071      187.57072      190.91562      485.79869    
     86300  -66408.669      356.37317     -66052.296      187.59073      190.92753      485.96843    
     86400  -66407.82       355.12292     -66052.697      187.60674      190.94139      486.13817    
     86500  -66403.327      355.86674     -66047.46       187.61425      190.9472       486.30791    
     86600  -66394.257      358.22166     -66036.036      187.6241       190.95794      486.47765    
     86700  -66389.946      363.54076     -66026.405      187.62766      190.96461      486.64739    
     86800  -66390.583      361.37775     -66029.205      187.63272      190.9723       486.81713    
     86900  -66393.585      355.769       -66037.816      187.62858      190.97196      486.98687    
     87000  -66398.807      354.31933     -66044.487      187.6275       190.97342      487.15661    
     87100  -66409.005      362.27961     -66046.725      187.61582      190.97022      487.32636    
     87200  -66412.778      362.59502     -66050.183      187.60335      190.97037      487.4961     
     87300  -66427.815      365.1744      -66062.641      187.58972      190.98086      487.66584    
     87400  -66440.461      354.8269      -66085.634      187.56984      190.98853      487.83558    
     87500  -66450.421      346.5002      -66103.921      187.55451      191.00784      488.00532    
     87600  -66459.144      354.39904     -66104.745      187.5305       191.02394      488.17506    
     87700  -66457.543      361.57915     -66095.963      187.51357      191.05266      488.3448     
     87800  -66456.305      363.64559     -66092.66       187.48966      191.08006      488.51454    
     87900  -66454.314      352.8064      -66101.508      187.47001      191.10933      488.68428    
     88000  -66447.617      344.69891     -66102.918      187.44826      191.13673      488.85402    
     88100  -66438.594      356.68812     -66081.906      187.43242      191.17375      489.02376    
     88200  -66426.944      370.36411     -66056.58       187.41638      191.20592      489.19351    
     88300  -66422.747      369.10853     -66053.639      187.40175      191.23839      489.36325    
     88400  -66425.27       357.03401     -66068.236      187.39747      191.27877      489.53299    
     88500  -66423.569      345.12623     -66078.442      187.39172      191.31465      489.70273    
     88600  -66415.238      347.16931     -66068.069      187.38797      191.35538      489.87247    
     88700  -66401.054      361.19904     -66039.855      187.38246      191.39221      490.04221    
     88800  -66388.388      372.11117     -66016.277      187.3822       191.43596      490.21195    
     88900  -66393.879      373.67306     -66020.206      187.37923      191.47736      490.38169    
     89000  -66404.842      357.9709      -66046.872      187.383        191.51825      490.55143    
     89100  -66406.619      341.7767      -66064.842      187.39088      191.55249      490.72117    
     89200  -66400.161      348.28405     -66051.877      187.39968      191.57339      490.89092    
     89300  -66383.317      365.76612     -66017.551      187.41684      191.59985      491.06066    
     89400  -66367.624      368.99096     -65998.634      187.42484      191.61217      491.2304     
     89500  -66372.284      364.32888     -66007.955      187.43934      191.63474      491.40014    
     89600  -66383.591      355.27848     -66028.312      187.44778      191.65063      491.56988    
     89700  -66392.01       350.26958     -66041.74       187.45766      191.67267      491.73962    
     89800  -66390.05       351.11552     -66038.934      187.46142      191.68966      491.90936    
     89900  -66388.894      363.84399     -66025.05       187.46342      191.70749      492.0791     
     90000  -66387.326      368.19132     -66019.135      187.46622      191.72426      492.24884    
     90100  -66394.729      363.78607     -66030.943      187.46673      191.73865      492.41858    
     90200  -66402.055      349.29599     -66052.759      187.47237      191.75574      492.58833    
     90300  -66409.378      350.39112     -66058.987      187.47568      191.76242      492.75807    
     90400  -66407.84       359.65761     -66048.183      187.48693      191.77838      492.92781    
     90500  -66409.106      370.54869     -66038.557      187.48996      191.78646      493.09755    
     90600  -66419.293      368.62        -66050.673      187.49643      191.80078      493.26729    
     90700  -66429.478      351.62294     -66077.855      187.50425      191.8178       493.43703    
     90800  -66440.139      344.86508     -66095.274      187.51187      191.82994      493.60677    
     90900  -66437.239      349.35061     -66087.889      187.52871      191.84883      493.77651    
     91000  -66435.055      368.41766     -66066.637      187.54385      191.86348      493.94625    
     91100  -66436.562      372.88766     -66063.674      187.56253      191.88927      494.11599    
     91200  -66441.486      355.63789     -66085.849      187.5774       191.91388      494.28574    
     91300  -66454.694      348.07557     -66106.618      187.59762      191.94808      494.45548    
     91400  -66455.354      346.90126     -66108.453      187.61729      191.98234      494.62522    
     91500  -66447.586      357.0142      -66090.572      187.63311      192.0212       494.79496    
     91600  -66437.234      367.25147     -66069.983      187.65236      192.0692       494.9647     
     91700  -66431.172      368.06603     -66063.106      187.6612       192.11337      495.13444    
     91800  -66429.021      357.45463     -66071.567      187.67866      192.16947      495.30418    
     91900  -66429.795      354.02443     -66075.77       187.68729      192.21964      495.47392    
     92000  -66423.648      356.7332      -66066.914      187.70105      192.27513      495.64366    
     92100  -66409.573      359.98778     -66049.585      187.7089       192.32774      495.8134     
     92200  -66401.045      363.84288     -66037.202      187.71261      192.38355      495.98315    
     92300  -66399.047      362.74679     -66036.301      187.71728      192.44012      496.15289    
     92400  -66395.592      354.65061     -66040.941      187.71987      192.4885       496.32263    
     92500  -66388.874      350.79045     -66038.084      187.72521      192.53761      496.49237    
     92600  -66385.423      362.51282     -66022.911      187.72805      192.57991      496.66211    
     92700  -66371.979      365.84901     -66006.13       187.73525      192.6234       496.83185    
     92800  -66372.784      368.20787     -66004.576      187.73727      192.6557       497.00159    
     92900  -66378.746      358.00108     -66020.745      187.73597      192.69056      497.17133    
     93000  -66385.301      349.15723     -66036.144      187.72837      192.71635      497.34107    
     93100  -66383.013      349.24946     -66033.763      187.72261      192.7385       497.51081    
     93200  -66370          354.3087      -66015.692      187.71263      192.76372      497.68055    
     93300  -66362.621      365.5849      -65997.036      187.70045      192.78628      497.8503     
     93400  -66358.978      366.15297     -65992.825      187.68703      192.80617      498.02004    
     93500  -66369.557      362.84215     -66006.715      187.674        192.82101      498.18978    
     93600  -66384.889      356.65769     -66028.231      187.65777      192.8365       498.35952    
     93700  -66381.212      340.98866     -66040.223      187.64049      192.84812      498.52926    
     93800  -66378.374      349.89324     -66028.481      187.62114      192.85862      498.699      
     93900  -66372.925      367.32039     -66005.604      187.60382      192.87305      498.86874    
     94000  -66368.129      370.7182      -65997.41       187.58536      192.88294      499.03848    
     94100  -66379.576      364.30496     -66015.271      187.56917      192.89191      499.20822    
     94200  -66391.856      353.44736     -66038.409      187.55368      192.8994       499.37796    
     94300  -66390.787      344.09098     -66046.696      187.54282      192.90807      499.54771    
     94400  -66392.809      356.88748     -66035.922      187.53219      192.91369      499.71745    
     94500  -66391.074      368.84807     -66022.226      187.52191      192.92322      499.88719    
     94600  -66394.944      367.95515     -66026.988      187.51327      192.93351      500.05693    
     94700  -66409.458      360.85744     -66048.601      187.5046       192.94696      500.22667    
     94800  -66421.78       350.96553     -66070.814      187.49917      192.96092      500.39641    
     94900  -66425.102      345.33694     -66079.765      187.49055      192.97378      500.56615    
     95000  -66426.339      356.59429     -66069.745      187.48631      192.99008      500.73589    
     95100  -66422.732      367.14056     -66055.591      187.47746      192.99996      500.90563    
     95200  -66422.356      366.0066      -66056.35       187.4716       193.01631      501.07537    
     95300  -66431.961      359.28074     -66072.68       187.46271      193.03568      501.24512    
     95400  -66437.263      350.11575     -66087.147      187.45248      193.05822      501.41486    
     95500  -66437.67       351.91248     -66085.758      187.44489      193.08511      501.5846     
     95600  -66427.332      359.09479     -66068.237      187.43492      193.10674      501.75434    
     95700  -66411.743      363.43424     -66048.309      187.43334      193.13305      501.92408    
     95800  -66402.657      364.46905     -66038.188      187.43075      193.15445      502.09382    
     95900  -66404.175      360.6663      -66043.509      187.43477      193.18075      502.26356    
     96000  -66408.505      356.12332     -66052.382      187.43607      193.20545      502.4333     
     96100  -66401.388      346.42966     -66054.958      187.43634      193.23116      502.60304    
     96200  -66403.029      358.71235     -66044.316      187.43786      193.26032      502.77278    
     96300  -66398.252      368.63972     -66029.612      187.43954      193.28749      502.94253    
     96400  -66395.166      366.76761     -66028.398      187.44262      193.31435      503.11227    
     96500  -66404.917      361.52012     -66043.397      187.45009      193.34151      503.28201    
     96600  -66418.062      354.7186      -66063.343      187.45749      193.36123      503.45175    
     96700  -66426.232      351.81704     -66074.415      187.46698      193.37917      503.62149    
     96800  -66420.487      352.37202     -66068.115      187.47934      193.39379      503.79123    
     96900  -66412.319      360.57068     -66051.748      187.49454      193.40884      503.96097    
     97000  -66411.875      367.6015      -66044.274      187.50859      193.4233       504.13071    
     97100  -66413.325      359.73474     -66053.59       187.52377      193.44297      504.30045    
     97200  -66416.231      350.58688     -66065.644      187.53459      193.46595      504.47019    
     97300  -66415.558      348.47346     -66067.084      187.54531      193.49369      504.63994    
     97400  -66410.501      356.28563     -66054.215      187.55154      193.52155      504.80968    
     97500  -66403.509      367.30767     -66036.202      187.55861      193.54967      504.97942    
     97600  -66400.174      371.74277     -66028.431      187.56467      193.58195      505.14916    
     97700  -66398.244      361.9027      -66036.341      187.56742      193.61624      505.3189     
     97800  -66404.271      353.48092     -66050.79       187.57239      193.65545      505.48864    
     97900  -66407.476      347.61158     -66059.864      187.57248      193.69479      505.65838    
     98000  -66410.235      354.09069     -66056.144      187.57639      193.73855      505.82812    
     98100  -66410.887      364.37783     -66046.51       187.57528      193.78015      505.99786    
     98200  -66406.554      361.97043     -66044.583      187.57674      193.82609      506.1676     
     98300  -66414.972      361.38755     -66053.584      187.57627      193.87535      506.33734    
     98400  -66420.339      353.05861     -66067.28       187.5718       193.92474      506.50709    
     98500  -66426.431      354.44048     -66071.991      187.5698       193.97791      506.67683    
     98600  -66419.968      356.42662     -66063.542      187.56346      194.02836      506.84657    
     98700  -66410.678      361.52409     -66049.154      187.55771      194.08249      507.01631    
     98800  -66407.78       368.74574     -66039.034      187.54979      194.13841      507.18605    
     98900  -66405.121      366.0184      -66039.102      187.5416       194.19704      507.35579    
     99000  -66403.068      358.05538     -66045.013      187.53103      194.2568       507.52553    
     99100  -66400.836      353.09998     -66047.736      187.51842      194.31409      507.69527    
     99200  -66395.534      352.15735     -66043.377      187.50793      194.37164      507.86501    
     99300  -66390.499      357.49882     -66033          187.49575      194.42427      508.03475    
     99400  -66388.48       364.17345     -66024.307      187.48791      194.47778      508.2045     
     99500  -66390.89       365.01637     -66025.874      187.47908      194.52383      508.37424    
     99600  -66393.936      356.61833     -66037.317      187.47222      194.56766      508.54398    
     99700  -66402.856      356.35411     -66046.502      187.46655      194.60827      508.71372    
     99800  -66400.387      353.96317     -66046.424      187.45893      194.64487      508.88346    
     99900  -66399.107      358.60175     -66040.505      187.45437      194.68218      509.0532     
    100000  -66403.294      365.91945     -66037.375      187.44514      194.71523      509.22294    
    100100  -66400.251      357.74553     -66042.505      187.43682      194.74568      509.39268    
    100200  -66406.393      355.26282     -66051.131      187.42598      194.77169      509.56242    
    100300  -66408.085      351.61187     -66056.473      187.41847      194.79915      509.73216    
    100400  -66406.542      354.45434     -66052.088      187.41106      194.82346      509.90191    
    100500  -66401.867      361.5493      -66040.317      187.40243      194.84678      510.07165    
    100600  -66397.29       365.52061     -66031.77       187.39561      194.87257      510.24139    
    100700  -66391.858      358.82101     -66033.037      187.38344      194.89413      510.41113    
    100800  -66390.103      352.03614     -66038.067      187.37594      194.92032      510.58087    
    100900  -66393.414      354.84355     -66038.571      187.36437      194.94319      510.75061    
    101000  -66393.878      358.61523     -66035.262      187.35702      194.97155      510.92035    
    101100  -66391.312      358.37735     -66032.934      187.34667      194.9981       511.09009    
    101200  -66397.403      361.89478     -66035.508      187.33296      195.02572      511.25983    
    101300  -66401.639      358.67042     -66042.968      187.3229       195.05728      511.42957    
    101400  -66403.524      351.1839      -66052.34       187.30725      195.08294      511.59932    
    101500  -66415.678      357.82531     -66057.853      187.29754      195.11382      511.76906    
    101600  -66414.659      357.47022     -66057.188      187.28589      195.1429       511.9388     
    101700  -66414.38       360.18453     -66054.196      187.27635      195.17333      512.10854    
    101800  -66416.487      361.82887     -66054.658      187.26707      195.20372      512.27828    
    101900  -66422.979      362.14879     -66060.83       187.2552       195.23406      512.44802    
    102000  -66423.702      353.74709     -66069.955      187.24583      195.26892      512.61776    
    102100  -66424.079      353.32888     -66070.75       187.23125      195.2998       512.7875     
    102200  -66415.195      354.87202     -66060.323      187.2237