LAMMPS (2 Aug 2023 - Update 3)
OMP_NUM_THREADS environment is not set. Defaulting to 1 thread. (src/comm.cpp:98)
  using 1 OpenMP thread(s) per MPI task

# 1------general---------------
units                             metal      #单位为lammps 中的metel 类型
dimension                    3          #模拟的维度 三维
boundary                    p p p      #周期边界条件
atom_style                  atomic   #原子类型自动
atom_modify              map array sort 100 2.0
neighbor                    3.0 bin
neigh_modify            every 1 delay 0 check yes
#2 -----global variable-------定义全局变量，方便统一修改；
variable temperature equal 300
variable tstep equal 0.001
variable pressure equal 0
variable thermalstep equal 100
variable dumpstep equal 1000
variable relaxtime equal 0
variable totaltime equal 200000
variable deformrate equal 5e-3
#3 -------model------------
#box tilt large
read_data     1.lmp
Reading data file ...
  orthogonal box = (-100 -100 -2.3312515) to (100 100 46.166171)
  4 by 4 by 1 MPI processor grid
  reading atoms ...
  1320 atoms
  read_data CPU = 0.508 seconds
group sr type 2 3
360 atoms in group sr
delete_atoms group sr
Deleted 360 atoms, new total = 960
replicate 1 1 19
Replication is creating a 1x1x19 = 19 times larger system...
  orthogonal box = (-100 -100 -2.3312515) to (100 100 919.11979)
  1 by 2 by 8 MPI processor grid
  18240 atoms
  replicate CPU = 0.524 seconds
write_data z.data
System init for write_data ...
WARNING: Communication cutoff is 0.0. No ghost atoms will be generated. Atoms may get lost. (src/comm_brick.cpp:210)
pair_style hybrid airebo 3.0 airebo 3.0 airebo 3.0 lj/cut 10
pair_coeff * * airebo 1 CH.airebo C NULL NULL
Reading airebo potential file CH.airebo with DATE: 2011-10-25
pair_coeff * * airebo 2 CH.airebo NULL C NULL
Reading airebo potential file CH.airebo with DATE: 2011-10-25
pair_coeff * * airebo 3 CH.airebo NULL NULL C
Reading airebo potential file CH.airebo with DATE: 2011-10-25
pair_coeff 1 2 lj/cut 0.00456 3.431
pair_coeff 1 3 lj/cut 0.00456 3.431
pair_coeff 2 3 lj/cut 0.00456 3.431

# 5------minimize -----------
min_style      sd
minimize       1.0e-4 1.0e-6 100 1000
Neighbor list info ...
  update: every = 1 steps, delay = 0 steps, check = yes
  max neighbors/atom: 2000, page size: 100000
  master list distance cutoff = 13.2
  ghost atom cutoff = 13.2
  binsize = 6.6, bins = 31 31 140
  6 neighbor lists, perpetual/occasional/extra = 6 0 0
  (1) pair airebo, perpetual, skip from (5)
      attributes: full, newton on, ghost
      pair build: skip/ghost
      stencil: none
      bin: none
  (2) pair airebo, perpetual, skip from (5)
      attributes: full, newton on, ghost
      pair build: skip/ghost
      stencil: none
      bin: none
  (3) pair airebo, perpetual, skip from (5)
      attributes: full, newton on, ghost
      pair build: skip/ghost
      stencil: none
      bin: none
  (4) pair lj/cut, perpetual, skip from (6)
      attributes: half, newton on, cut 13
      pair build: skip
      stencil: none
      bin: none
  (5) neighbor class addition, perpetual
      attributes: full, newton on, ghost
      pair build: full/bin/ghost
      stencil: full/ghost/bin/3d
      bin: standard
  (6) neighbor class addition, perpetual
      attributes: half, newton on, cut 13
      pair build: half/bin/atomonly/newton
      stencil: half/bin/3d
      bin: standard
Per MPI rank memory allocation (min/avg/max) = 12.88 | 12.88 | 12.88 Mbytes
   Step          Temp          E_pair         E_mol          TotEng         Press     
         0   0             -135116.15      0             -135116.15     -25.745857    
         1   0             -135116.48      0             -135116.48     -25.739335    
Loop time of 0.905999 on 16 procs for 1 steps with 18240 atoms

46.4% CPU use with 16 MPI tasks x 1 OpenMP threads

Minimization stats:
  Stopping criterion = energy tolerance
  Energy initial, next-to-last, final = 
     -135116.146432576  -135116.146432576   -135116.48128082
  Force two-norm initial, final = 9.4411768 0.95117986
  Force max component initial, final = 0.069876905 0.0070494245
  Final line search alpha, max atom move = 1 0.0070494245
  Iterations, force evaluations = 1 2

MPI task timing breakdown:
Section |  min time  |  avg time  |  max time  |%varavg| %total
---------------------------------------------------------------
Pair    | 0.073867   | 0.078      | 0.083542   |   0.9 |  8.61
Neigh   | 0          | 0          | 0          |   0.0 |  0.00
Comm    | 0.069788   | 0.1408     | 0.20615    |   9.6 | 15.54
Output  | 0          | 0          | 0          |   0.0 |  0.00
Modify  | 0          | 0          | 0          |   0.0 |  0.00
Other   |            | 0.6872     |            |       | 75.85

Nlocal:           1140 ave        1188 max        1092 min
Histogram: 8 0 0 0 0 0 0 0 0 8
Nghost:           1644 ave        1692 max        1596 min
Histogram: 8 0 0 0 0 0 0 0 0 8
Neighs:              0 ave           0 max           0 min
Histogram: 16 0 0 0 0 0 0 0 0 0

Total # of neighbors = 0
Ave neighs/atom = 0
Neighbor list builds = 0
Dangerous builds = 0
#6----define computes------
variable nums equal count(all) #计算原子数目
variable toval equal 16.0428*16.0428*lz #计算系统总体积，单层石墨烯厚度为0.335nm
variable vol equal ${toval} #体系的初始体积
variable vol equal 237155.172763143 
variable vatom equal v_vol/v_nums #单个原子体积
compute 1 all stress/atom NULL #计算体系中单原子应力
compute xalls all reduce sum c_1[1]
variable xstress equal (c_xalls)/(v_toval*10000)
compute yalls all reduce sum c_1[2]
variable ystress equal (c_yalls)/(v_toval*10000)
compute zalls all reduce sum c_1[3]
variable zstress equal (c_zalls)/(v_toval*10000)
#7---------relaxation-------------------------
timestep ${tstep}
timestep 0.001
velocity all create ${temperature} 231743 units box dist gaussian
velocity all create 300 231743 units box dist gaussian
dump   1 all atom 100 all-cy.lammpstrj
#fix    1 all npt temp 300 300  0.1 aniso 0 0 10 drag 1  #三个方向独立控压
fix  1 all npt temp ${temperature} ${temperature} 0.1 x ${pressure} ${pressure} 10 y ${pressure} ${pressure} 10
fix  1 all npt temp 300 ${temperature} 0.1 x ${pressure} ${pressure} 10 y ${pressure} ${pressure} 10
fix  1 all npt temp 300 300 0.1 x ${pressure} ${pressure} 10 y ${pressure} ${pressure} 10
fix  1 all npt temp 300 300 0.1 x 0 ${pressure} 10 y ${pressure} ${pressure} 10
fix  1 all npt temp 300 300 0.1 x 0 0 10 y ${pressure} ${pressure} 10
fix  1 all npt temp 300 300 0.1 x 0 0 10 y 0 ${pressure} 10
fix  1 all npt temp 300 300 0.1 x 0 0 10 y 0 0 10
compute  2 all pe/atom
compute  pe all reduce sum c_2
variable PE equal "c_pe"
fix    pe all print 100 "${PE} " file PE.txt screen no
thermo  ${thermalstep}
thermo  100
#thermo_style  custom step pe ke etotal lx ly lz
run   ${relaxtime}
run   0
Per MPI rank memory allocation (min/avg/max) = 13.5 | 13.5 | 13.5 Mbytes
   Step          Temp          E_pair         E_mol          TotEng         Press          Volume    
         1   300           -135116.48      0             -134409.21     -5.2431157      36858041     
Loop time of 0.0402467 on 16 procs for 0 steps with 18240 atoms

42.8% CPU use with 16 MPI tasks x 1 OpenMP threads

MPI task timing breakdown:
Section |  min time  |  avg time  |  max time  |%varavg| %total
---------------------------------------------------------------
Pair    | 0          | 0          | 0          |   0.0 |  0.00
Neigh   | 0          | 0          | 0          |   0.0 |  0.00
Comm    | 0          | 0          | 0          |   0.0 |  0.00
Output  | 0          | 0          | 0          |   0.0 |  0.00
Modify  | 0          | 0          | 0          |   0.0 |  0.00
Other   |            | 0.04025    |            |       |100.00

Nlocal:           1140 ave        1140 max        1140 min
Histogram: 16 0 0 0 0 0 0 0 0 0
Nghost:           1644 ave        1644 max        1644 min
Histogram: 16 0 0 0 0 0 0 0 0 0
Neighs:              0 ave           0 max           0 min
Histogram: 16 0 0 0 0 0 0 0 0 0

Total # of neighbors = 0
Ave neighs/atom = 0
Neighbor list builds = 0
Dangerous builds = 0
#8 -------tension-----------------------------
unfix  1
undump  1
unfix  pe
reset_timestep 0
fix avestress all ave/atom 1 ${dumpstep} ${dumpstep} c_1[1] c_1[2] c_1[3] c_1[4] c_1[5] c_1[6]
fix avestress all ave/atom 1 1000 ${dumpstep} c_1[1] c_1[2] c_1[3] c_1[4] c_1[5] c_1[6]
fix avestress all ave/atom 1 1000 1000 c_1[1] c_1[2] c_1[3] c_1[4] c_1[5] c_1[6]

#-----calculation of strain and Cumulative compression--------
variable                tmp equal "lz"
variable                L0 equal ${tmp}
variable                L0 equal 921.451037
variable                strain equal "(lz - v_L0)/v_L0"
variable                Cumulativels equal "(lz - v_L0)/10"
fix Step all print 100 "${strain} ${Cumulativels} ${zstress}" file grapoten.txt screen no

dump 2 all custom ${dumpstep} tension.xyz type x y z f_avestress[1] f_avestress[2] f_avestress[3] f_avestress[4] f_avestress[5] f_avestress[6]
dump 2 all custom 1000 tension.xyz type x y z f_avestress[1] f_avestress[2] f_avestress[3] f_avestress[4] f_avestress[5] f_avestress[6]

fix  1 all npt temp ${temperature} ${temperature} 0.1 y ${pressure} ${pressure} 10 x ${pressure} ${pressure} 10
fix  1 all npt temp 300 ${temperature} 0.1 y ${pressure} ${pressure} 10 x ${pressure} ${pressure} 10
fix  1 all npt temp 300 300 0.1 y ${pressure} ${pressure} 10 x ${pressure} ${pressure} 10
fix  1 all npt temp 300 300 0.1 y 0 ${pressure} 10 x ${pressure} ${pressure} 10
fix  1 all npt temp 300 300 0.1 y 0 0 10 x ${pressure} ${pressure} 10
fix  1 all npt temp 300 300 0.1 y 0 0 10 x 0 ${pressure} 10
fix  1 all npt temp 300 300 0.1 y 0 0 10 x 0 0 10

thermo_style custom step pe ke etotal lx ly lz
fix   2 all deform 1 z erate ${deformrate} remap x units box
fix   2 all deform 1 z erate 0.005 remap x units box
fix   3 all ave/time 2 500 1000 v_xstress v_ystress v_zstress file pressure.out
run   ${totaltime}
run   200000
WARNING: Dump 2 includes no atom IDs and is not sorted by ID. This may complicate post-processing tasks or visualization (src/dump.cpp:221)
Per MPI rank memory allocation (min/avg/max) = 15 | 15 | 15 Mbytes
   Step         PotEng         KinEng         TotEng           Lx             Ly             Lz      
         0  -135116.48      707.27274     -134409.21      200            200            921.45104    
       100  -134710.9       348.82204     -134362.08      199.99851      199.99897      921.91176    
       200  -134723.95      425.78987     -134298.16      199.99664      199.99768      922.37249    
       300  -134657.31      435.06827     -134222.24      199.99761      199.99942      922.83321    
       400  -134627.78      489.139       -134138.64      199.99339      199.99662      923.29394    
       500  -134577.38      527.32541     -134050.06      199.99454      199.99963      923.75466    
       600  -134546.29      587.47081     -133958.82      199.99002      199.99812      924.21539    
       700  -134494.12      624.8042      -133869.32      199.98836      200.00015      924.67612    
       800  -134452.86      666.83063     -133786.03      199.98391      200.00007      925.13684    
       900  -134411.71      695.73138     -133715.98      199.98004      200.00179      925.59757    
      1000  -134392.8       725.57479     -133667.22      199.97629      200.00401      926.05829    
      1100  -134376.68      721.88552     -133654.79      199.97006      200.00529      926.51902    
      1200  -134396.03      717.02589     -133679         199.96496      200.00842      926.97974    
      1300  -134404         695.66732     -133708.33      199.95808      200.01057      927.44047    
      1400  -134400.51      684.10295     -133716.4       199.95054      200.01294      927.90119    
      1500  -134386.69      691.81455     -133694.87      199.94314      200.01608      928.36192    
      1600  -134380.33      717.22592     -133663.1       199.93481      200.01898      928.82265    
      1700  -134373.63      726.12554     -133647.5       199.92735      200.02314      929.28337    
      1800  -134362.61      706.62391     -133655.98      199.91707      200.0245       929.7441     
      1900  -134381.8       707.70249     -133674.09      199.90944      200.02874      930.20482    
      2000  -134382.61      701.5409      -133681.07      199.89973      200.03102      930.66555    
      2100  -134364.73      697.05269     -133667.67      199.88971      200.03248      931.12627    
      2200  -134354.9       713.52959     -133641.37      199.88179      200.03611      931.587      
      2300  -134342.4       721.2669      -133621.14      199.87108      200.03609      932.04772    
      2400  -134333.56      712.16078     -133621.4       199.86384      200.03912      932.50845    
      2500  -134337.4       703.26107     -133634.14      199.85334      200.03795      932.96917    
      2600  -134339.86      697.80133     -133642.05      199.84586      200.03902      933.4299     
      2700  -134329.14      695.96291     -133633.18      199.83726      200.03778      933.89063    
      2800  -134316.66      706.5571      -133610.11      199.82833      200.03524      934.35135    
      2900  -134300.44      713.05362     -133587.39      199.82219      200.03489      934.81208    
      3000  -134304.1       724.1346      -133579.97      199.81328      200.03113      935.2728     
      3100  -134300.75      712.71959     -133588.03      199.80662      200.02877      935.73353    
      3200  -134295.61      699.05404     -133596.56      199.7986       200.02418      936.19425    
      3300  -134287.86      696.98704     -133590.88      199.79123      200.01962      936.65498    
      3400  -134277.31      706.45366     -133570.85      199.78492      200.01543      937.1157     
      3500  -134257.93      709.95146     -133547.98      199.77616      200.00868      937.57643    
      3600  -134257.4       720.79247     -133536.61      199.77106      200.0053       938.03716    
      3700  -134248.86      709.5527      -133539.31      199.76171      199.99765      938.49788    
      3800  -134242.93      698.61211     -133544.32      199.75382      199.99205      938.95861    
      3900  -134239.36      701.01828     -133538.34      199.74607      199.98699      939.41933    
      4000  -134228.04      707.97619     -133520.07      199.73541      199.97959      939.88006    
      4100  -134214.54      716.81656     -133497.73      199.72733      199.97557      940.34078    
      4200  -134200.07      716.81856     -133483.25      199.71562      199.96863      940.80151    
      4300  -134195.52      713.29928     -133482.22      199.70572      199.96445      941.26223    
      4400  -134185.03      699.86281     -133485.17      199.69334      199.95884      941.72296    
      4500  -134184.88      704.08207     -133480.8       199.68009      199.95323      942.18369    
      4600  -134171.88      707.45772     -133464.42      199.66842      199.95036      942.64441    
      4700  -134159.27      716.79823     -133442.47      199.65263      199.94449      943.10514    
      4800  -134141.34      716.67191     -133424.66      199.63892      199.94174      943.56586    
      4900  -134131.61      713.16451     -133418.45      199.62363      199.93835      944.02659    
      5000  -134127.71      707.56471     -133420.14      199.60654      199.93396      944.48731    
      5100  -134125.56      707.36167     -133418.2       199.59086      199.93144      944.94804    
      5200  -134105.39      701.30795     -133404.08      199.57249      199.92676      945.40876    
      5300  -134093.13      712.96111     -133380.16      199.55592      199.92402      945.86949    
      5400  -134066.46      707.8671      -133358.59      199.53818      199.92037      946.33021    
      5500  -134058.18      711.258       -133346.92      199.51878      199.91518      946.79094    
      5600  -134053.78      709.05693     -133344.72      199.50251      199.91307      947.25167    
      5700  -134046.65      704.08071     -133342.56      199.482        199.90631      947.71239    
      5800  -134035.95      704.31869     -133331.63      199.46442      199.90205      948.17312    
      5900  -134021.1       711.58028     -133309.52      199.44588      199.89619      948.63384    
      6000  -133995.83      709.92583     -133285.9       199.42671      199.88904      949.09457    
      6100  -133980.99      709.41276     -133271.58      199.40951      199.88329      949.55529    
      6200  -133971.94      705.15592     -133266.78      199.38978      199.87411      950.01602    
      6300  -133970.23      707.08422     -133263.15      199.37264      199.86659      950.47674    
      6400  -133953.22      701.03434     -133252.18      199.35416      199.85711      950.93747    
      6500  -133940.16      709.41003     -133230.75      199.33524      199.84623      951.3982     
      6600  -133919.6       713.66359     -133205.94      199.31929      199.83772      951.85892    
      6700  -133907.69      718.79266     -133188.89      199.29986      199.82484      952.31965    
      6800  -133892.17      708.077       -133184.09      199.28326      199.81414      952.78037    
      6900  -133878.09      697.64958     -133180.44      199.26496      199.80116      953.2411     
      7000  -133874.08      707.11529     -133166.96      199.24644      199.78768      953.70182    
      7100  -133845.05      701.21388     -133143.84      199.22976      199.77599      954.16255    
      7200  -133833.77      715.35325     -133118.42      199.20935      199.76047      954.62327    
      7300  -133814.93      714.62206     -133100.31      199.1924       199.74822      955.084      
      7400  -133798.11      706.67888     -133091.43      199.172        199.73338      955.54473    
      7500  -133790.53      705.45599     -133085.08      199.15135      199.71839      956.00545    
      7600  -133774.8       701.66519     -133073.14      199.13233      199.70596      956.46618    
      7700  -133753.52      701.35782     -133052.17      199.10866      199.68994      956.9269     
      7800  -133735.36      708.8258      -133026.54      199.08789      199.67763      957.38763    
      7900  -133720.05      716.20764     -133003.85      199.06414      199.6633       957.84835    
      8000  -133704.55      713.29305     -132991.26      199.03978      199.64967      958.30908    
      8100  -133690.61      704.63975     -132985.97      199.01633      199.6376       958.7698     
      8200  -133679.51      703.97481     -132975.54      198.98865      199.62248      959.23053    
      8300  -133656.64      701.57417     -132955.07      198.96422      199.61129      959.69126    
      8400  -133632.93      705.19546     -132927.74      198.93603      199.5975       960.15198    
      8500  -133610.34      707.71177     -132902.63      198.90826      199.58484      960.61271    
      8600  -133597.99      710.04318     -132887.95      198.88096      199.57358      961.07343    
      8700  -133591.16      710.82402     -132880.33      198.84968      199.55892      961.53416    
      8800  -133569.12      699.55046     -132869.57      198.8221       199.54823      961.99488    
      8900  -133550         700.75399     -132849.25      198.79078      199.53406      962.45561    
      9000  -133527.03      706.24371     -132820.79      198.76072      199.52131      962.91633    
      9100  -133504.73      711.19965     -132793.53      198.73116      199.50876      963.37706    
      9200  -133488.61      714.76063     -132773.85      198.69818      199.4924       963.83778    
      9300  -133470.56      706.48077     -132764.08      198.66988      199.48049      964.29851    
      9400  -133461.03      706.81134     -132754.22      198.63733      199.46355      964.75924    
      9500  -133439.49      701.80257     -132737.69      198.60717      199.44827      965.21996    
      9600  -133416.79      706.15732     -132710.63      198.57696      199.43239      965.68069    
      9700  -133386.2       706.94617     -132679.25      198.54479      199.41357      966.14141    
      9800  -133366.97      712.30738     -132654.67      198.5168       199.39807      966.60214    
      9900  -133351.09      709.48479     -132641.6       198.48454      199.37694      967.06286    
     10000  -133337.81      704.43518     -132633.37      198.45551      199.35846      967.52359    
     10100  -133321.96      703.54823     -132618.41      198.42598      199.33877      967.98431    
     10200  -133294.19      701.5734      -132592.61      198.39422      199.31605      968.44504    
     10300  -133271.67      711.58558     -132560.08      198.36647      199.29719      968.90577    
     10400  -133244.81      712.94696     -132531.86      198.33467      199.27366      969.36649    
     10500  -133227.37      712.83259     -132514.54      198.30513      199.25211      969.82722    
     10600  -133210.05      707.01777     -132503.03      198.27491      199.22996      970.28794    
     10700  -133189.03      700.70447     -132488.32      198.24305      199.20622      970.74867    
     10800  -133170.87      705.29527     -132465.58      198.21382      199.18505      971.20939    
     10900  -133141.59      705.4765      -132436.12      198.1807       199.16039      971.67012    
     11000  -133112.93      704.86328     -132408.07      198.14987      199.1385       972.13084    
     11100  -133095.4       710.111       -132385.29      198.11748      199.11551      972.59157    
     11200  -133074.59      705.62103     -132368.97      198.08403      199.09229      973.0523     
     11300  -133054.74      701.42805     -132353.32      198.05198      199.07107      973.51302    
     11400  -133035.34      703.40424     -132331.93      198.01673      199.04776      973.97375    
     11500  -133015.84      712.18602     -132303.65      197.98334      199.02719      974.43447    
     11600  -132976.92      702.99582     -132273.93      197.94827      199.00573      974.8952     
     11700  -132959.56      710.0967      -132249.46      197.9122       198.98411      975.35592    
     11800  -132944.71      713.30439     -132231.41      197.87804      198.96498      975.81665    
     11900  -132921.75      705.90353     -132215.85      197.84068      198.94327      976.27737    
     12000  -132902.68      706.71226     -132195.96      197.80529      198.9241       976.7381     
     12100  -132869.64      701.71615     -132167.92      197.7691       198.90475      977.19882    
     12200  -132841.67      706.80925     -132134.86      197.73125      198.88441      977.65955    
     12300  -132826.7       721.38672     -132105.31      197.69641      198.86723      978.12028    
     12400  -132797.08      712.95026     -132084.13      197.65847      198.84692      978.581      
     12500  -132775.03      705.5272      -132069.51      197.62341      198.82916      979.04173    
     12600  -132752.07      700.43334     -132051.64      197.5875       198.81001      979.50245    
     12700  -132728.5       703.42718     -132025.07      197.55172      198.79035      979.96318    
     12800  -132702.23      711.20188     -131991.03      197.51841      198.77273      980.4239     
     12900  -132664.52      706.81746     -131957.7       197.4829       198.75212      980.88463    
     13000  -132644.22      712.0218      -131932.2       197.45041      198.73361      981.34535    
     13100  -132620.72      707.01568     -131913.71      197.41704      198.71357      981.80608    
     13200  -132603.08      708.59435     -131894.49      197.38463      198.69318      982.26681    
     13300  -132571.78      702.17338     -131869.61      197.35449      198.67381      982.72753    
     13400  -132543.75      705.47971     -131838.27      197.32277      198.65168      983.18826    
     13500  -132513.86      708.51191     -131805.35      197.29459      198.6319       983.64898    
     13600  -132492.91      715.9704      -131776.94      197.26542      198.61         984.10971    
     13700  -132468.46      713.0143      -131755.44      197.23696      198.58776      984.57043    
     13800  -132441.05      705.81961     -131735.23      197.21087      198.56708      985.03116    
     13900  -132411.78      701.54825     -131710.23      197.18311      198.54374      985.49188    
     14000  -132385.47      706.86957     -131678.6       197.15844      198.5233       985.95261    
     14100  -132354.16      709.28104     -131644.88      197.13237      198.50095      986.41334    
     14200  -132326.12      710.51232     -131615.61      197.10646      198.47905      986.87406    
     14300  -132297.82      706.18864     -131591.63      197.08266      198.45914      987.33479    
     14400  -132273.43      703.28071     -131570.15      197.05629      198.43707      987.79551    
     14500  -132252.6       706.20238     -131546.4       197.03299      198.41815      988.25624    
     14600  -132222.73      708.20941     -131514.52      197.00806      198.39804      988.71696    
     14700  -132181.31      706.09691     -131475.22      196.9833       198.37852      989.17769    
     14800  -132163.29      716.1387      -131447.15      196.95949      198.36089      989.63841    
     14900  -132136.66      711.53952     -131425.13      196.93372      198.34204      990.09914    
     15000  -132106.15      704.4024      -131401.75      196.90975      198.32556      990.55986    
     15100  -132076.01      703.89034     -131372.11      196.8848       198.30861      991.02059    
     15200  -132052.02      711.4292      -131340.59      196.86032      198.29281      991.48132    
     15300  -132015.75      705.99282     -131309.76      196.83651      198.27826      991.94204    
     15400  -131991.77      711.48025     -131280.29      196.81096      198.26277      992.40277    
     15500  -131956.26      702.71177     -131253.54      196.78717      198.24957      992.86349    
     15600  -131933.67      702.84984     -131230.82      196.76272      198.236        993.32422    
     15700  -131907.13      704.84258     -131202.29      196.73822      198.22273      993.78494    
     15800  -131870.37      706.01213     -131164.35      196.71476      198.21096      994.24567    
     15900  -131831.95      703.12585     -131128.83      196.69066      198.19835      994.70639    
     16000  -131809.14      710.07277     -131099.07      196.6676       198.18683      995.16712    
     16100  -131778.41      704.26842     -131074.14      196.64455      198.17486      995.62785    
     16200  -131753.84      698.36046     -131055.48      196.62211      198.16309      996.08857    
     16300  -131725.7       703.06834     -131022.64      196.60024      198.1511       996.5493     
     16400  -131682.96      697.76849     -130985.19      196.57933      198.13946      997.01002    
     16500  -131655.51      705.32679     -130950.19      196.55886      198.12735      997.47075    
     16600  -131626.24      709.8301      -130916.41      196.53889      198.11503      997.93147    
     16700  -131596.01      711.31169     -130884.69      196.52006      198.10284      998.3922     
     16800  -131561.72      703.64803     -130858.07      196.5011       198.08953      998.85292    
     16900  -131531.12      698.49074     -130832.63      196.48366      198.07691      999.31365    
     17000  -131506.9       706.1325      -130800.77      196.46672      198.06369      999.77438    
     17100  -131468.95      709.57316     -130759.38      196.45033      198.05002      1000.2351    
     17200  -131429.86      705.21368     -130724.65      196.43552      198.03688      1000.6958    
     17300  -131402.32      706.68057     -130695.64      196.41985      198.02214      1001.1566    
     17400  -131368.92      700.21271     -130668.71      196.40612      198.00873      1001.6173    
     17500  -131344.28      702.35497     -130641.93      196.39206      197.9944       1002.078     
     17600  -131316.23      694.86984     -130621.36      196.3787       197.98023      1002.5387    
     17700  -131287.09      701.39028     -130585.7       196.3661       197.96638      1002.9995    
     17800  -131247.77      704.84075     -130542.93      196.35338      197.9522       1003.4602    
     17900  -131209.71      705.74274     -130503.96      196.34163      197.93904      1003.9209    
     18000  -131175.16      707.80295     -130467.36      196.32908      197.92513      1004.3816    
     18100  -131147.76      713.31872     -130434.44      196.31728      197.91217      1004.8424    
     18200  -131113.45      704.3423      -130409.11      196.30527      197.89947      1005.3031    
     18300  -131087.77      705.37008     -130382.4       196.29271      197.88651      1005.7638    
     18400  -131051.21      706.4868      -130344.73      196.2812       197.87508      1006.2245    
     18500  -131014.83      711.68679     -130303.14      196.2686       197.86313      1006.6853    
     18600  -130975.83      707.45252     -130268.38      196.25637      197.85216      1007.146     
     18700  -130940.85      706.94092     -130233.91      196.2436       197.84165      1007.6067    
     18800  -130908.96      709.4864      -130199.47      196.23046      197.83165      1008.0674    
     18900  -130879.55      712.55341     -130167         196.21712      197.82225      1008.5282    
     19000  -130838.65      701.91757     -130136.73      196.20324      197.81303      1008.9889    
     19100  -130807         702.32817     -130104.68      196.18945      197.80455      1009.4496    
     19200  -130776.6       711.82144     -130064.77      196.17565      197.79646      1009.9103    
     19300  -130730.85      709.07306     -130021.77      196.16112      197.78847      1010.3711    
     19400  -130691.5       704.75432     -129986.75      196.14665      197.78091      1010.8318    
     19500  -130662.12      705.86402     -129956.26      196.13168      197.77338      1011.2925    
     19600  -130636.26      704.42066     -129931.84      196.11715      197.76611      1011.7532    
     19700  -130598.41      697.57769     -129900.83      196.10175      197.75823      1012.214     
     19800  -130565.07      703.89337     -129861.18      196.08724      197.75115      1012.6747    
     19900  -130522.43      703.59806     -129818.84      196.07263      197.74381      1013.1354    
     20000  -130486.26      709.48963     -129776.77      196.05729      197.73554      1013.5961    
     20100  -130449.9       711.22427     -129738.67      196.0435       197.72828      1014.0569    
     20200  -130412.31      706.26326     -129706.05      196.02883      197.71948      1014.5176    
     20300  -130385.76      704.22416     -129681.53      196.01496      197.71073      1014.9783    
     20400  -130348.64      701.74678     -129646.89      196.00163      197.70212      1015.439     
     20500  -130305.56      700.85855     -129604.7       195.98824      197.69235      1015.8998    
     20600  -130276.16      710.953       -129565.21      195.97661      197.68359      1016.3605    
     20700  -130236.71      708.07345     -129528.63      195.9637       197.67274      1016.8212    
     20800  -130202.03      709.016       -129493.01      195.95219      197.66272      1017.2819    
     20900  -130160.34      706.57489     -129453.77      195.94104      197.65197      1017.7427    
     21000  -130122.7       714.212       -129408.49      195.92961      197.64044      1018.2034    
     21100  -130084.62      713.60363     -129371.02      195.92003      197.63008      1018.6641    
     21200  -130051.73      708.05818     -129343.67      195.90936      197.61769      1019.1248    
     21300  -130018.12      705.93411     -129312.18      195.89998      197.60625      1019.5856    
     21400  -129982.68      707.92899     -129274.75      195.89049      197.59417      1020.0463    
     21500  -129942.69      710.59545     -129232.09      195.8806       197.58123      1020.507     
     21600  -129899.86      712.2892      -129187.57      195.87241      197.57013      1020.9677    
     21700  -129861.23      713.68597     -129147.54      195.86214      197.55684      1021.4285    
     21800  -129826.55      704.53131     -129122.02      195.85336      197.54515      1021.8892    
     21900  -129787.33      697.32081     -129090.01      195.84441      197.53339      1022.3499    
     22000  -129749.01      701.26551     -129047.75      195.83446      197.52064      1022.8107    
     22100  -129707.43      705.7601      -129001.67      195.82583      197.51002      1023.2714    
     22200  -129674.75      714.02993     -128960.72      195.81494      197.49773      1023.7321    
     22300  -129631.61      707.39877     -128924.21      195.80486      197.48683      1024.1928    
     22400  -129599.14      705.62096     -128893.52      195.79453      197.47661      1024.6536    
     22500  -129562.82      700.76969     -128862.05      195.78271      197.4656       1025.1143    
     22600  -129518.76      702.46525     -128816.29      195.772        197.45621      1025.575     
     22700  -129478.79      707.74572     -128771.04      195.75957      197.44604      1026.0357    
     22800  -129440.29      710.2442      -128730.04      195.7469       197.43631      1026.4965    
     22900  -129396.71      706.77862     -128689.93      195.73495      197.4279       1026.9572    
     23000  -129357.02      707.6937      -128649.33      195.72071      197.41791      1027.4179    
     23100  -129315.37      706.63924     -128608.73      195.70836      197.41017      1027.8786    
     23200  -129277.27      706.4115      -128570.86      195.69397      197.40106      1028.3394    
     23300  -129241.05      704.51228     -128536.54      195.67948      197.39232      1028.8001    
     23400  -129200.1       697.83875     -128502.27      195.66639      197.38517      1029.2608    
     23500  -129162.09      702.92023     -128459.17      195.65028      197.37512      1029.7215    
     23600  -129116.27      707.62591     -128408.65      195.63723      197.36812      1030.1823    
     23700  -129077.93      709.75116     -128368.18      195.62227      197.35909      1030.643     
     23800  -129047.17      714.32305     -128332.85      195.60718      197.34981      1031.1037    
     23900  -129001.41      701.90055     -128299.51      195.59404      197.34229      1031.5644    
     24000  -128962.57      701.29132     -128261.28      195.57836      197.3316       1032.0252    
     24100  -128915.84      703.01165     -128212.83      195.56527      197.32301      1032.4859    
     24200  -128875.79      710.97491     -128164.81      195.55116      197.31274      1032.9466    
     24300  -128837.72      714.64364     -128123.08      195.53684      197.30146      1033.4073    
     24400  -128790.73      703.84704     -128086.88      195.52449      197.29165      1033.8681    
     24500  -128757.66      703.48757     -128054.17      195.51015      197.27938      1034.3288    
     24600  -128718.33      702.19095     -128016.14      195.49776      197.26831      1034.7895    
     24700  -128668.29      703.71103     -127964.58      195.48523      197.25636      1035.2502    
     24800  -128632.98      715.70731     -127917.27      195.47174      197.24234      1035.711     
     24900  -128580.21      701.76443     -127878.44      195.46085      197.23056      1036.1717    
     25000  -128551.38      709.11973     -127842.26      195.44714      197.21505      1036.6324    
     25100  -128506.92      700.19871     -127806.72      195.4361       197.20164      1037.0931    
     25200  -128467.66      703.47091     -127764.19      195.42424      197.18719      1037.5539    
     25300  -128423.96      712.20674     -127711.75      195.41186      197.17177      1038.0146    
     25400  -128385.84      718.16265     -127667.68      195.40153      197.15821      1038.4753    
     25500  -128336.17      706.07844     -127630.09      195.38799      197.14124      1038.936     
     25600  -128300.21      703.3862      -127596.83      195.37693      197.12666      1039.3968    
     25700  -128259.08      702.20469     -127556.87      195.36501      197.11131      1039.8575    
     25800  -128208.42      708.12923     -127500.29      195.35162      197.09496      1040.3182    
     25900  -128170.44      714.28179     -127456.16      195.34094      197.08165      1040.7789    
     26000  -128132.59      713.43511     -127419.15      195.32662      197.0652       1041.2397    
     26100  -128083.42      699.56225     -127383.86      195.31355      197.05048      1041.7004    
     26200  -128045.82      703.61507     -127342.2       195.3006       197.0365       1042.1611    
     26300  -128002.92      713.20851     -127289.71      195.28542      197.02087      1042.6218    
     26400  -127951.66      708.95057     -127242.71      195.2722       197.00823      1043.0826    
     26500  -127911.57      708.99407     -127202.57      195.25661      196.99376      1043.5433    
     26600  -127868.54      703.29953     -127165.24      195.2412       196.98073      1044.004     
     26700  -127827.91      702.14684     -127125.77      195.22585      196.96818      1044.4648    
     26800  -127788.49      710.88255     -127077.61      195.2084       196.95448      1044.9255    
     26900  -127731.57      706.74992     -127024.82      195.19303      196.94339      1045.3862    
     27000  -127693.83      712.45827     -126981.37      195.17556      196.93072      1045.8469    
     27100  -127654.28      709.92558     -126944.35      195.15765      196.91837      1046.3077    
     27200  -127611.16      703.21673     -126907.94      195.14079      196.90761      1046.7684    
     27300  -127568.27      706.23118     -126862.04      195.12141      196.8946       1047.2291    
     27400  -127512.77      707.58837     -126805.18      195.10365      196.88348      1047.6898    
     27500  -127469.71      708.51726     -126761.19      195.08505      196.87146      1048.1506    
     27600  -127428.97      706.61593     -126722.36      195.06554      196.85842      1048.6113    
     27700  -127383.81      699.51914     -126684.29      195.04771      196.84705      1049.072     
     27800  -127347.31      707.95972     -126639.35      195.02754      196.83255      1049.5327    
     27900  -127290.04      706.03109     -126584.01      195.00988      196.82041      1049.9935    
     28000  -127246.2       707.95454     -126538.25      194.99112      196.80656      1050.4542    
     28100  -127206.86      708.98668     -126497.87      194.9716       196.79088      1050.9149    
     28200  -127166.24      706.60672     -126459.63      194.95535      196.77778      1051.3756    
     28300  -127122.42      702.45635     -126419.96      194.93584      196.76042      1051.8364    
     28400  -127077.12      695.69451     -126381.43      194.91908      196.74502      1052.2971    
     28500  -127032.34      700.88458     -126331.46      194.90211      196.72884      1052.7578    
     28600  -126977.64      700.30426     -126277.33      194.88435      196.71082      1053.2185    
     28700  -126935.3       706.76664     -126228.54      194.86923      196.69461      1053.6793    
     28800  -126890.18      707.58182     -126182.6       194.85187      196.67553      1054.14      
     28900  -126849.78      709.45962     -126140.32      194.83637      196.65737      1054.6007    
     29000  -126806.59      702.96391     -126103.63      194.8209       196.63889      1055.0614    
     29100  -126768.39      706.15834     -126062.23      194.80478      196.6191       1055.5222    
     29200  -126710.93      701.8116      -126009.12      194.79027      196.60087      1055.9829    
     29300  -126667.99      711.35736     -125956.63      194.77455      196.58078      1056.4436    
     29400  -126618.46      705.80461     -125912.66      194.75952      196.56169      1056.9043    
     29500  -126576.77      705.8426      -125870.93      194.74409      196.54208      1057.3651    
     29600  -126535.83      705.82352     -125830.01      194.72838      196.52263      1057.8258    
     29700  -126488.56      701.99664     -125786.57      194.71305      196.5038       1058.2865    
     29800  -126438.24      706.58887     -125731.65      194.69714      196.48462      1058.7472    
     29900  -126389.85      709.95446     -125679.9       194.6813       196.46624      1059.208     
     30000  -126344.1       710.51939     -125633.59      194.6647       196.44773      1059.6687    
     30100  -126300.89      708.98952     -125591.9       194.64743      196.42953      1060.1294    
     30200  -126254.72      699.54742     -125555.17      194.63035      196.41237      1060.5901    
     30300  -126216.32      705.2258      -125511.09      194.61265      196.39495      1061.0509    
     30400  -126158.27      705.33114     -125452.94      194.59413      196.37776      1061.5116    
     30500  -126113.97      711.0154      -125402.96      194.57627      196.3618       1061.9723    
     30600  -126064.59      709.93552     -125354.66      194.55653      196.34476      1062.433     
     30700  -126015.24      708.72658     -125306.51      194.53728      196.32907      1062.8938    
     30800  -125965.54      706.83262     -125258.71      194.5177       196.31359      1063.3545    
     30900  -125922.94      710.54576     -125212.39      194.49693      196.29751      1063.8152    
     31000  -125874.63      703.64844     -125170.98      194.47765      196.2833       1064.2759    
     31100  -125833.36      702.7655      -125130.6       194.456        196.26711      1064.7367    
     31200  -125781.95      698.73681     -125083.21      194.43535      196.25211      1065.1974    
     31300  -125732.42      707.90853     -125024.51      194.41475      196.23745      1065.6581    
     31400  -125684.93      709.51696     -124975.41      194.39284      196.22202      1066.1188    
     31500  -125644.47      713.47067     -124931         194.37246      196.20782      1066.5796    
     31600  -125594.62      704.98443     -124889.64      194.35095      196.19233      1067.0403    
     31700  -125545.15      696.39794     -124848.76      194.33004      196.17696      1067.501     
     31800  -125499.7       699.9303      -124799.77      194.31006      196.16175      1067.9618    
     31900  -125451.4       710.59556     -124740.81      194.28912      196.14503      1068.4225    
     32000  -125396.24      706.52994     -124689.71      194.26988      196.12935      1068.8832    
     32100  -125350.51      709.84835     -124640.66      194.24933      196.11197      1069.3439    
     32200  -125296.37      704.05717     -124592.31      194.2299       196.09502      1069.8047    
     32300  -125256.1       711.08981     -124545.01      194.21142      196.07802      1070.2654    
     32400  -125209.55      710.01698     -124499.54      194.19194      196.05891      1070.7261    
     32500  -125161.52      704.84271     -124456.68      194.17455      196.04091      1071.1868    
     32600  -125112.34      702.20779     -124410.13      194.15599      196.02107      1071.6476    
     32700  -125058.67      704.21704     -124354.45      194.13835      196.00186      1072.1083    
     32800  -125010.65      711.19506     -124299.45      194.12059      195.98231      1072.569     
     32900  -124965.22      712.7609      -124252.46      194.10259      195.96204      1073.0297    
     33000  -124917.86      707.93069     -124209.93      194.08588      195.94207      1073.4905    
     33100  -124866.5       697.06906     -124169.43      194.06862      195.92089      1073.9512    
     33200  -124831.44      699.4969      -124131.94      194.05202      195.90032      1074.4119    
     33300  -124782.44      700.34882     -124082.09      194.03502      195.88003      1074.8726    
     33400  -124722.44      701.35287     -124021.09      194.01723      195.85893      1075.3334    
     33500  -124673.7       707.59518     -123966.1       194.00054      195.83883      1075.7941    
     33600  -124623.18      711.3793      -123911.8       193.98344      195.81824      1076.2548    
     33700  -124570.14      707.61203     -123862.53      193.96622      195.79721      1076.7155    
     33800  -124524.75      704.85417     -123819.89      193.94934      195.77717      1077.1763    
     33900  -124485.28      705.86319     -123779.42      193.93165      195.75687      1077.637     
     34000  -124434.92      704.98758     -123729.93      193.91367      195.73722      1078.0977    
     34100  -124375.89      705.10827     -123670.78      193.89582      195.71862      1078.5584    
     34200  -124328.95      708.94826     -123620         193.87762      195.69968      1079.0192    
     34300  -124281.24      708.94889     -123572.29      193.85905      195.68076      1079.4799    
     34400  -124226.06      702.01309     -123524.04      193.84141      195.66319      1079.9406    
     34500  -124179.16      703.77065     -123475.39      193.82213      195.64506      1080.4013    
     34600  -124124.25      703.87524     -123420.38      193.80237      195.62756      1080.8621    
     34700  -124077.9       713.40131     -123364.5       193.78388      195.61212      1081.3228    
     34800  -124028.67      712.78975     -123315.88      193.7626       195.59459      1081.7835    
     34900  -123983.18      705.40752     -123277.77      193.74343      195.57894      1082.2442    
     35000  -123936.81      704.38536     -123232.42      193.72326      195.56254      1082.705     
     35100  -123876.42      698.07502     -123178.34      193.70216      195.54592      1083.1657    
     35200  -123830.91      708.77397     -123122.13      193.68211      195.53141      1083.6264    
     35300  -123772.5       703.81496     -123068.68      193.65979      195.51487      1084.0871    
     35400  -123722.98      704.7564      -123018.23      193.63921      195.49995      1084.5479    
     35500  -123676.47      705.93987     -122970.53      193.61846      195.4843       1085.0086    
     35600  -123633.97      704.70193     -122929.27      193.5968       195.46731      1085.4693    
     35700  -123590.7       709.17322     -122881.52      193.57681      195.45208      1085.93      
     35800  -123529.7       706.89998     -122822.8       193.55597      195.43599      1086.3908    
     35900  -123471.71      703.53396     -122768.17      193.5347       195.41954      1086.8515    
     36000  -123424.72      707.1822      -122717.54      193.51452      195.40369      1087.3122    
     36100  -123375.93      707.91291     -122668.01      193.49416      195.38675      1087.7729    
     36200  -123328.22      709.0488      -122619.17      193.47458      195.36934      1088.2337    
     36300  -123279.85      708.48076     -122571.37      193.45587      195.35224      1088.6944    
     36400  -123229.38      707.09159     -122522.29      193.43652      195.33421      1089.1551    
     36500  -123178.41      710.20384     -122468.2       193.41806      195.31685      1089.6159    
     36600  -123115.58      704.81181     -122410.77      193.4003       195.29961      1090.0766    
     36700  -123064.21      706.53677     -122357.68      193.38168      195.28033      1090.5373    
     36800  -123025.44      709.41826     -122316.02      193.36565      195.2625       1090.998     
     36900  -122975.9       701.43365     -122274.46      193.34886      195.2434       1091.4588    
     37000  -122925.7       705.35199     -122220.35      193.33177      195.22386      1091.9195    
     37100  -122872.14      709.16595     -122162.98      193.31739      195.20676      1092.3802    
     37200  -122819.6       710.34929     -122109.25      193.30039      195.18697      1092.8409    
     37300  -122761.98      702.99276     -122058.99      193.28527      195.16821      1093.3017    
     37400  -122719.75      707.76554     -122011.99      193.27144      195.1501       1093.7624    
     37500  -122673.19      702.74951     -121970.44      193.25511      195.12919      1094.2231    
     37600  -122615.45      696.9812      -121918.47      193.2417       195.11171      1094.6838    
     37700  -122561.79      704.60126     -121857.19      193.22679      195.09311      1095.1446    
     37800  -122508.75      706.33213     -121802.42      193.21154      195.07424      1095.6053    
     37900  -122457.59      708.36043     -121749.23      193.19787      195.05698      1096.066     
     38000  -122406.23      709.61162     -121696.62      193.18257      195.03807      1096.5267    
     38100  -122354         710.10244     -121643.89      193.1681       195.0203       1096.9875    
     38200  -122302.15      710.5968      -121591.55      193.15346      195.00339      1097.4482    
     38300  -122249.71      706.92332     -121542.79      193.13735      194.98595      1097.9089    
     38400  -122204.31      706.76648     -121497.54      193.12223      194.97004      1098.3696    
     38500  -122151.55      701.54021     -121450.01      193.10602      194.95391      1098.8304    
     38600  -122099.67      708.61483     -121391.06      193.08944      194.93774      1099.2911    
     38700  -122042.76      711.04623     -121331.71      193.07418      194.92345      1099.7518    
     38800  -121991.01      709.08877     -121281.92      193.05667      194.908        1100.2125    
     38900  -121937.69      702.40519     -121235.29      193.03946      194.89373      1100.6733    
     39000  -121893.63      704.36907     -121189.27      193.02306      194.88097      1101.134     
     39100  -121842.48      698.23041     -121144.25      193.0045       194.8664       1101.5947    
     39200  -121791.06      702.93709     -121088.12      192.98756      194.85397      1102.0554    
     39300  -121730.53      704.49868     -121026.03      192.97035      194.84115      1102.5162    
     39400  -121676.97      707.01372     -120969.95      192.95198      194.82755      1102.9769    
     39500  -121630.03      713.4088      -120916.63      192.93536      194.81605      1103.4376    
     39600  -121579.09      711.68839     -120867.4       192.91701      194.80297      1103.8983    
     39700  -121526.83      703.66627     -120823.16      192.89866      194.78974      1104.3591    
     39800  -121477.26      703.54993     -120773.71      192.88262      194.77844      1104.8198    
     39900  -121417.16      706.81053     -120710.35      192.8639       194.76425      1105.2805    
     40000  -121361.79      708.07716     -120653.72      192.84711      194.75179      1105.7412    
     40100  -121317.4       714.84655     -120602.55      192.83109      194.7399       1106.202     
     40200  -121263.12      707.46131     -120555.66      192.81271      194.72525      1106.6627    
     40300  -121212.52      701.40331     -120511.12      192.79741      194.7131       1107.1234    
     40400  -121161.53      700.30763     -120461.22      192.78104      194.69862      1107.5841    
     40500  -121102.36      706.47423     -120395.89      192.76444      194.6834       1108.0449    
     40600  -121045.91      707.60597     -120338.31      192.75071      194.67057      1108.5056    
     40700  -120989.82      706.10703     -120283.71      192.73398      194.65426      1108.9663    
     40800  -120942.38      707.91228     -120234.47      192.72014      194.64017      1109.427     
     40900  -120896.42      704.82201     -120191.6       192.70662      194.62539      1109.8878    
     41000  -120850.49      709.64572     -120140.84      192.69105      194.6075       1110.3485    
     41100  -120788.3       704.49241     -120083.8       192.67954      194.59349      1110.8092    
     41200  -120736.53      710.02038     -120026.51      192.66548      194.57645      1111.27      
     41300  -120684.11      710.01615     -119974.09      192.65207      194.55961      1111.7307    
     41400  -120627.66      704.65028     -119923.01      192.6412       194.54484      1112.1914    
     41500  -120582.12      708.89025     -119873.23      192.62738      194.5265       1112.6521    
     41600  -120526.45      702.85128     -119823.6       192.61637      194.51086      1113.1129    
     41700  -120478.81      708.987       -119769.82      192.60502      194.49506      1113.5736    
     41800  -120412.16      703.72184     -119708.44      192.592        194.47767      1114.0343    
     41900  -120363.58      712.78844     -119650.79      192.58175      194.46287      1114.495     
     42000  -120309.99      710.01563     -119599.97      192.56961      194.44601      1114.9558    
     42100  -120260.38      703.28673     -119557.1       192.55759      194.42963      1115.4165    
     42200  -120209.58      699.98229     -119509.6       192.54694      194.41503      1115.8772    
     42300  -120152.34      700.9565      -119451.38      192.53371      194.39877      1116.3379    
     42400  -120095.34      703.12026     -119392.22      192.52183      194.38435      1116.7987    
     42500  -120048.27      714.75216     -119333.52      192.50927      194.36958      1117.2594    
     42600  -119986.78      708.68599     -119278.09      192.49549      194.35402      1117.7201    
     42700  -119939.17      712.91533     -119226.25      192.4832       194.34063      1118.1808    
     42800  -119882.39      700.21447     -119182.18      192.46887      194.32629      1118.6416    
     42900  -119834         702.46338     -119131.53      192.45374      194.31228      1119.1023    
     43000  -119774.49      704.54073     -119069.95      192.44037      194.30042      1119.563     
     43100  -119718.34      707.05235     -119011.29      192.4244       194.28631      1120.0237    
     43200  -119672.66      714.29233     -118958.36      192.40934      194.27422      1120.4845    
     43300  -119614.94      705.45952     -118909.48      192.39366      194.26254      1120.9452    
     43400  -119567.45      705.14881     -118862.31      192.37607      194.24947      1121.4059    
     43500  -119517.94      700.247       -118817.69      192.36097      194.23912      1121.8666    
     43600  -119463.56      698.86023     -118764.7       192.34395      194.227        1122.3274    
     43700  -119402.93      705.03547     -118697.89      192.32659      194.21501      1122.7881    
     43800  -119345.09      705.83281     -118639.25      192.31102      194.20523      1123.2488    
     43900  -119297.52      714.59802     -118582.93      192.29299      194.19304      1123.7095    
     44000  -119241.41      707.26454     -118534.15      192.27668      194.18218      1124.1703    
     44100  -119190.25      702.25627     -118488         192.2606       194.17091      1124.631     
     44200  -119140.12      704.2116      -118435.91      192.24392      194.15905      1125.0917    
     44300  -119085.1       712.38607     -118372.71      192.22865      194.14855      1125.5524    
     44400  -119020.46      709.77165     -118310.69      192.21193      194.13658      1126.0132    
     44500  -118972.48      710.86887     -118261.62      192.19706      194.12543      1126.4739    
     44600  -118918.16      703.31016     -118214.85      192.18217      194.11359      1126.9346    
     44700  -118867.95      704.65759     -118163.29      192.16702      194.10063      1127.3953    
     44800  -118814.76      707.75751     -118107         192.15368      194.08918      1127.8561    
     44900  -118751.99      710.74378     -118041.25      192.13954      194.07667      1128.3168    
     45000  -118697.81      712.48579     -117985.32      192.12587      194.0635       1128.7775    
     45100  -118648.5       710.96186     -117937.54      192.11334      194.05052      1129.2382    
     45200  -118595.42      707.35133     -117888.07      192.1012       194.03695      1129.699     
     45300  -118545.22      710.71083     -117834.51      192.08919      194.02275      1130.1597    
     45400  -118484.38      705.71493     -117778.67      192.07757      194.00856      1130.6204    
     45500  -118434.62      716.17634     -117718.44      192.06653      193.99454      1131.0811    
     45600  -118374.44      717.67409     -117656.77      192.05516      193.97926      1131.5419    
     45700  -118317.9       709.07684     -117608.82      192.04461      193.96427      1132.0026    
     45800  -118264.96      701.54678     -117563.41      192.03453      193.94939      1132.4633    
     45900  -118217.14      706.83299     -117510.31      192.02329      193.93362      1132.924     
     46000  -118163.8       709.86239     -117453.94      192.01318      193.91897      1133.3848    
     46100  -118100.84      707.2085      -117393.63      192.00294      193.9039       1133.8455    
     46200  -118044.1       710.67166     -117333.43      191.99198      193.88791      1134.3062    
     46300  -117995.56      710.81805     -117284.74      191.98225      193.8736       1134.767     
     46400  -117948.33      708.56116     -117239.77      191.97156      193.85894      1135.2277    
     46500  -117886.28      700.44077     -117185.84      191.96078      193.8441       1135.6884    
     46600  -117832.2       706.23952     -117125.96      191.95026      193.83008      1136.1491    
     46700  -117786.74      721.47813     -117065.26      191.93841      193.81501      1136.6099    
     46800  -117720.26      712.03977     -117008.22      191.92773      193.8016       1137.0706    
     46900  -117669.24      706.89448     -116962.34      191.91606      193.7877       1137.5313    
     47000  -117616.83      703.28474     -116913.55      191.90317      193.77345      1137.992     
     47100  -117556.64      700.26351     -116856.37      191.8921       193.76145      1138.4528    
     47200  -117504.03      709.85582     -116794.18      191.8791       193.74814      1138.9135    
     47300  -117450.55      715.62406     -116734.92      191.86552      193.73473      1139.3742    
     47400  -117395.57      704.50498     -116691.06      191.85308      193.72365      1139.8349    
     47500  -117343.81      702.09514     -116641.72      191.8381       193.71052      1140.2957    
     47600  -117287.28      704.87469     -116582.4       191.82404      193.69881      1140.7564    
     47700  -117231.32      711.71017     -116519.61      191.81023      193.6877       1141.2171    
     47800  -117176.08      714.1481      -116461.93      191.79467      193.67519      1141.6778    
     47900  -117129.63      714.53988     -116415.09      191.78089      193.66506      1142.1386    
     48000  -117072.47      705.83332     -116366.63      191.76512      193.65365      1142.5993    
     48100  -117010.75      701.32874     -116309.42      191.74879      193.64184      1143.06      
     48200  -116954.13      706.27967     -116247.85      191.73452      193.63183      1143.5207    
     48300  -116895.39      707.37702     -116188.02      191.71812      193.61976      1143.9815    
     48400  -116846.93      709.1472      -116137.78      191.70212      193.60809      1144.4422    
     48500  -116798.49      706.18084     -116092.31      191.68784      193.59822      1144.9029    
     48600  -116744.53      707.45542     -116037.08      191.67131      193.58607      1145.3636    
     48700  -116683.99      704.06272     -115979.93      191.65606      193.57468      1145.8244    
     48800  -116632.44      711.43254     -115921.01      191.64187      193.56414      1146.2851    
     48900  -116568.24      704.61126     -115863.63      191.62631      193.5515       1146.7458    
     49000  -116520.34      706.53207     -115813.8       191.6123       193.53995      1147.2065    
     49100  -116473.54      708.60346     -115764.94      191.59843      193.52817      1147.6673    
     49200  -116414.99      706.83031     -115708.16      191.58344      193.51484      1148.128     
     49300  -116356.5       711.95888     -115644.54      191.57072      193.50316      1148.5887    
     49400  -116298.7       716.88855     -115581.81      191.55761      193.49045      1149.0494    
     49500  -116235.41      706.1849      -115529.22      191.54347      193.47618      1149.5102    
     49600  -116188.41      712.03538     -115476.37      191.5318       193.46436      1149.9709    
     49700  -116134.71      708.9953      -115425.71      191.51862      193.45019      1150.4316    
     49800  -116077.04      701.84909     -115375.19      191.50537      193.43496      1150.8923    
     49900  -116027.91      707.94053     -115319.97      191.49455      193.42168      1151.3531    
     50000  -115962.73      705.72376     -115257.01      191.48142      193.40562      1151.8138    
     50100  -115906.53      714.5346      -115192         191.46915      193.3906       1152.2745    
     50200  -115852.74      713.59195     -115139.15      191.45833      193.37651      1152.7352    
     50300  -115804.89      714.85357     -115090.04      191.44504      193.35921      1153.196     
     50400  -115747.45      711.05621     -115036.39      191.43417      193.34434      1153.6567    
     50500  -115688.82      704.34138     -114984.48      191.4223       193.32876      1154.1174    
     50600  -115635.31      704.56275     -114930.75      191.40858      193.3114       1154.5781    
     50700  -115575.7       702.56013     -114873.14      191.39758      193.29656      1155.0389    
     50800  -115517.64      706.30076     -114811.34      191.38542      193.28084      1155.4996    
     50900  -115469.89      718.68221     -114751.2       191.37117      193.2633       1155.9603    
     51000  -115417.02      714.7317      -114702.29      191.36031      193.24963      1156.4211    
     51100  -115358.69      706.40594     -114652.29      191.34646      193.23318      1156.8818    
     51200  -115302.7       706.14198     -114596.55      191.33252      193.21685      1157.3425    
     51300  -115238.14      700.34519     -114537.8       191.32098      193.20287      1157.8032    
     51400  -115190.8       711.17438     -114479.62      191.30619      193.18596      1158.264     
     51500  -115137.71      709.73283     -114427.98      191.29329      193.17152      1158.7247    
     51600  -115087.46      708.90656     -114378.56      191.28015      193.15746      1159.1854    
     51700  -115029.53      707.74884     -114321.78      191.26479      193.14154      1159.6461    
     51800  -114963.42      703.70128     -114259.72      191.25206      193.12822      1160.1069    
     51900  -114903.58      711.49957     -114192.08      191.23731      193.11358      1160.5676    
     52000  -114854.97      717.34364     -114137.62      191.22215      193.09917      1161.0283    
     52100  -114800.63      710.31885     -114090.31      191.20878      193.08702      1161.489     
     52200  -114744.74      708.47651     -114036.27      191.19289      193.07271      1161.9498    
     52300  -114691.64      707.74722     -113983.89      191.17807      193.05985      1162.4105    
     52400  -114638.22      707.87332     -113930.35      191.16357      193.04777      1162.8712    
     52500  -114580.26      706.53091     -113873.73      191.1469       193.03359      1163.3319    
     52600  -114518.81      709.23343     -113809.57      191.13256      193.02228      1163.7927    
     52700  -114457.96      714.32097     -113743.64      191.11673      193.00939      1164.2534    
     52800  -114396.21      704.79662     -113691.42      191.10083      192.99649      1164.7141    
     52900  -114352.34      711.24796     -113641.09      191.08585      192.98507      1165.1748    
     53000  -114295.93      708.59919     -113587.34      191.06955      192.97205      1165.6356    
     53100  -114242.4       708.41        -113533.99      191.05359      192.95947      1166.0963    
     53200  -114183.02      703.07169     -113479.95      191.03883      192.94797      1166.557     
     53300  -114131         704.7447      -113426.26      191.0221       192.93435      1167.0177    
     53400  -114080.71      703.01817     -113377.7       191.007        192.92225      1167.4785    
     53500  -114019.57      701.50302     -113318.07      190.99148      192.9094       1167.9392    
     53600  -113956.22      705.15708     -113251.06      190.97577      192.89627      1168.3999    
     53700  -113898.48      707.07282     -113191.41      190.96085      192.88341      1168.8606    
     53800  -113848.49      711.79492     -113136.7       190.946        192.87012      1169.3214    
     53900  -113789.55      704.88823     -113084.66      190.93123      192.85669      1169.7821    
     54000  -113732.36      702.99398     -113029.37      190.91703      192.84342      1170.2428    
     54100  -113678.73      708.84915     -112969.88      190.9015       192.82847      1170.7035    
     54200  -113620.53      710.9994      -112909.53      190.88728      192.81409      1171.1643    
     54300  -113557.02      702.04999     -112854.97      190.87429      192.80027      1171.625     
     54400  -113504.68      701.46041     -112803.22      190.85905      192.78441      1172.0857    
     54500  -113452.86      706.44557     -112746.41      190.84586      192.7699       1172.5464    
     54600  -113392.72      705.93954     -112686.78      190.83255      192.75539      1173.0072    
     54700  -113337.22      707.53134     -112629.69      190.81736      192.73853      1173.4679    
     54800  -113281.54      703.94822     -112577.59      190.80497      192.72398      1173.9286    
     54900  -113230.92      709.01564     -112521.9       190.79086      192.70728      1174.3893    
     55000  -113169.93      707.94718     -112461.98      190.77721      192.69111      1174.8501    
     55100  -113101.25      702.71645     -112398.54      190.76434      192.6757       1175.3108    
     55200  -113048.27      713.73906     -112334.53      190.74963      192.658        1175.7715    
     55300  -112993.82      712.21231     -112281.61      190.73737      192.64259      1176.2322    
     55400  -112938.41      707.55504     -112230.86      190.72368      192.62567      1176.693     
     55500  -112883.49      708.10991     -112175.38      190.70963      192.6084       1177.1537    
     55600  -112829.86      708.70725     -112121.15      190.69713      192.59286      1177.6144    
     55700  -112770.57      705.46595     -112065.1       190.68243      192.57506      1178.0752    
     55800  -112709.6       701.73869     -112007.86      190.66887      192.55844      1178.5359    
     55900  -112659.24      702.25402     -111956.99      190.65621      192.54284      1178.9966    
     56000  -112603.76      701.7527      -111902.01      190.64094      192.52484      1179.4573    
     56100  -112543.72      706.61081     -111837.1       190.62814      192.50959      1179.9181    
     56200  -112483.43      712.67926     -111770.75      190.61358      192.493        1180.3788    
     56300  -112426.1       711.80321     -111714.29      190.59889      192.47671      1180.8395    
     56400  -112374.78      709.70687     -111665.08      190.58619      192.46252      1181.3002    
     56500  -112313.28      705.45958     -111607.82      190.56981      192.4454       1181.761     
     56600  -112252.12      703.6305      -111548.49      190.55528      192.43034      1182.2217    
     56700  -112199.35      707.82938     -111491.52      190.54139      192.41631      1182.6824    
     56800  -112144.02      705.81206     -111438.21      190.52426      192.39999      1183.1431    
     56900  -112088.77      709.94727     -111378.82      190.51027      192.3871       1183.6039    
     57000  -112022.91      707.01448     -111315.89      190.49377      192.37182      1184.0646    
     57100  -111966.53      712.50816     -111254.02      190.47695      192.35655      1184.5253    
     57200  -111907.89      709.44206     -111198.45      190.46208      192.34369      1184.986     
     57300  -111849.79      705.03574     -111144.75      190.44451      192.32836      1185.4468    
     57400  -111794.83      707.26184     -111087.57      190.42738      192.31411      1185.9075    
     57500  -111737.43      708.05856     -111029.37      190.41145      192.30092      1186.3682    
     57600  -111681.03      706.785       -110974.24      190.39323      192.28558      1186.8289    
     57700  -111625.62      706.92946     -110918.69      190.37668      192.27177      1187.2897    
     57800  -111569.43      711.46243     -110857.97      190.35964      192.25784      1187.7504    
     57900  -111511.16      715.44443     -110795.72      190.34122      192.24263      1188.2111    
     58000  -111451.72      717.32841     -110734.39      190.32452      192.22955      1188.6718    
     58100  -111389.41      710.00615     -110679.41      190.30618      192.21429      1189.1326    
     58200  -111329.86      706.82901     -110623.03      190.28924      192.1998       1189.5933    
     58300  -111273.91      709.68117     -110564.23      190.27206      192.18558      1190.054     
     58400  -111214.3       707.30315     -110507         190.25402      192.17013      1190.5147    
     58500  -111157.19      710.58323     -110446.61      190.23677      192.15565      1190.9755    
     58600  -111099.85      713.44128     -110386.4       190.21973      192.14092      1191.4362    
     58700  -111035.33      707.79565     -110327.54      190.20242      192.12503      1191.8969    
     58800  -110980.69      709.94127     -110270.75      190.18642      192.11044      1192.3576    
     58900  -110923.87      712.03907     -110211.83      190.16919      192.09438      1192.8184    
     59000  -110862.97      709.1569      -110153.82      190.15339      192.07956      1193.2791    
     59100  -110800.38      705.29101     -110095.09      190.13726      192.06375      1193.7398    
     59200  -110747.94      712.0249      -110035.91      190.12102      192.04744      1194.2005    
     59300  -110689.32      713.12427     -109976.19      190.10642      192.03195      1194.6613    
     59400  -110622.61      705.77052     -109916.84      190.09059      192.015        1195.122     
     59500  -110572.77      716.17655     -109856.6       190.0757       191.99881      1195.5827    
     59600  -110506.47      708.72715     -109797.74      190.06094      191.9821       1196.0434    
     59700  -110452.27      714.06728     -109738.21      190.04653      191.96549      1196.5042    
     59800  -110391.29      712.68979     -109678.6       190.03202      191.94831      1196.9649    
     59900  -110322.46      703.76078     -109618.7       190.01756      191.93055      1197.4256    
     60000  -110270.24      710.51069     -109559.73      190.00419      191.91403      1197.8863    
     60100  -110212.75      712.27515     -109500.47      189.98956      191.8964       1198.3471    
     60200  -110153.54      713.31904     -109440.22      189.97557      191.87915      1198.8078    
     60300  -110089.33      708.27548     -109381.05      189.96198      191.86231      1199.2685    
     60400  -110028.52      707.47362     -109321.05      189.94689      191.84398      1199.7293    
     60500  -109973.49      713.57689     -109259.91      189.93412      191.82808      1200.19      
     60600  -109911.44      710.47317     -109200.96      189.91918      191.81018      1200.6507    
     60700  -109853.53      713.15556     -109140.37      189.90515      191.79336      1201.1114    
     60800  -109794.92      715.24098     -109079.67      189.89131      191.77715      1201.5722    
     60900  -109722.57      703.18543     -109019.38      189.87573      191.75948      1202.0329    
     61000  -109670.85      714.01998     -108956.83      189.86178      191.7435       1202.4936    
     61100  -109612.23      716.84434     -108895.39      189.84768      191.72779      1202.9543    
     61200  -109550.21      715.31104     -108834.9       189.83145      191.71013      1203.4151    
     61300  -109486.82      712.53693     -108774.28      189.81761      191.69501      1203.8758    
     61400  -109423.6       709.31343     -108714.28      189.80183      191.67865      1204.3365    
     61500  -109365.46      713.30207     -108652.16      189.78611      191.66276      1204.7972    
     61600  -109300.28      709.72568     -108590.56      189.77128      191.64791      1205.258     
     61700  -109236         706.8742      -108529.13      189.75395      191.63109      1205.7187    
     61800  -109174.43      707.8738      -108466.56      189.73967      191.61735      1206.1794    
     61900  -109120.6       715.39466     -108405.21      189.72264      191.6013       1206.6401    
     62000  -109051.29      708.66586     -108342.62      189.7053       191.58572      1207.1009    
     62100  -108990.87      711.44825     -108279.42      189.69008      191.57268      1207.5616    
     62200  -108926.64      709.38813     -108217.25      189.67084      191.55584      1208.0223    
     62300  -108864.66      710.98325     -108153.68      189.65519      191.54264      1208.483     
     62400  -108799.87      708.9274      -108090.94      189.63789      191.52767      1208.9438    
     62500  -108736.63      709.44102     -108027.19      189.6196       191.512        1209.4045    
     62600  -108679.28      713.3316      -107965.95      189.60461      191.49946      1209.8652    
     62700  -108614.27      710.18818     -107904.08      189.58526      191.48306      1210.3259    
     62800  -108551.2       709.66593     -107841.54      189.56931      191.46984      1210.7867    
     62900  -108488.75      710.39725     -107778.35      189.55182      191.4551       1211.2474    
     63000  -108421.2       707.20761     -107713.99      189.53427      191.4397       1211.7081    
     63100  -108361.53      710.99914     -107650.53      189.51932      191.42662      1212.1688    
     63200  -108292.56      705.58185     -107586.97      189.5009       191.40982      1212.6296    
     63300  -108224.52      702.69331     -107521.83      189.48582      191.39634      1213.0903    
     63400  -108173.75      716.24003     -107457.51      189.46959      191.38135      1213.551     
     63500  -108102.75      711.72881     -107391.02      189.45256      191.36514      1214.0117    
     63600  -108040.48      714.54322     -107325.94      189.43831      191.35155      1214.4725    
     63700  -107971.95      711.24943     -107260.7       189.42148      191.33488      1214.9332    
     63800  -107902.96      707.97097     -107194.99      189.40595      191.31941      1215.3939    
     63900  -107842.12      712.32634     -107129.79      189.39153      191.30466      1215.8546    
     64000  -107775.04      711.78155     -107063.26      189.37515      191.28757      1216.3154    
     64100  -107710.74      715.19266     -106995.55      189.36111      191.2728       1216.7761    
     64200  -107637.65      708.73546     -106928.92      189.34555      191.25615      1217.2368    
     64300  -107567.36      706.37317     -106860.98      189.33039      191.23973      1217.6975    
     64400  -107509.85      715.70584     -106794.14      189.31599      191.22417      1218.1583    
     64500  -107439.86      712.34111     -106727.52      189.30028      191.20689      1218.619     
     64600  -107369.62      709.20799     -106660.41      189.28612      191.19121      1219.0797    
     64700  -107308.27      715.52987     -106592.74      189.27055      191.17395      1219.5404    
     64800  -107237.65      712.90044     -106524.75      189.25604      191.15771      1220.0012    
     64900  -107169.83      712.66394     -106457.17      189.24166      191.14161      1220.4619    
     65000  -107105.62      716.25109     -106389.37      189.22641      191.12433      1220.9226    
     65100  -107035.06      713.73764     -106321.32      189.21196      191.10789      1221.3833    
     65200  -106968.14      714.0691      -106254.07      189.19718      191.09107      1221.8441    
     65300  -106890.78      707.48548     -106183.29      189.18193      191.07401      1222.3048    
     65400  -106827.4       712.9747      -106114.43      189.16784      191.05817      1222.7655    
     65500  -106758.7       713.63043     -106045.07      189.15269      191.04139      1223.2263    
     65600  -106691.62      716.5721      -105975.05      189.13814      191.02529      1223.687     
     65700  -106623.77      718.31788     -105905.45      189.12347      191.00918      1224.1477    
     65800  -106547.13      712.35596     -105834.77      189.10871      190.9929       1224.6084    
     65900  -106471.9       708.75635     -105763.14      189.09427      190.97685      1225.0692    
     66000  -106401         709.66538     -105691.34      189.07955      190.96068      1225.5299    
     66100  -106335.29      715.6567      -105619.63      189.06584      190.9456       1225.9906    
     66200  -106261.64      712.93423     -105548.7       189.05031      190.92907      1226.4513    
     66300  -106185.1       708.42008     -105476.68      189.03613      190.91404      1226.9121    
     66400  -106115.99      712.47369     -105403.52      189.02118      190.89848      1227.3728    
     66500  -106048.73      717.36214     -105331.37      189.00609      190.88307      1227.8335    
     66600  -105976.9       719.014       -105257.89      188.99175      190.86886      1228.2942    
     66700  -105895.03      710.4625      -105184.57      188.976        190.85303      1228.755     
     66800  -105820.77      710.31234     -105110.46      188.96167      190.83903      1229.2157    
     66900  -105751.48      714.97261     -105036.5       188.94638      190.82404      1229.6764    
     67000  -105673.31      710.20192     -104963.11      188.93118      190.80967      1230.1371    
     67100  -105596.68      708.3398      -104888.34      188.91622      190.79573      1230.5979    
     67200  -105528.23      714.84437     -104813.39      188.90029      190.78114      1231.0586    
     67300  -105451.42      713.12593     -104738.29      188.88555      190.76777      1231.5193    
     67400  -105379.71      716.18879     -104663.52      188.87004      190.75387      1231.98      
     67500  -105306.2       718.51948     -104587.68      188.85431      190.73969      1232.4408    
     67600  -105224.49      713.23934     -104511.25      188.83985      190.72702      1232.9015    
     67700  -105148.75      713.64303     -104435.11      188.82346      190.71234      1233.3622    
     67800  -105071.67      712.45004     -104359.22      188.80857      190.69938      1233.8229    
     67900  -104996.66      714.39146     -104282.27      188.79371      190.68634      1234.2837    
     68000  -104916.04      712.23275     -104203.81      188.7773       190.67188      1234.7444    
     68100  -104842.84      715.915       -104126.92      188.76322      190.65973      1235.2051    
     68200  -104768.92      720.2155      -104048.71      188.74649      190.64505      1235.6658    
     68300  -104691.43      722.46809     -103968.96      188.7322       190.63267      1236.1266    
     68400  -104606.58      716.38073     -103890.2       188.71671      190.61891      1236.5873    
     68500  -104527.39      717.20885     -103810.18      188.70104      190.60476      1237.048     
     68600  -104446.71      716.32595     -103730.38      188.68681      190.59188      1237.5087    
     68700  -104364.54      714.63591     -103649.91      188.671        190.57713      1237.9695    
     68800  -104283.57      715.0124      -103568.56      188.65642      190.56355      1238.4302    
     68900  -104203.32      713.73625     -103489.58      188.6418       190.54963      1238.8909    
     69000  -104130.29      721.426       -103408.87      188.62668      190.53524      1239.3516    
     69100  -104046.44      717.39268     -103329.04      188.61289      190.5218       1239.8124    
     69200  -103964.68      717.25622     -103247.42      188.59803      190.50698      1240.2731    
     69300  -103889.29      723.52212     -103165.77      188.58423      190.49312      1240.7338    
     69400  -103803.96      720.33897     -103083.62      188.56996      190.47846      1241.1945    
     69500  -103714.71      713.4819      -103001.23      188.5562       190.46396      1241.6553    
     69600  -103636.55      717.96773     -102918.58      188.54293      190.44974      1242.116     
     69700  -103554.88      720.95416     -102833.93      188.52919      190.4345       1242.5767    
     69800  -103468.99      718.89706     -102750.09      188.51633      190.42008      1243.0374    
     69900  -103385.04      719.58213     -102665.46      188.50302      190.40512      1243.4982    
     70000  -103302.39      722.84085     -102579.55      188.48983      190.39019      1243.9589    
     70100  -103215.01      723.12732     -102491.89      188.47695      190.37555      1244.4196    
     70200  -103128.11      720.1024      -102408.01      188.46406      190.36052      1244.8804    
     70300  -103041.43      716.2127      -102325.21      188.45133      190.34549      1245.3411    
     70400  -102963.95      724.10044     -102239.85      188.43873      190.33051      1245.8018    
     70500  -102882.24      727.82807     -102154.41      188.42593      190.3154       1246.2625    
     70600  -102791.14      724.34099     -102066.8       188.41322      190.30042      1246.7233    
     70700  -102703.22      725.80135     -101977.42      188.40038      190.28536      1247.184     
     70800  -102606.65      719.26681     -101887.38      188.38766      190.27056      1247.6447    
     70900  -102524.04      723.90263     -101800.13      188.37474      190.25571      1248.1054    
     71000  -102439.82      726.4864      -101713.33      188.36153      190.24082      1248.5662    
     71100  -102354.93      732.79922     -101622.13      188.34853      190.22615      1249.0269    
     71200  -102256.55      725.26243     -101531.29      188.33519      190.21124      1249.4876    
     71300  -102170.53      727.08748     -101443.44      188.32189      190.19659      1249.9483    
     71400  -102080.86      727.15508     -101353.71      188.30872      190.18213      1250.4091    
     71500  -101995.9       730.89087     -101265         188.29515      190.16761      1250.8698    
     71600  -101905.78      732.90908     -101172.87      188.28192      190.15353      1251.3305    
     71700  -101806.67      725.22074     -101081.45      188.26783      190.13886      1251.7912    
     71800  -101728.26      736.10316     -100992.16      188.25438      190.12513      1252.252     
     71900  -101627.86      728.18123     -100899.68      188.24071      190.11119      1252.7127    
     72000  -101544.84      737.44341     -100807.4       188.22667      190.09703      1253.1734    
     72100  -101455.74      738.56348     -100717.18      188.21329      190.08361      1253.6341    
     72200  -101359.01      735.36116     -100623.65      188.19901      190.06941      1254.0949    
     72300  -101272.71      742.51448     -100530.2       188.18531      190.05591      1254.5556    
     72400  -101168.32      731.33312     -100436.99      188.17139      190.04231      1255.0163    
     72500  -101086.6       744.71318     -100341.89      188.15708      190.02842      1255.477     
     72600  -100985.63      741.15386     -100244.48      188.1436       190.01549      1255.9378    
     72700  -100894.97      744.6944      -100150.27      188.12888      190.00165      1256.3985    
     72800  -100801.3       748.42092     -100052.88      188.11486      189.98852      1256.8592    
     72900  -100702.32      747.60305     -99954.72       188.10069      189.97537      1257.3199    
     73000  -100612.37      756.16297     -99856.206      188.08615      189.9619       1257.7807    
     73100  -100508.14      753.89546     -99754.24       188.07187      189.94872      1258.2414    
     73200  -100410.21      750.21804     -99659.991      188.05751      189.93553      1258.7021    
     73300  -100312.15      749.81788     -99562.333      188.04313      189.92229      1259.1628    
     73400  -100216.9       753.3994      -99463.498      188.02869      189.90907      1259.6236    
     73500  -100118.43      757.85602     -99360.575      188.01422      189.89574      1260.0843    
     73600  -100017.84      759.34395     -99258.496      187.99977      189.88249      1260.545     
     73700  -99928.178      767.06964     -99161.109      187.98531      189.86921      1261.0057    
     73800  -99831.157      764.00166     -99067.155      187.9708       189.85592      1261.4665    
     73900  -99723.112      757.57313     -98965.539      187.95625      189.8426       1261.9272    
     74000  -99637.303      768.71194     -98868.591      187.94182      189.8293       1262.3879    
     74100  -99538.494      779.16937     -98759.325      187.92722      189.81565      1262.8486    
     74200  -99431.677      773.50446     -98658.172      187.91286      189.80222      1263.3094    
     74300  -99331.837      776.89986     -98554.938      187.89826      189.78851      1263.7701    
     74400  -99233.973      780.57015     -98453.403      187.88359      189.77466      1264.2308    
     74500  -99138.193      785.41249     -98352.78       187.86931      189.76118      1264.6915    
     74600  -99032.958      784.06786     -98248.89       187.85451      189.74718      1265.1523    
     74700  -98923.401      783.85993     -98139.541      187.83989      189.73321      1265.613     
     74800  -98822.771      793.71682     -98029.054      187.8254       189.71921      1266.0737    
     74900  -98717.442      793.75492     -97923.687      187.8107       189.70497      1266.5345    
     75000  -98609.488      795.7179      -97813.77       187.7962       189.69086      1266.9952    
     75100  -98502.688      799.91415     -97702.774      187.78156      189.67651      1267.4559    
     75200  -98399.542      803.67992     -97595.862      187.76661      189.6619       1267.9166    
     75300  -98289.757      804.3545      -97485.402      187.75223      189.6478       1268.3774    
     75400  -98196.715      819.53095     -97377.184      187.73729      189.63298      1268.8381    
     75500  -98069.172      807.10554     -97262.066      187.72262      189.61826      1269.2988    
     75600  -97969.164      821.16442     -97148          187.70809      189.60361      1269.7595    
     75700  -97860.712      822.2231      -97038.489      187.69314      189.58842      1270.2203    
     75800  -97752.537      830.93504     -96921.602      187.67853      189.57352      1270.681     
     75900  -97644.832      830.93889     -96813.893      187.66376      189.55839      1271.1417    
     76000  -97532.871      837.35574     -96695.515      187.64882      189.54309      1271.6024    
     76100  -97427.42       850.56234     -96576.858      187.63395      189.52782      1272.0632    
     76200  -97308.333      851.11502     -96457.218      187.61906      189.51243      1272.5239    
     76300  -97199.211      857.85506     -96341.356      187.60399      189.49678      1272.9846    
     76400  -97094.976      860.82372     -96234.152      187.589        189.48114      1273.4453    
     76500  -96979.468      866.98817     -96112.48       187.57368      189.46518      1273.9061    
     76600  -96859.091      874.42855     -95984.662      187.55862      189.44947      1274.3668    
     76700  -96748.259      883.00542     -95865.253      187.54328      189.43348      1274.8275    
     76800  -96621.977      878.46631     -95743.511      187.52782      189.41744      1275.2882    
     76900  -96528.783      901.78729     -95626.996      187.51231      189.40133      1275.749     
     77000  -96399.122      896.99942     -95502.123      187.49662      189.38495      1276.2097    
     77100  -96284.438      909.92862     -95374.509      187.48102      189.36878      1276.6704    
     77200  -96160.117      907.88465     -95252.233      187.46503      189.35222      1277.1311    
     77300  -96039.868      928.16854     -95111.7        187.44902      189.33566      1277.5919    
     77400  -95923.406      936.13403     -94987.272      187.43304      189.31905      1278.0526    
     77500  -95810.768      946.52713     -94864.241      187.4168       189.30231      1278.5133    
     77600  -95750.375      993.38268     -94756.992      187.40048      189.2854       1278.974     
     77700  -96117.589      1393.0868     -94724.502      187.38433      189.26884      1279.4348    
     77800  -97315.036      2276.9736     -95038.062      187.37048      189.25418      1279.8955    
     77900  -99631.132      3445.6466     -96185.486      187.36113      189.24212      1280.3562    
     78000  -102877.72      4224.4092     -98653.309      187.36994      189.24782      1280.8169    
     78100  -106222         4236.645      -101985.35      187.3972       189.27399      1281.2777    
     78200  -109122.28      3789.7925     -105332.49      187.41921      189.29505      1281.7384    
     78300  -111466.06      3236.4139     -108229.65      187.44041      189.31405      1282.1991    
     78400  -113469.94      2808.2542     -110661.68      187.46165      189.3321       1282.6598    
     78500  -115211.13      2485.1448     -112725.99      187.48914      189.35599      1283.1206    
     78600  -116745.72      2240.7581     -114504.96      187.51489      189.37701      1283.5813    
     78700  -118078.23      2017.4982     -116060.73      187.54096      189.39844      1284.042     
     78800  -119206.55      1812.9614     -117393.59      187.57231      189.4251       1284.5027    
     78900  -120195.35      1651.4365     -118543.91      187.60381      189.45214      1284.9635    
     79000  -121076.22      1524.2507     -119551.97      187.63766      189.48243      1285.4242    
     79100  -121876.78      1425.334      -120451.45      187.67286      189.51393      1285.8849    
     79200  -122634.84      1361.4495     -121273.39      187.70628      189.54381      1286.3456    
     79300  -123368.53      1320.2795     -122048.25      187.74076      189.57475      1286.8064    
     79400  -124056.31      1271.067      -122785.25      187.77442      189.60501      1287.2671    
     79500  -124678.93      1209.6078     -123469.32      187.80899      189.63667      1287.7278    
     79600  -125237.36      1144.379      -124092.98      187.8431       189.6684       1288.1885    
     79700  -125740.96      1084.3756     -124656.58      187.87687      189.70021      1288.6493    
     79800  -126196.65      1031.3053     -125165.34      187.91043      189.73182      1289.11      
     79900  -126610.47      984.61266     -125625.86      187.9432       189.76277      1289.5707    
     80000  -126989.45      944.97479     -126044.47      187.97626      189.79412      1290.0315    
     80100  -127339.56      912.14575     -126427.41      188.00892      189.82522      1290.4922    
     80200  -127674.21      891.42996     -126782.78      188.04097      189.85605      1290.9529    
     80300  -127999.68      878.68061     -127121         188.07199      189.88615      1291.4136    
     80400  -128316.92      869.04976     -127447.87      188.10185      189.9153       1291.8744    
     80500  -128628.27      861.80272     -127766.47      188.13166      189.94449      1292.3351    
     80600  -128938.3       858.9871      -128079.31      188.16033      189.97284      1292.7958    
     80700  -129245.28      856.1252      -128389.16      188.1884       190.00093      1293.2565    
     80800  -129549.07      852.02826     -128697.04      188.2159       190.02872      1293.7173    
     80900  -129851.15      849.67338     -129001.47      188.24246      190.05576      1294.178     
     81000  -130144.78      843.48514     -129301.29      188.26854      190.08241      1294.6387    
     81100  -130434.14      838.25208     -129595.89      188.29369      190.10821      1295.0994    
     81200  -130718.67      833.77015     -129884.9       188.31823      190.13345      1295.5602    
     81300  -130995.29      827.49502     -130167.8       188.342        190.15797      1296.0209    
     81400  -131267.27      822.57768     -130444.69      188.36528      190.18208      1296.4816    
     81500  -131535.11      818.74788     -130716.36      188.38809      190.20582      1296.9423    
     81600  -131798.67      815.03767     -130983.64      188.41023      190.229        1297.4031    
     81700  -132058.94      811.90682     -131247.03      188.43206      190.25198      1297.8638    
     81800  -132299.97      796.76379     -131503.2       188.45353      190.27461      1298.3245    
     81900  -132517.93      778.24863     -131739.68      188.47529      190.29752      1298.7852    
     82000  -132720.85      765.04195     -131955.81      188.4968       190.32015      1299.246     
     82100  -132908.02      753.29062     -132154.73      188.51818      190.34267      1299.7067    
     82200  -133082         743.65756     -132338.34      188.53966      190.36531      1300.1674    
     82300  -133242.3       735.03955     -132507.26      188.56083      190.38768      1300.6281    
     82400  -133388.61      727.24595     -132661.37      188.58234      190.4104       1301.0889    
     82500  -133519.48      719.37174     -132800.11      188.60372      190.43301      1301.5496    
     82600  -133635.35      712.58711     -132922.77      188.62524      190.45576      1302.0103    
     82700  -133734.65      706.27843     -133028.37      188.64701      190.47868      1302.471     
     82800  -133817.44      701.49175     -133115.95      188.66874      190.50149      1302.9318    
     82900  -133882.67      698.32473     -133184.34      188.69092      190.52468      1303.3925    
     83000  -133927.98      695.88786     -133232.09      188.71314      190.54787      1303.8532    
     83100  -133950.97      693.67941     -133257.29      188.73582      190.57141      1304.3139    
     83200  -133951.76      694.12016     -133257.64      188.75829      190.59469      1304.7747    
     83300  -133935.01      700.75688     -133234.26      188.77953      190.6169       1305.2354    
     83400  -133899.85      701.1486      -133198.7       188.79961      190.63795      1305.6961    
     83500  -133840.28      688.1809      -133152.1       188.81879      190.658        1306.1568    
     83600  -133754.95      678.08427     -133076.86      188.83801      190.67801      1306.6176    
     83700  -133637.55      671.43758     -132966.11      188.8562       190.69704      1307.0783    
     83800  -133487.02      656.57098     -132830.45      188.87452      190.71632      1307.539     
     83900  -133301.58      626.86969     -132674.71      188.89199      190.73483      1307.9997    
     84000  -133097.81      598.84374     -132498.96      188.90956      190.75366      1308.4605    
     84100  -132993.07      680.27445     -132312.79      188.92593      190.77137      1308.9212    
     84200  -133017.79      830.39619     -132187.4       188.93244      190.77823      1309.3819    
     84300  -132992.45      715.11931     -132277.33      188.9217       190.76749      1309.8426    
     84400  -133070.29      679.12212     -132391.17      188.93891      190.7865       1310.3034    
     84500  -133083.93      658.31227     -132425.62      188.95721      190.8054       1310.7641    
     84600  -133094.54      714.07886     -132380.46      188.96628      190.81547      1311.2248    
     84700  -133050.41      716.04888     -132334.36      188.97027      190.82406      1311.6856    
     84800  -133035.94      723.35798     -132312.58      188.9853       190.84534      1312.1463    
     84900  -133018.49      706.76035     -132311.73      188.99971      190.86907      1312.607     
     85000  -133030.51      713.08918     -132317.42      189.01043      190.88754      1313.0677    
     85100  -133060.6       721.11488     -132339.49      189.02543      190.90671      1313.5285    
     85200  -133089.13      701.86873     -132387.26      189.05011      190.93197      1313.9892    
     85300  -133088.63      673.66248     -132414.97      189.07516      190.9471       1314.4499    
     85400  -133098.18      707.09167     -132391.09      189.0995       190.96158      1314.9106    
     85500  -133070.71      718.01302     -132352.69      189.12218      190.97683      1315.3714    
     85600  -133062.64      724.66069     -132337.98      189.14778      190.98799      1315.8321    
     85700  -133053.85      699.4182      -132354.43      189.17513      190.99924      1316.2928    
     85800  -133062.73      695.63816     -132367.09      189.20509      191.01311      1316.7535    
     85900  -133055.18      705.32969     -132349.85      189.23466      191.02718      1317.2143    
     86000  -133049.39      724.45727     -132324.94      189.26409      191.04149      1317.675     
     86100  -133053.7       719.19815     -132334.5       189.2914       191.05954      1318.1357    
     86200  -133051.42      686.74957     -132364.67      189.31565      191.07712      1318.5964    
     86300  -133048.11      692.0924      -132356.02      189.33035      191.09144      1319.0572    
     86400  -133006.19      697.35791     -132308.83      189.34635      191.10558      1319.5179    
     86500  -132991.97      739.189       -132252.79      189.36406      191.12502      1319.9786    
     86600  -132993.9       738.18616     -132255.71      189.37956      191.14977      1320.4393    
     86700  -133017.01      700.19002     -132316.82      189.3935       191.17562      1320.9001    
     86800  -133050.96      682.06492     -132368.89      189.40498      191.20309      1321.3608    
     86900  -133041.02      674.9988      -132366.02      189.41282      191.22917      1321.8215    
     87000  -133023.55      714.22882     -132309.32      189.42066      191.25752      1322.2822    
     87100  -132991.64      730.38889     -132261.26      189.42781      191.28671      1322.743     
     87200  -132992.18      728.63736     -132263.54      189.43663      191.31597      1323.2037    
     87300  -133007.34      701.88515     -132305.45      189.45118      191.34781      1323.6644    
     87400  -133023.14      685.466       -132337.67      189.46642      191.38105      1324.1251    
     87500  -133019.73      692.9656      -132326.77      189.4789       191.41136      1324.5859    
     87600  -133014.49      725.74477     -132288.75      189.49664      191.44384      1325.0466    
     87700  -133008.58      732.38693     -132276.19      189.51437      191.47274      1325.5073    
     87800  -133016.15      704.51353     -132311.64      189.52733      191.50058      1325.968     
     87900  -133035.97      682.281       -132353.69      189.54115      191.53251      1326.4288    
     88000  -133040.42      685.16647     -132355.26      189.55331      191.56394      1326.8895    
     88100  -133033.84      716.42627     -132317.41      189.56648      191.60044      1327.3502    
     88200  -133017.01      729.6235      -132287.39      189.57571      191.63253      1327.8109    
     88300  -133021.33      724.0507      -132297.28      189.58953      191.66605      1328.2717    
     88400  -133041         706.66327     -132334.33      189.6049       191.70081      1328.7324    
     88500  -133056.22      689.19513     -132367.02      189.61979      191.73563      1329.1931    
     88600  -133059.77      691.26774     -132368.5       189.63736      191.76918      1329.6538    
     88700  -133045.92      705.75361     -132340.17      189.65831      191.79968      1330.1146    
     88800  -133035.55      724.65265     -132310.9       189.6828       191.8314       1330.5753    
     88900  -133045.16      725.78483     -132319.37      189.70848      191.86107      1331.036     
     89000  -133054.51      697.60168     -132356.91      189.73711      191.8927       1331.4967    
     89100  -133071.53      687.74975     -132383.78      189.76223      191.92054      1331.9575    
     89200  -133068.91      691.88001     -132377.03      189.79347      191.95206      1332.4182    
     89300  -133064.87      716.10491     -132348.77      189.82274      191.98376      1332.8789    
     89400  -133056.46      724.67825     -132331.78      189.85363      192.01534      1333.3397    
     89500  -133058.17      713.86902     -132344.3       189.88219      192.0479       1333.8004    
     89600  -133063.52      695.17802     -132368.34      189.90969      192.08315      1334.2611    
     89700  -133077.22      695.07939     -132382.14      189.93525      192.1184       1334.7218    
     89800  -133065.79      695.43962     -132370.35      189.95874      192.14801      1335.1826    
     89900  -133067.27      722.62686     -132344.64      189.99042      192.17945      1335.6433    
     90000  -133058.16      720.12046     -132338.04      190.02009      192.20799      1336.104     
     90100  -133062.12      701.94018     -132360.17      190.04956      192.23768      1336.5647    
     90200  -133085.33      697.63454     -132387.69      190.07854      192.26708      1337.0255    
     90300  -133082.67      690.76305     -132391.91      190.10742      192.30226      1337.4862    
     90400  -133077.8       708.58141     -132369.22      190.13465      192.33828      1337.9469    
     90500  -133071.94      730.99936     -132340.94      190.16401      192.3771       1338.4076    
     90600  -133082.39      725.33582     -132357.05      190.18722      192.41821      1338.8684    
     90700  -133080.26      690.40792     -132389.85      190.20712      192.46051      1339.3291    
     90800  -133089.12      694.18605     -132394.93      190.22515      192.51097      1339.7898    
     90900  -133078.88      706.02261     -132372.86      190.24152      192.55852      1340.2505    
     91000  -133064.73      713.73536     -132350.99      190.25582      192.60389      1340.7113    
     91100  -133066.74      717.84923     -132348.89      190.27147      192.64903      1341.172     
     91200  -133074.08      709.30403     -132364.78      190.28361      192.69245      1341.6327    
     91300  -133076.19      698.5566      -132377.64      190.29097      192.73944      1342.0934    
     91400  -133079.51      699.95818     -132379.55      190.29877      192.7845       1342.5542    
     91500  -133070.24      698.96282     -132371.28      190.30833      192.8277       1343.0149    
     91600  -133072.13      711.04545     -132361.09      190.31427      192.86456      1343.4756    
     91700  -133071.46      714.36858     -132357.09      190.32704      192.90113      1343.9363    
     91800  -133077.96      717.79365     -132360.17      190.33461      192.93343      1344.3971    
     91900  -133080.17      704.67176     -132375.5       190.34262      192.96262      1344.8578    
     92000  -133084.61      699.43064     -132385.18      190.35237      192.98425      1345.3185    
     92100  -133086.73      703.94875     -132382.78      190.36439      193.00414      1345.7792    
     92200  -133086.26      712.22316     -132374.03      190.37445      193.02282      1346.24      
     92300  -133088.88      713.82523     -132375.05      190.38921      193.04144      1346.7007    
     92400  -133097.73      707.85128     -132389.88      190.39752      193.05168      1347.1614    
     92500  -133103.76      700.61058     -132403.15      190.41         193.06503      1347.6221    
     92600  -133106.22      702.42511     -132403.79      190.42021      193.07803      1348.0829    
     92700  -133097.57      706.23        -132391.34      190.42693      193.08758      1348.5436    
     92800  -133096.95      717.71413     -132379.24      190.43607      193.10199      1349.0043    
     92900  -133095.22      711.01132     -132384.2       190.4432       193.11959      1349.465     
     93000  -133105.38      704.67607     -132400.7       190.45608      193.1397       1349.9258    
     93100  -133110.39      701.34832     -132409.04      190.46743      193.1611       1350.3865    
     93200  -133106.87      705.60006     -132401.27      190.48482      193.18976      1350.8472    
     93300  -133098.38      710.18541     -132388.2       190.49871      193.21564      1351.3079    
     93400  -133105.99      717.77528     -132388.22      190.51022      193.2446       1351.7687    
     93500  -133121.22      717.66233     -132403.56      190.51967      193.2748       1352.2294    
     93600  -133124.93      701.23623     -132423.69      190.52812      193.30474      1352.6901    
     93700  -133135.19      702.37854     -132432.81      190.53553      193.33395      1353.1508    
     93800  -133133.29      704.64916     -132428.64      190.53996      193.36671      1353.6116    
     93900  -133135.87      717.98518     -132417.89      190.54198      193.39756      1354.0723    
     94000  -133130.45      712.59023     -132417.86      190.54336      193.43092      1354.533     
     94100  -133138.45      704.2442      -132434.2       190.54173      193.46755      1354.9937    
     94200  -133154.29      701.35496     -132452.94      190.5377       193.50777      1355.4545    
     94300  -133152.79      696.81143     -132455.97      190.53057      193.54991      1355.9152    
     94400  -133152.36      706.82352     -132445.53      190.52517      193.59486      1356.3759    
     94500  -133147.24      711.23213     -132436.01      190.52202      193.6397       1356.8367    
     94600  -133151.6       710.00982     -132441.59      190.51766      193.6838       1357.2974    
     94700  -133163.91      703.03315     -132460.88      190.51371      193.73021      1357.7581    
     94800  -133175.31      699.74924     -132475.56      190.51029      193.77559      1358.2188    
     94900  -133173.56      701.09964     -132472.46      190.50711      193.81619      1358.6796    
     95000  -133165.38      710.60756     -132454.78      190.50268      193.8588       1359.1403    
     95100  -133161.54      719.57643     -132441.97      190.49753      193.90033      1359.601     
     95200  -133154.01      708.74395     -132445.26      190.49388      193.94056      1360.0617    
     95300  -133162.64      705.56811     -132457.08      190.49038      193.98363      1360.5225    
     95400  -133170.63      700.66185     -132469.97      190.49008      194.0295       1360.9832    
     95500  -133167.81      697.99561     -132469.81      190.49181      194.07778      1361.4439    
     95600  -133167.98      706.3582      -132461.62      190.49367      194.12331      1361.9046    
     95700  -133169.7       717.19559     -132452.51      190.49847      194.16701      1362.3654    
     95800  -133169.7       712.70296     -132457         190.5049       194.20667      1362.8261    
     95900  -133177.99      704.30846     -132473.68      190.51118      194.239        1363.2868    
     96000  -133184         698.21138     -132485.79      190.51869      194.2672       1363.7475    
     96100  -133193.27      711.44569     -132481.82      190.52395      194.29492      1364.2083    
     96200  -133178.59      708.18934     -132470.4       190.52509      194.3195       1364.669     
     96300  -133188.7       722.29497     -132466.4       190.52412      194.34383      1365.1297    
     96400  -133185.21      706.5849      -132478.63      190.52895      194.3707       1365.5904    
     96500  -133206.78      710.16041     -132496.62      190.52879      194.3907       1366.0512    
     96600  -133196.48      687.38405     -132509.09      190.52995      194.40913      1366.5119    
     96700  -133199.7       697.53178     -132502.17      190.5348       194.42498      1366.9726    
     96800  -133203.17      716.72516     -132486.44      190.53654      194.43309      1367.4333    
     96900  -133193.31      715.86819     -132477.45      190.53876      194.43449      1367.8941    
     97000  -133209.81      721.06848     -132488.74      190.5413       194.43421      1368.3548    
     97100  -133221.33      707.08483     -132514.24      190.54382      194.43116      1368.8155    
     97200  -133224.99      694.38255     -132530.6       190.54434      194.42125      1369.2762    
     97300  -133226.37      700.69109     -132525.68      190.54511      194.41276      1369.737     
     97400  -133223.29      711.00188     -132512.29      190.54509      194.40374      1370.1977    
     97500  -133217.69      713.38675     -132504.3       190.54274      194.39272      1370.6584    
     97600  -133218.45      709.90799     -132508.55      190.54319      194.37993      1371.1191    
     97700  -133222.96      702.85665     -132520.1       190.54343      194.36503      1371.5799    
     97800  -133217.59      697.726       -132519.87      190.54274      194.34273      1372.0406    
     97900  -133213.16      710.30678     -132502.85      190.54477      194.30774      1372.5013    
     98000  -133205.34      717.6445      -132487.7       190.54576      194.25793      1372.962     
     98100  -133211.37      717.22228     -132494.15      190.54517      194.19427      1373.4228    
     98200  -133219.1       700.26285     -132518.83      190.54885      194.12021      1373.8835    
     98300  -133232.82      698.66187     -132534.16      190.55513      194.04059      1374.3442    
     98400  -133223.15      697.20402     -132525.95      190.562        193.95899      1374.8049    
     98500  -133223.27      718.44806     -132504.82      190.57234      193.87375      1375.2657    
     98600  -133214.37      723.10758     -132491.26      190.5865       193.7868       1375.7264    
     98700  -133216.88      717.47972     -132499.4       190.60166      193.70101      1376.1871    
     98800  -133221.93      698.69328     -132523.24      190.61843      193.61362      1376.6478    
     98900  -133230.17      691.86667     -132538.3       190.63969      193.52985      1377.1086    
     99000  -133228.21      697.89321     -132530.32      190.65986      193.45136      1377.5693    
     99100  -133226.35      715.27714     -132511.08      190.68126      193.37446      1378.03      
     99200  -133223.65      718.34099     -132505.31      190.70388      193.29694      1378.4908    
     99300  -133223.21      705.44213     -132517.77      190.72613      193.22102      1378.9515    
     99400  -133232.98      697.86012     -132535.12      190.74588      193.14466      1379.4122    
     99500  -133231.34      693.33737     -132538         190.7651       193.06684      1379.8729    
     99600  -133234.97      710.1878      -132524.78      190.78941      192.99587      1380.3337    
     99700  -133228.1       714.89128     -132513.21      190.81244      192.92438      1380.7944    
     99800  -133229.51      712.09685     -132517.42      190.83719      192.84907      1381.2551    
     99900  -133232.38      697.99628     -132534.38      190.86709      192.77092      1381.7158    
    100000  -133242.2       697.58165     -132544.62      190.90043      192.68742      1382.1766    
    100100  -133235.06      695.92604     -132539.14      190.93297      192.60012      1382.6373    
    100200  -133235.22      710.79845     -132524.42      190.96156      192.50825      1383.098     
    100300  -133226.89      710.06434     -132516.83      190.9909       192.41848      1383.5587    
    100400  -133237.33      716.1635      -132521.17      191.01875      192.33188      1384.0195    
    100500  -133234.57      704.68555     -132529.88      191.0437       192.25152      1384.4802    
    100600  -133232.4       701.6632      -132530.73      191.06339      192.17647      1384.9409    
    100700  -133221.09      702.25672     -132518.83      191.07978      192.10168      1385.4016    
    100800  -133218.73      714.07965     -132504.65      191.09356      192.02567      1385.8624    
    100900  -133213.95      716.1176      -132497.83      191.1039       191.94579      1386.3231    
    101000  -133215.07      710.44876     -132504.63      191.11253      191.86709      1386.7838    
    101100  -133214.19      699.61895     -132514.57      191.11652      191.78669      1387.2445    
    101200  -133225.61      704.79925     -132520.81      191.12148      191.71098      1387.7053    
    101300  -133224.14      706.46157     -132517.68      191.1285       191.6393       1388.166     
    101400  -133224.37      716.41524     -132507.96      191.1332       191.57162      1388.6267    
    101500  -133208.15      710.23339     -132497.92      191.13587      191.50974      1389.0874    
    101600  -133232.11      703.99926     -132528.11      191.13408      191.45344      1389.5482    
    101700  -133242.44      692.00895     -132550.43      191.12701      191.40807      1390.0089    
    101800  -133241.44      693.4675      -132547.97      191.11848      191.37083      1390.4696    
    101900  -133229.75      708.31991     -132521.43      191.10533      191.34075      1390.9303    
    102000  -133220.59      725.87383     -132494.72      191.09715      191.32171      1391.3911    
    102100  -133203.99      712.3033      -132491.69      191.08883      191.31009      1391.8518    
    102200  -133214.84      702.1343      -132512.71      191.08244      191.30607      1392.3125    
    102300  -133220.23      692.81766     -132527.42      191.07921      191.30445      1392.7732    
    102400  -133219.51      701.42221     -132518.09      191.08105      191.30712      1393.234     
    102500  -133207.5       713.33274     -132494.17      191.08349      191.3121       1393.6947    
    102600  -133197.75      717.34872     -132480.4       191.08437      191.31934      1394.1554    
    102700  -133216.27      720.72904     -132495.54      191.08859      191.3282       1394.6161    
    102800  -133235.36      708.48478     -132526.87      191.09557      191.33946      1395.0769    
    102900  -133228.58      685.87834     -132542.71      191.10496      191.3524       1395.5376    
    103000  -133227.23      697.93836     -132529.29      191.11585      191.3667       1395.9983    
    103100  -133220.87      718.83008     -132502.04      191.12862      191.38445      1396.459     
    103200  -133213.21      729.52967     -132483.68      191.14216      191.40333      1396.9198    
    103300  -133223.39      731.92473     -132491.47      191.15615      191.41957      1397.3805    
    103400  -133212.56      707.16099     -132505.39      191.16861      191.43741      1397.8412    
    103500  -133240.52      678.248       -132562.27      191.17819      191.45634      1398.3019    
    103600  -133251.95      679.81565     -132572.13      191.18793      191.47605      1398.7627    
    103700  -133242.85      708.54291     -132534.31      191.19492      191.49023      1399.2234    
    103800  -133227.84      736.88704     -132490.95      191.20334      191.50486      1399.6841    
    103900  -133216.25      727.93325     -132488.31      191.20662      191.51802      1400.1449    
    104000  -133233.57      706.81049     -132526.76      191.20168      191.52809      1400.6056    
    104100  -133256.25      691.91747     -132564.33      191.18864      191.53845      1401.0663    
    104200  -133257.77      689.32183     -132568.45      191.16966      191.55133      1401.527     
    104300  -133255.13      712.59944     -132542.53      191.15117      191.56418      1401.9878    
    104400  -133249.92      729.83094     -132520.09      191.13376      191.57259      1402.4485    
    104500  -133249.66      718.6241      -132531.04      191.11585      191.58579      1402.9092    
    104600  -133269.21      704.84276     -132564.37      191.08617      191.59828      1403.3699    
    104700  -133280.6       693.51638     -132587.08      191.05008      191.61287      1403.8307    
    104800  -133282.11      700.57181     -132581.53      191.00346      191.62855      1404.2914    
    104900  -133269.59      712.97628     -132556.61      190.95348      191.64997      1404.7521    
    105000  -133266.82      726.75158     -132540.06      190.90729      191.67461      1405.2128    
    105100  -133260.24      708.79409     -132551.44      190.86164      191.69911      1405.6736    
    105200  -133274.48      696.59006     -132577.89      190.82071      191.73132      1406.1343    
    105300  -133293.37      702.13617     -132591.23      190.77826      191.76538      1406.595     
    105400  -133278.6       696.83555     -132581.76      190.73565      191.80197      1407.0557    
    105500  -133273.59      711.54462     -132562.05      190.6903       191.84038      1407.5165    
    105600  -133269.88      716.71424     -132553.16      190.64684      191.8847       1407.9772    
    105700  -133279.3       715.47957     -132563.82      190.60332      191.92938      1408.4379    
    105800  -133283.86      699.98334     -132583.88      190.55204      191.97357      1408.8986    
    105900  -133290.96      700.58501     -132590.38      190.50332      192.02104      1409.3594    
    106000  -133278.9       701.85021     -132577.05      190.45495      192.06875      1409.8201    
    106100  -133273.2       714.87837     -132558.33      190.40579      192.11831      1410.2808    
    106200  -133278.39      723.00364     -132555.38      190.35274      192.16669      1410.7415    
    106300  -133279.72      709.66923     -132570.05      190.29776      192.21447      1411.2023    
    106400  -133281.78      695.82921     -132585.96      190.23972      192.26219      1411.663     
    106500  -133289.22      701.73026     -132587.49      190.17945      192.31058      1412.1237    
    106600  -133280.59      711.2604      -132569.33      190.11851      192.35963      1412.5844    
    106700  -133263.26      714.33314     -132548.93      190.06016      192.40974      1413.0452    
    106800  -133260.1       715.29884     -132544.8       190.00146      192.45766      1413.5059    
    106900  -133268.2       705.78616     -132562.41      189.94309      192.50423      1413.9666    
    107000  -133281.13      699.85836     -132581.27      189.88674      192.54999      1414.4273    
    107100  -133269.22      688.55079     -132580.67      189.82749      192.59079      1414.8881    
    107200  -133265.12      707.75887     -132557.36      189.76497      192.62669      1415.3488    
    107300  -133252.77      720.2223      -132532.54      189.7035       192.66028      1415.8095    
    107400  -133251.37      722.53223     -132528.84      189.63724      192.68848      1416.2702    
    107500  -133260.38      709.01502     -132551.36      189.56531      192.71416      1416.731     
    107600  -133269.55      690.34135     -132579.21      189.49107      192.7366       1417.1917    
    107700  -133275.91      689.80348     -132586.11      189.41878      192.75453      1417.6524    
    107800  -133270.5       704.12669     -132566.37      189.34704      192.76833      1418.1131    
    107900  -133255.03      716.51817     -132538.51      189.27471      192.78172      1418.5739    
    108000  -133254.77      725.80645     -132528.97      189.20308      192.79747      1419.0346    
    108100  -133254.98      710.8586      -132544.12      189.13088      192.81184      1419.4953    
    108200  -133267.17      699.043       -132568.13      189.05846      192.82756      1419.956     
    108300  -133279.16      700.01902     -132579.14      188.98481      192.84127      1420.4168    
    108400  -133271.18      702.13167     -132569.05      188.91016      192.85795      1420.8775    
    108500  -133266.81      716.7863      -132550.02      188.83465      192.87186      1421.3382    
    108600  -133260.38      719.39964     -132540.98      188.76489      192.88411      1421.799     
    108700  -133268.8       715.79613     -132553.01      188.69736      192.894        1422.2597    
    108800  -133284.91      705.54347     -132579.36      188.63337      192.89958      1422.7204    
    108900  -133290.48      695.49212     -132594.98      188.57469      192.90432      1423.1811    
    109000  -133284.91      700.59959     -132584.31      188.51704      192.90544      1423.6419    
    109100  -133275.13      713.30254     -132561.83      188.46285      192.90788      1424.1026    
    109200  -133270.82      718.39949     -132552.42      188.41022      192.9075       1424.5633    
    109300  -133276.67      710.64484     -132566.02      188.36158      192.90709      1425.024     
    109400  -133286.39      696.87709     -132589.51      188.31465      192.9045       1425.4848    
    109500  -133294.31      696.61573     -132597.69      188.27008      192.90042      1425.9455    
    109600  -133293.37      706.48865     -132586.88      188.23005      192.89701      1426.4062    
    109700  -133282.99      714.16374     -132568.83      188.19151      192.89077      1426.8669    
    109800  -133278.24      716.34329     -132561.9       188.16057      192.88643      1427.3277    
    109900  -133286.14      713.52141     -132572.62      188.13024      192.88092      1427.7884    
    110000  -133289.31      697.32108     -132591.99      188.1014       192.87511      1428.2491    
    110100  -133298.16      697.49356     -132600.66      188.07598      192.87075      1428.7098    
    110200  -133288.37      698.42827     -132589.95      188.05143      192.86341      1429.1706    
    110300  -133288.03      717.56065     -132570.47      188.02942      192.85419      1429.6313    
    110400  -133281.26      717.60761     -132563.65      188.0085       192.84149      1430.092     
    110500  -133282.47      705.46519     -132577.01      187.99046      192.82984      1430.5527    
    110600  -133304.64      708.45906     -132596.18      187.97147      192.81818      1431.0135    
    110700  -133301.07      696.82784     -132604.24      187.95688      192.8056       1431.4742    
    110800  -133294.64      700.79839     -132593.84      187.94325      192.7919       1431.9349    
    110900  -133282.08      701.77108     -132580.31      187.93367      192.77965      1432.3956    
    111000  -133297.58      720.14292     -132577.44      187.92434      192.76529      1432.8564    
    111100  -133301.93      712.02866     -132589.9       187.9205       192.75496      1433.3171    
    111200  -133305.9       701.29018     -132604.61      187.91711      192.74642      1433.7778    
    111300  -133305.34      696.8449      -132608.5       187.91802      192.73854      1434.2385    
    111400  -133308.4       710.57057     -132597.83      187.92217      192.72938      1434.6993    
    111500  -133296.34      712.36559     -132583.97      187.9287       192.71601      1435.16      
    111600  -133290.36      709.67334     -132580.68      187.93969      192.69756      1435.6207    
    111700  -133307.08      717.71147     -132589.36      187.95234      192.67328      1436.0814    
    111800  -133302.85      699.97113     -132602.88      187.96993      192.64931      1436.5422    
    111900  -133310.75      705.99658     -132604.75      187.98929      192.62285      1437.0029    
    112000  -133297.95      704.52117     -132593.43      188.01231      192.59537      1437.4636    
    112100  -133296.63      713.50818     -132583.12      188.0394       192.56863      1437.9243    
    112200  -133297.27      713.76223     -132583.51      188.0691       192.5418       1438.3851    
    112300  -133298.54      703.21592     -132595.33      188.10254      192.51118      1438.8458    
    112400  -133303.57      695.3169      -132608.26      188.13769      192.47979      1439.3065    
    112500  -133303.36      693.33053     -132610.03      188.17565      192.44727      1439.7672    
    112600  -133312.44      710.98601     -132601.45      188.21597      192.41419      1440.228     
    112700  -133310.55      712.95332     -132597.6       188.25617      192.37976      1440.6887    
    112800  -133320.5       712.39518     -132608.11      188.29867      192.34849      1441.1494    
    112900  -133324.61      699.54366     -132625.07      188.34224      192.31847      1441.6101    
    113000  -133337.02      704.17874     -132632.84      188.38713      192.28829      1442.0709    
    113100  -133331.31      702.79244     -132628.51      188.43229      192.2593       1442.5316    
    113200  -133326.53      707.61268     -132618.92      188.4807       192.23072      1442.9923    
    113300  -133339.12      717.97977     -132621.14      188.52793      192.20056      1443.453     
    113400  -133343.72      706.63417     -132637.09      188.57757      192.17301      1443.9138    
    113500  -133352.74      701.54396     -132651.2       188.62485      192.1451       1444.3745    
    113600  -133345.8       697.69482     -132648.1       188.67327      192.11856      1444.8352    
    113700  -133337.89      710.16081     -132627.73      188.72203      192.09401      1445.296     
    113800  -133330.3       719.95539     -132610.35      188.77162      192.0713       1445.7567    
    113900  -133322.79      709.82647     -132612.97      188.82305      192.04752      1446.2174    
    114000  -133339.01      707.84473     -132631.17      188.87233      192.02187      1446.6781    
    114100  -133347.23      701.9091      -132645.32      188.92537      192.00043      1447.1389    
    114200  -133345.6       701.60708     -132643.99      188.97699      191.97944      1447.5996    
    114300  -133334.48      705.65642     -132628.82      189.02996      191.95956      1448.0603    
    114400  -133331.25      717.25077     -132614         189.0829       191.94048      1448.521     
    114500  -133334.26      718.16874     -132616.09      189.13553      191.9252       1448.9818    
    114600  -133342.67      707.50411     -132635.17      189.18881      191.91299      1449.4425    
    114700  -133365.98      710.70565     -132655.28      189.23955      191.8986       1449.9032    
    114800  -133361.92      699.41065     -132662.51      189.29097      191.88679      1450.3639    
    114900  -133364.92      710.04916     -132654.87      189.34087      191.87664      1450.8247    
    115000  -133360.3       715.20993     -132645.09      189.39163      191.86651      1451.2854    
    115100  -133361.51      714.52535     -132646.99      189.44372      191.85743      1451.7461    
    115200  -133365.62      702.32392     -132663.3       189.49304      191.84577      1452.2068    
    115300  -133377.51      699.48653     -132678.02      189.54621      191.83816      1452.6676    
    115400  -133376.33      700.3737      -132675.95      189.59783      191.82774      1453.1283    
    115500  -133364.38      708.58065     -132655.8       189.65101      191.81711      1453.589     
    115600  -133349.57      713.61023     -132635.96      189.7073       191.80748      1454.0497    
    115700  -133354.38      718.05923     -132636.32      189.76505      191.79628      1454.5105    
    115800  -133370.03      711.91229     -132658.11      189.82596      191.78773      1454.9712    
    115900  -133369.49      689.91632     -132679.57      189.8832       191.77473      1455.4319    
    116000  -133382.51      702.02579     -132680.48      189.94404      191.76777      1455.8926    
    116100  -133362.27      701.43869     -132660.83      190.00375      191.7592       1456.3534    
    116200  -133361.46      718.68339     -132642.78      190.06148      191.75022      1456.8141    
    116300  -133360.6       713.81745     -132646.78      190.11988      191.74635      1457.2748    
    116400  -133373.71      702.65851     -132671.05      190.1735       191.7411       1457.7355    
    116500  -133391.13      698.39127     -132692.74      190.22754      191.74108      1458.1963    
    116600  -133384.75      691.41964     -132693.33      190.27517      191.73903      1458.657     
    116700  -133379.59      704.66844     -132674.93      190.32258      191.74212      1459.1177    
    116800  -133375.11      720.8164      -132654.29      190.36623      191.74609      1459.5784    
    116900  -133361.63      709.63085     -132651.99      190.40607      191.75215      1460.0392    
    117000  -133369.95      705.05942     -132664.89      190.44628      191.76291      1460.4999    
    117100  -133370.87      696.81171     -132674.06      190.48075      191.7723       1460.9606    
    117200  -133361.5       695.20211     -132666.3       190.51501      191.78903      1461.4213    
    117300  -133346.91      704.99019     -132641.92      190.54312      191.80426      1461.8821    
    117400  -133337.55      717.06732     -132620.49      190.56999      191.82391      1462.3428    
    117500  -133343.77      719.63133     -132624.13      190.59422      191.84734      1462.8035    
    117600  -133351.87      702.90774     -132648.96      190.61413      191.87008      1463.2642    
    117700  -133359.38      691.86612     -132667.52      190.63366      191.89711      1463.725     
    117800  -133363.78      702.45512     -132661.33      190.64961      191.92505      1464.1857    
    117900  -133349.13      708.61743     -132640.51      190.66471      191.95769      1464.6464    
    118000  -133342.38      714.84673     -132627.54      190.67844      191.98891      1465.1071    
    118100  -133346.5       713.81357     -132632.68      190.68863      192.02161      1465.5679    
    118200  -133345.97      698.34915     -132647.62      190.69626      192.05441      1466.0286    
    118300  -133346.27      694.74913     -132651.52      190.70184      192.08898      1466.4893    
    118400  -133332.52      696.3206      -132636.2       190.70379      192.12353      1466.9501    
    118500  -133335.52      721.44609     -132614.07      190.70134      192.15679      1467.4108    
    118600  -133318.09      712.88284     -132605.21      190.6987       192.19012      1467.8715    
    118700  -133325.61      710.97477     -132614.63      190.69273      192.22097      1468.3322    
    118800  -133332.81      702.78282     -132630.02      190.68818      192.25351      1468.793     
    118900  -133328.27      697.11899     -132631.15      190.68182      192.28147      1469.2537    
    119000  -133321.94      705.26215     -132616.68      190.67895      192.3138       1469.7144    
    119100  -133317.92      720.31434     -132597.6       190.67317      192.34161      1470.1751    
    119200  -133299.82      710.0871      -132589.73      190.67191      192.37031      1470.6359    
    119300  -133307.78      710.76118     -132597.02      190.66986      192.39668      1471.0966    
    119400  -133311.53      703.29853     -132608.23      190.66957      192.42258      1471.5573    
    119500  -133313.43      703.17044     -132610.26      190.67066      192.44946      1472.018     
    119600  -133316.4       715.30453     -132601.1       190.67082      192.47213      1472.4788    
    119700  -133299.27      708.55606     -132590.72      190.67462      192.49696      1472.9395    
    119800  -133303.95      713.55383     -132590.4       190.67707      192.518        1473.4002    
    119900  -133307.7       706.9328      -132600.77      190.68119      192.53909      1473.8609    
    120000  -133309.57      700.54731     -132609.02      190.68476      192.56026      1474.3217    
    120100  -133311.81      707.66045     -132604.15      190.68728      192.58102      1474.7824    
    120200  -133293.46      704.3389      -132589.12      190.6874       192.60282      1475.2431    
    120300  -133283.57      708.61928     -132574.95      190.68087      192.6213       1475.7038    
    120400  -133280.54      708.90734     -132571.63      190.67455      192.64144      1476.1646    
    120500  -133282.73      705.26551     -132577.47      190.66653      192.66142      1476.6253    
    120600  -133281.04      699.40238     -132581.64      190.65359      192.67932      1477.086     
    120700  -133280.41      703.24705     -132577.16      190.63778      192.6976       1477.5467    
    120800  -133274.67      711.22985     -132563.44      190.61761      192.71493      1478.0075    
    120900  -133259.54      708.31664     -132551.22      190.59798      192.73275      1478.4682    
    121000  -133267.37      718.71046     -132548.66      190.57263      192.74599      1478.9289    
    121100  -133265.85      708.51105     -132557.33      190.5504       192.76261      1479.3896    
    121200  -133268.52      700.28832     -132568.24      190.52353      192.77635      1479.8504    
    121300  -133271.33      704.65301     -132566.68      190.4957       192.79151      1480.3111    
    121400  -133255.55      701.93994     -132553.61      190.46477      192.80554      1480.7718    
    121500  -133257.61      716.08431     -132541.52      190.42679      192.81565      1481.2325    
    121600  -133253.19      711.48442     -132541.71      190.38904      192.82694      1481.6933    
    121700  -133252.25      702.96475     -132549.28      190.34653      192.83691      1482.154     
    121800  -133255.05      700.52707     -132554.52      190.30328      192.84581      1482.6147    
    121900  -133254.63      705.10939     -132549.52      190.25742      192.85244      1483.0754    
    122000  -133242.15      703.03676     -132539.12      190.21011      192.85702      1483.5362    
    122100  -133239.18      709.19042     -132529.99      190.16431      192.86183      1483.9969    
    122200  -133246.2       718.17363     -132528.02      190.11617      192.86401      1484.4576    
    122300  -133237.38      704.28778     -132533.09      190.06831      192.86471      1484.9183    
    122400  -133245.53      707.93032     -132537.6       190.02035      192.86352      1485.3791    
    122500  -133247.27      708.1919      -132539.08      189.97374      192.8593       1485.8398    
    122600  -133243         708.23826     -132534.76      189.92691      192.8525       1486.3005    
    122700  -133241.9       713.21669     -132528.68      189.88219      192.84116      1486.7612    
    122800  -133235.43      705.55608     -132529.87      189.8401       192.83046      1487.222     
    122900  -133246.59      708.47303     -132538.11      189.79741      192.81701      1487.6827    
    123000  -133246.65      699.23483     -132547.41      189.75903      192.79981      1488.1434    
    123100  -133253.7       704.96786     -132548.73      189.72402      192.78182      1488.6042    
    123200  -133244.03      704.46844     -132539.57      189.68843      192.76243      1489.0649    
    123300  -133253.16      713.43432     -132539.73      189.65286      192.74036      1489.5256    
    123400  -133248.94      703.8935      -132545.04      189.61972      192.71557      1489.9863    
    123500  -133253.34      704.01813     -132549.32      189.58701      192.69129      1490.4471    
    123600  -133253.85      706.04072     -132547.81      189.55308      192.66775      1490.9078    
    123700  -133246.5       705.71566     -132540.79      189.51964      192.64034      1491.3685    
    123800  -133237.37      705.74818     -132531.62      189.48942      192.61365      1491.8292    
    123900  -133237.18      708.07103     -132529.11      189.45899      192.58798      1492.29      
    124000  -133236.94      707.19797     -132529.74      189.43028      192.56279      1492.7507    
    124100  -133239.71      703.71439     -132535.99      189.40517      192.53971      1493.2114    
    124200  -133249.47      708.48885     -132540.98      189.37829      192.51864      1493.6721    
    124300  -133241.29      704.18666     -132537.1       189.35311      192.50096      1494.1329    
    124400  -133233.5       704.59736     -132528.9       189.32689      192.48319      1494.5936    
    124500  -133235.13      713.94571     -132521.18      189.30374      192.46671      1495.0543    
    124600  -133242         718.80876     -132523.19      189.28478      192.45602      1495.515     
    124700  -133239.3       707.89297     -132531.41      189.26838      192.44751      1495.9758    
    124800  -133237.3       696.69658     -132540.6       189.25623      192.4427       1496.4365    
    124900  -133247.67      703.70964     -132543.96      189.24261      192.43975      1496.8972    
    125000  -133252.39      711.48929     -132540.9       189.23147      192.44092      1497.3579    
    125100  -133256.46      716.64909     -132539.81      189.21938      192.44084      1497.8187    
    125200  -133259.47      714.39975     -132545.07      189.20958      192.44439      1498.2794    
    125300  -133258.87      705.01221     -132553.86      189.20315      192.45059      1498.7401    
    125400  -133261.48      702.25483     -132559.22      189.19854      192.45757      1499.2008    
    125500  -133266.06      706.15584     -132559.9       189.19604      192.4665       1499.6616    
    125600  -133273.77      711.52154     -132562.25      189.19308      192.47701      1500.1223    
    125700  -133275.2       708.2161      -132566.99      189.19105      192.48763      1500.583     
    125800  -133276.71      708.47115     -132568.24      189.18855      192.49885      1501.0437    
    125900  -133271.04      700.84454     -132570.19      189.1836       192.51057      1501.5045    
    126000  -133284.89      709.54132     -132575.35      189.18112      192.52299      1501.9652    
    126100  -133276.35      702.15511     -132574.2       189.17857      192.5327       1502.4259    
    126200  -133278.33      710.21094     -132568.12      189.17722      192.54333      1502.8866    
    126300  -133275.33      709.5973      -132565.73      189.17373      192.55493      1503.3474    
    126400  -133275.97      705.53545     -132570.44      189.16797      192.56297      1503.8081    
    126500  -133283.98      704.79088     -132579.19      189.15993      192.57161      1504.2688    
    126600  -133279.48      695.97639     -132583.5       189.14771      192.57841      1504.7295    
    126700  -133287.1       707.81658     -132579.29      189.13846      192.58634      1505.1903    
    126800  -133281.78      709.25917     -132572.52      189.12904      192.58881      1505.651     
    126900  -133273.28      701.75314     -132571.52      189.1166       192.58839      1506.1117    
    127000  -133275.85      703.5164      -132572.33      189.10717      192.58765      1506.5724    
    127100  -133281.92      712.67096     -132569.25      189.09803      192.58188      1507.0332    
    127200  -133269.4       703.93513     -132565.46      189.08757      192.57413      1507.4939    
    127300  -133268.95      705.20355     -132563.74      189.07222      192.56315      1507.9546    
    127400  -133259.23      699.93822     -132559.29      189.06042      192.55346      1508.4153    
    127500  -133256.38      706.53513     -132549.84      189.04518      192.53681      1508.8761    
    127600  -133262.72      713.16136     -132549.56      189.02544      192.51865      1509.3368    
    127700  -133258.31      701.76185     -132556.55      189.00316      192.49987      1509.7975    
    127800  -133278.3       700.67103     -132577.63      188.98424      192.47907      1510.2582    
    127900  -133274.89      700.91801     -132573.97      188.96299      192.45576      1510.719     
    128000  -133260.57      701.49471     -132559.08      188.93899      192.43368      1511.1797    
    128100  -133260.71      715.71254     -132545         188.91549      192.40922      1511.6404    
    128200  -133260.68      712.84999     -132547.83      188.89334      192.3826       1512.1012    
    128300  -133278.41      713.172       -132565.24      188.86614      192.35364      1512.5619    
    128400  -133281.83      701.81714     -132580.01      188.83799      192.32496      1513.0226    
    128500  -133274.53      697.42359     -132577.1       188.81412      192.29947      1513.4833    
    128600  -133268.67      711.55825     -132557.11      188.78779      192.26918      1513.9441    
    128700  -133265.28      723.09934     -132542.18      188.76247      192.24115      1514.4048    
    128800  -133252.79      709.04242     -132543.75      188.73531      192.21074      1514.8655    
    128900  -133262.95      705.53532     -132557.41      188.70823      192.18084      1515.3262    
    129000  -133268.83      698.20868     -132570.62      188.67654      192.1468       1515.787     
    129100  -133275.28      703.7947      -132571.48      188.64358      192.11219      1516.2477    
    129200  -133264.44      701.11018     -132563.33      188.6115       192.07817      1516.7084    
    129300  -133265.59      709.46266     -132556.13      188.57679      192.04169      1517.1691    
    129400  -133272.46      716.50673     -132555.95      188.54174      192.00536      1517.6299    
    129500  -133270.29      704.05158     -132566.23      188.50772      191.96793      1518.0906    
    129600  -133276.93      699.76478     -132577.16      188.4795       191.93455      1518.5513    
    129700  -133281.6       703.78507     -132577.81      188.44871      191.89822      1519.012     
    129800  -133273.42      704.96758     -132568.45      188.41908      191.8622       1519.4728    
    129900  -133272.78      718.41804     -132554.36      188.38983      191.82766      1519.9335    
    130000  -133269.01      708.42225     -132560.59      188.35932      191.79468      1520.3942    
    130100  -133272.83      698.84965     -132573.98      188.33221      191.76197      1520.8549    
    130200  -133282.59      702.82861     -132579.76      188.30737      191.72849      1521.3157    
    130300  -133277.35      703.14728     -132574.21      188.288        191.69852      1521.7764    
    130400  -133272.88      713.29629     -132559.58      188.26825      191.66578      1522.2371    
    130500  -133271.2       714.55509     -132556.64      188.25138      191.63443      1522.6978    
    130600  -133277.77      710.46846     -132567.3       188.23337      191.60185      1523.1586    
    130700  -133284.33      698.6552      -132585.67      188.21789      191.56989      1523.6193    
    130800  -133293.97      700.15063     -132593.82      188.20418      191.53915      1524.08      
    130900  -133293.19      706.79122     -132586.4       188.19232      191.51062      1524.5407    
    131000  -133281.69      712.08295     -132569.61      188.18243      191.48278      1525.0015    
    131100  -133273.4       711.88061     -132561.52      188.17484      191.45464      1525.4622    
    131200  -133283.25      711.72606     -132571.52      188.16824      191.42597      1525.9229    
    131300  -133281.74      690.94865     -132590.79      188.16016      191.39756      1526.3836    
    131400  -133296.65      693.42145     -132603.22      188.15084      191.36889      1526.8444    
    131500  -133292.76      695.80213     -132596.96      188.14472      191.3436       1527.3051    
    131600  -133290.12      714.55275     -132575.56      188.14         191.31883      1527.7658    
    131700  -133275.04      711.7048      -132563.33      188.13564      191.29514      1528.2265    
    131800  -133278.17      708.53521     -132569.63      188.13088      191.27247      1528.6873    
    131900  -133297.84      709.24522     -132588.59      188.12473      191.24985      1529.148     
    132000  -133304.8       699.48766     -132605.31      188.11823      191.22777      1529.6087    
    132100  -133310.24      707.42849     -132602.81      188.10898      191.20388      1530.0694    
    132200  -133296.86      711.70303     -132585.15      188.10108      191.18188      1530.5302    
    132300  -133289.76      717.08238     -132572.68      188.09408      191.15837      1530.9909    
    132400  -133301.52      717.09064     -132584.43      188.08697      191.13258      1531.4516    
    132500  -133314.57      705.27287     -132609.29      188.07972      191.10904      1531.9123    
    132600  -133321.11      695.23649     -132625.88      188.07224      191.0881       1532.3731    
    132700  -133324.67      704.80931     -132619.86      188.06325      191.06745      1532.8338    
    132800  -133305.36      704.70014     -132600.66      188.05271      191.0486       1533.2945    
    132900  -133307.36      719.42651     -132587.94      188.04065      191.03033      1533.7553    
    133000  -133314.77      716.85183     -132597.92      188.03146      191.01283      1534.216     
    133100  -133329.77      707.77559     -132621.99      188.02178      190.99593      1534.6767    
    133200  -133342.68      704.17119     -132638.51      188.01246      190.98225      1535.1374    
    133300  -133334.87      698.38209     -132636.49      188.00466      190.9707       1535.5982    
    133400  -133330.94      707.9459      -132622.99      187.99809      190.95721      1536.0589    
    133500  -133324.27      710.79332     -132613.47      187.99485      190.94625      1536.5196    
    133600  -133333.69      718.0964      -132615.59      187.99076      190.9333       1536.9803    
    133700  -133333.95      707.0917      -132626.86      187.99059      190.92258      1537.4411    
    133800  -133331.08      696.00107     -132635.08      187.99211      190.91046      1537.9018    
    133900  -133324.22      694.71855     -132629.5       187.99611      190.89945      1538.3625    
    134000  -133323.62      708.69391     -132614.93      188.00214      190.8887       1538.8232    
    134100  -133321.07      715.99263     -132605.08      188.01076      190.88036      1539.284     
    134200  -133314.71      704.51544     -132610.19      188.01929      190.87171      1539.7447    
    134300  -133332.71      709.03086     -132623.68      188.02723      190.86331      1540.2054    
    134400  -133326.74      697.34837     -132629.39      188.03958      190.85808      1540.6661    
    134500  -133326.14      704.93165     -132621.2       188.05292      190.85374      1541.1269    
    134600  -133313.76      708.92759     -132604.83      188.06898      190.85192      1541.5876    
    134700  -133308.44      715.54671     -132592.89      188.08706      190.84967      1542.0483    
    134800  -133313.98      721.88676     -132592.09      188.10708      190.84969      1542.509     
    134900  -133314.01      709.19852     -132604.81      188.12566      190.84964      1542.9698    
    135000  -133317.3       696.19857     -132621.1       188.14323      190.84954      1543.4305    
    135100  -133319.06      694.54921     -132624.51      188.15973      190.85144      1543.8912    
    135200  -133319.19      706.20221     -132612.98      188.17311      190.8519       1544.3519    
    135300  -133309.73      711.08151     -132598.64      188.18787      190.85711      1544.8127    
    135400  -133316.16      720.85962     -132595.3       188.20029      190.86103      1545.2734    
    135500  -133316.29      706.35109     -132609.94      188.21066      190.86664      1545.7341    
    135600  -133336.34      704.11133     -132632.23      188.2216       190.87491      1546.1948    
    135700  -133332.93      690.94557     -132641.98      188.23171      190.8827       1546.6556    
    135800  -133336.71      703.33945     -132633.37      188.23984      190.89271      1547.1163    
    135900  -133338.23      721.19853     -132617.03      188.24182      190.90262      1547.577     
    136000  -133332.78      717.52137     -132615.25      188.24605      190.91577      1548.0377    
    136100  -133335.08      708.6191      -132626.47      188.24674      190.92744      1548.4985    
    136200  -133348.43      706.84814     -132641.58      188.24928      190.94393      1548.9592    
    136300  -133344.46      701.39059     -132643.07      188.24915      190.95928      1549.4199    
    136400  -133326.35      695.90966     -132630.44      188.25044      190.97869      1549.8806    
    136500  -133330.83      716.11524     -132614.71      188.24677      190.99758      1550.3414    
    136600  -133324.92      713.53873     -132611.38      188.24159      191.017        1550.8021    
    136700  -133323.06      703.35478     -132619.71      188.23674      191.03818      1551.2628    
    136800  -133333.44      700.86697     -132632.58      188.22923      191.05778      1551.7235    
    136900  -133336.39      696.39005     -132640         188.22252      191.08088      1552.1843    
    137000  -133333.57      701.68065     -132631.89      188.21408      191.10177      1552.645     
    137100  -133327.71      709.50518     -132618.2       188.20773      191.12415      1553.1057    
    137200  -133327         717.49296     -132609.51      188.20144      191.14629      1553.5664    
    137300  -133325.86      710.32425     -132615.53      188.19419      191.16803      1554.0272    
    137400  -133338.86      710.01505     -132628.85      188.18744      191.18991      1554.4879    
    137500  -133339.24      704.87051     -132634.37      188.18092      191.21018      1554.9486    
    137600  -133322.69      700.17505     -132622.52      188.17474      191.22999      1555.4094    
    137700  -133320.28      712.29916     -132607.98      188.16778      191.25026      1555.8701    
    137800  -133315.49      707.8993      -132607.59      188.16096      191.26909      1556.3308    
    137900  -133326.53      707.81006     -132618.72      188.15499      191.28925      1556.7915    
    138000  -133334.82      706.99735     -132627.82      188.14661      191.30815      1557.2523    
    138100  -133329.28      702.68877     -132626.59      188.14067      191.32941      1557.713     
    138200  -133333.69      712.37749     -132621.32      188.13541      191.34992      1558.1737    
    138300  -133325.74      709.74327     -132616         188.12872      191.37004      1558.6344    
    138400  -133325.15      705.03949     -132620.11      188.12157      191.38861      1559.0952    
    138500  -133338.32      710.72408     -132627.59      188.11334      191.40726      1559.5559    
    138600  -133330.32      700.46041     -132629.86      188.10763      191.42711      1560.0166    
    138700  -133339.74      712.55477     -132627.19      188.09998      191.44518      1560.4773    
    138800  -133332.77      708.25769     -132624.51      188.09452      191.46473      1560.9381    
    138900  -133330.38      703.947       -132626.43      188.08823      191.48319      1561.3988    
    139000  -133342.87      709.27648     -132633.6       188.08316      191.50192      1561.8595    
    139100  -133339.59      700.65411     -132638.94      188.07917      191.51911      1562.3202    
    139200  -133340.48      705.53033     -132634.95      188.07729      191.53731      1562.781     
    139300  -133329.44      703.15989     -132626.28      188.07559      191.55615      1563.2417    
    139400  -133338.99      715.60603     -132623.39      188.07358      191.57346      1563.7024    
    139500  -133341.93      710.92724     -132631         188.07269      191.59228      1564.1631    
    139600  -133348.73      703.34717     -132645.38      188.07142      191.61279      1564.6239    
    139700  -133346.79      694.54854     -132652.24      188.06774      191.6299       1565.0846    
    139800  -133339.81      697.66231     -132642.14      188.06544      191.64811      1565.5453    
    139900  -133331.85      712.90618     -132618.95      188.06354      191.66732      1566.006     
    140000  -133317.87      719.04388     -132598.82      188.06201      191.68697      1566.4668    
    140100  -133315.5       718.75022     -132596.75      188.06146      191.70483      1566.9275    
    140200  -133314.63      702.60704     -132612.02      188.06312      191.72242      1567.3882    
    140300  -133322.76      695.00307     -132627.76      188.06538      191.74098      1567.8489    
    140400  -133321.49      693.09718     -132628.39      188.06722      191.75554      1568.3097    
    140500  -133320.73      706.98744     -132613.74      188.07201      191.7706       1568.7704    
    140600  -133319.93      719.77071     -132600.16      188.07727      191.7832       1569.2311    
    140700  -133320.58      716.50794     -132604.07      188.08347      191.7946       1569.6918    
    140800  -133333.98      714.94217     -132619.03      188.09082      191.80292      1570.1526    
    140900  -133325.26      695.67726     -132629.59      188.09889      191.80806      1570.6133    
    141000  -133320.49      697.13968     -132623.35      188.11025      191.81432      1571.074     
    141100  -133319.27      714.67352     -132604.6       188.12202      191.81743      1571.5347    
    141200  -133303.98      712.93838     -132591.04      188.13642      191.81991      1571.9955    
    141300  -133307.31      714.26657     -132593.04      188.15152      191.81778      1572.4562    
    141400  -133315.61      704.54021     -132611.07      188.16879      191.81648      1572.9169    
    141500  -133322.19      692.13805     -132630.06      188.18449      191.81157      1573.3776    
    141600  -133333.31      703.33795     -132629.97      188.20282      191.8058       1573.8384    
    141700  -133310.09      695.09889     -132614.99      188.22241      191.79956      1574.2991    
    141800  -133317.76      717.56053     -132600.2       188.23995      191.79041      1574.7598    
    141900  -133315.1       712.76487     -132602.33      188.25862      191.78142      1575.2205    
    142000  -133327.8       706.17892     -132621.62      188.27697      191.76899      1575.6813    
    142100  -133336.89      698.61876     -132638.27      188.29732      191.75819      1576.142     
    142200  -133332.09      696.3807      -132635.71      188.31578      191.74622      1576.6027    
    142300  -133323.72      706.09704     -132617.63      188.3341       191.73322      1577.0634    
    142400  -133310.42      710.10212     -132600.32      188.35123      191.72011      1577.5242    
    142500  -133311.17      713.70898     -132597.46      188.36659      191.70537      1577.9849    
    142600  -133313.7       704.21617     -132609.48      188.38191      191.6913       1578.4456    
    142700  -133319.22      699.91292     -132619.31      188.39781      191.67843      1578.9064    
    142800  -133324.19      706.34212     -132617.85      188.41205      191.66667      1579.3671    
    142900  -133304.47      701.58961     -132602.88      188.42618      191.65722      1579.8278    
    143000  -133306.71      720.4521      -132586.25      188.43837      191.64756      1580.2885    
    143100  -133291.25      713.03112     -132578.22      188.45146      191.63956      1580.7493    
    143200  -133283.86      702.81547     -132581.04      188.46332      191.63263      1581.21      
    143300  -133289.43      701.35342     -132588.08      188.47438      191.62834      1581.6707    
    143400  -133296.8       704.9088      -132591.89      188.48413      191.62521      1582.1314    
    143500  -133292.48      705.00535     -132587.48      188.49435      191.62537      1582.5922    
    143600  -133287.66      710.56375     -132577.09      188.50446      191.62733      1583.0529    
    143700  -133276.68      709.26191     -132567.42      188.51238      191.62758      1583.5136    
    143800  -133280.08      715.26246     -132564.82      188.52301      191.63004      1583.9743    
    143900  -133281.91      710.74815     -132571.16      188.53144      191.62894      1584.4351    
    144000  -133277.7       698.64694     -132579.05      188.54112      191.62855      1584.8958    
    144100  -133275.49      693.018       -132582.47      188.54936      191.62698      1585.3565    
    144200  -133286.88      705.75743     -132581.12      188.5583       191.62404      1585.8172    
    144300  -133283.16      704.4096      -132578.75      188.56862      191.62234      1586.278     
    144400  -133272.99      700.26012     -132572.73      188.57484      191.61653      1586.7387    
    144500  -133272.36      706.17485     -132566.18      188.58423      191.6119       1587.1994    
    144600  -133275.14      714.41486     -132560.72      188.59099      191.60511      1587.6601    
    144700  -133267.69      708.0023      -132559.68      188.59776      191.59918      1588.1209    
    144800  -133270.53      705.1565      -132565.37      188.6026       191.59261      1588.5816    
    144900  -133270.23      698.17725     -132572.05      188.60672      191.586        1589.0423    
    145000  -133278.05      705.73982     -132572.31      188.61009      191.58092      1589.503     
    145100  -133275.16      711.20052     -132563.96      188.60955      191.57331      1589.9638    
    145200  -133275.16      718.55188     -132556.61      188.61072      191.56837      1590.4245    
    145300  -133278.01      720.36966     -132557.64      188.60793      191.56012      1590.8852    
    145400  -133272.01      706.19143     -132565.82      188.60634      191.55227      1591.3459    
    145500  -133282.39      709.07235     -132573.32      188.60222      191.54313      1591.8067    
    145600  -133279.2       705.72951     -132573.47      188.59658      191.5341       1592.2674    
    145700  -133273.1       704.21554     -132568.89      188.59147      191.52461      1592.7281    
    145800  -133277.67      710.65209     -132567.02      188.5793       191.50966      1593.1888    
    145900  -133288.35      717.94556     -132570.4       188.57183      191.49542      1593.6496    
    146000  -133289.26      709.63154     -132579.63      188.56146      191.47728      1594.1103    
    146100  -133298.63      707.04433     -132591.59      188.55143      191.45876      1594.571     
    146200  -133301.22      705.67401     -132595.55      188.54092      191.43797      1595.0317    
    146300  -133293.18      701.57092     -132591.61      188.53034      191.41534      1595.4925    
    146400  -133294.51      709.84644     -1325