LAMMPS (2 Aug 2023 - Update 3)
OMP_NUM_THREADS environment is not set. Defaulting to 1 thread. (src/comm.cpp:98)
  using 1 OpenMP thread(s) per MPI task

# 1------general---------------
units                             metal      #单位为lammps 中的metel 类型
dimension                    3          #模拟的维度 三维
boundary                    p p p      #周期边界条件
atom_style                  atomic   #原子类型自动
atom_modify              map array sort 100 2.0
neighbor                    3.0 bin
neigh_modify            every 1 delay 0 check yes
#2 -----global variable-------定义全局变量，方便统一修改；
variable temperature equal 300
variable tstep equal 0.001
variable pressure equal 0
variable thermalstep equal 100
variable dumpstep equal 1000
variable relaxtime equal 0
variable totaltime equal 100000
variable deformrate equal 5e-3
#3 -------model------------
#box tilt large
read_data     1.lmp
Reading data file ...
  orthogonal box = (-100 -100 -2.3312512) to (100 100 41.316429)
  2 by 5 by 1 MPI processor grid
  reading atoms ...
  1824 atoms
  read_data CPU = 0.045 seconds
replicate 1 1 11
Replication is creating a 1x1x11 = 11 times larger system...
  orthogonal box = (-100 -100 -2.3312512) to (100 100 477.79323)
  1 by 2 by 5 MPI processor grid
  20064 atoms
  replicate CPU = 0.001 seconds
write_data h.data
System init for write_data ...
WARNING: Communication cutoff is 0.0. No ghost atoms will be generated. Atoms may get lost. (src/comm_brick.cpp:210)
pair_style hybrid airebo 3.0 airebo 3.0 airebo 3.0 lj/cut 10
pair_coeff * * airebo 1 CH.airebo C NULL NULL
Reading airebo potential file CH.airebo with DATE: 2011-10-25
pair_coeff * * airebo 2 CH.airebo NULL C NULL
Reading airebo potential file CH.airebo with DATE: 2011-10-25
pair_coeff * * airebo 3 CH.airebo NULL NULL C
Reading airebo potential file CH.airebo with DATE: 2011-10-25
pair_coeff 1 2 lj/cut 0.00456 3.431
pair_coeff 1 3 lj/cut 0.00456 3.431
pair_coeff 2 3 lj/cut 0.00456 3.431

# 5------minimize -----------
min_style      sd
minimize       1.0e-4 1.0e-6 100 1000
Neighbor list info ...
  update: every = 1 steps, delay = 0 steps, check = yes
  max neighbors/atom: 2000, page size: 100000
  master list distance cutoff = 13.2
  ghost atom cutoff = 13.2
  binsize = 6.6, bins = 31 31 73
  6 neighbor lists, perpetual/occasional/extra = 6 0 0
  (1) pair airebo, perpetual, skip from (5)
      attributes: full, newton on, ghost
      pair build: skip/ghost
      stencil: none
      bin: none
  (2) pair airebo, perpetual, skip from (5)
      attributes: full, newton on, ghost
      pair build: skip/ghost
      stencil: none
      bin: none
  (3) pair airebo, perpetual, skip from (5)
      attributes: full, newton on, ghost
      pair build: skip/ghost
      stencil: none
      bin: none
  (4) pair lj/cut, perpetual, skip from (6)
      attributes: half, newton on, cut 13
      pair build: skip
      stencil: none
      bin: none
  (5) neighbor class addition, perpetual
      attributes: full, newton on, ghost
      pair build: full/bin/ghost
      stencil: full/ghost/bin/3d
      bin: standard
  (6) neighbor class addition, perpetual
      attributes: half, newton on, cut 13
      pair build: half/bin/atomonly/newton
      stencil: half/bin/3d
      bin: standard
Per MPI rank memory allocation (min/avg/max) = 16.47 | 16.85 | 17.23 Mbytes
   Step          Temp          E_pair         E_mol          TotEng         Press     
         0   0             -144544.01      0             -144544.01      705.43265    
         4   0             -145036.96      0             -145036.96      93.415916    
Loop time of 0.611998 on 10 procs for 4 steps with 20064 atoms

79.1% CPU use with 10 MPI tasks x 1 OpenMP threads

Minimization stats:
  Stopping criterion = energy tolerance
  Energy initial, next-to-last, final = 
     -144544.010993639  -145024.620511893  -145036.962147859
  Force two-norm initial, final = 229.04205 38.185642
  Force max component initial, final = 3.4318528 0.54749295
  Final line search alpha, max atom move = 0.13695896 0.074984064
  Iterations, force evaluations = 4 8

MPI task timing breakdown:
Section |  min time  |  avg time  |  max time  |%varavg| %total
---------------------------------------------------------------
Pair    | 0.24641    | 0.31099    | 0.40013    |  12.6 | 50.82
Neigh   | 0          | 0          | 0          |   0.0 |  0.00
Comm    | 0.040736   | 0.16994    | 0.26164    |  19.9 | 27.77
Output  | 0          | 0          | 0          |   0.0 |  0.00
Modify  | 0          | 0          | 0          |   0.0 |  0.00
Other   |            | 0.1311     |            |       | 21.42

Nlocal:         2006.4 ave        2057 max        1940 min
Histogram: 1 2 2 0 0 0 0 0 0 5
Nghost:         3110.4 ave        3179 max        3051 min
Histogram: 4 0 0 1 0 0 1 2 0 2
Neighs:              0 ave           0 max           0 min
Histogram: 10 0 0 0 0 0 0 0 0 0

Total # of neighbors = 0
Ave neighs/atom = 0
Neighbor list builds = 0
Dangerous builds = 0
#6----define computes------
variable nums equal count(all) #计算原子数目
variable toval equal 22.7273*22.7165*lz #计算系统总体积，单层石墨烯厚度为0.335nm
variable vol equal ${toval} #体系的初始体积
variable vol equal 247880.930128996 
variable vatom equal v_vol/v_nums #单个原子体积
compute 1 all stress/atom NULL #计算体系中单原子应力
compute xalls all reduce sum c_1[1]
variable xstress equal (c_xalls)/(v_toval*10000)
compute yalls all reduce sum c_1[2]
variable ystress equal (c_yalls)/(v_toval*10000)
compute zalls all reduce sum c_1[3]
variable zstress equal (c_zalls)/(v_toval*10000)
#7---------relaxation-------------------------
timestep ${tstep}
timestep 0.001
velocity all create ${temperature} 231743 units box dist gaussian
velocity all create 300 231743 units box dist gaussian
dump   1 all atom 100 all-cy.lammpstrj
#fix    1 all npt temp 300 300  0.1 aniso 0 0 10 drag 1  #三个方向独立控压
fix  1 all npt temp ${temperature} ${temperature} 0.1 x ${pressure} ${pressure} 10 y ${pressure} ${pressure} 10
fix  1 all npt temp 300 ${temperature} 0.1 x ${pressure} ${pressure} 10 y ${pressure} ${pressure} 10
fix  1 all npt temp 300 300 0.1 x ${pressure} ${pressure} 10 y ${pressure} ${pressure} 10
fix  1 all npt temp 300 300 0.1 x 0 ${pressure} 10 y ${pressure} ${pressure} 10
fix  1 all npt temp 300 300 0.1 x 0 0 10 y ${pressure} ${pressure} 10
fix  1 all npt temp 300 300 0.1 x 0 0 10 y 0 ${pressure} 10
fix  1 all npt temp 300 300 0.1 x 0 0 10 y 0 0 10
compute  2 all pe/atom
compute  pe all reduce sum c_2
variable PE equal "c_pe"
fix    pe all print 100 "${PE} " file PE.txt screen no
thermo  ${thermalstep}
thermo  100
#thermo_style  custom step pe ke etotal lx ly lz
run   ${relaxtime}
run   0
Per MPI rank memory allocation (min/avg/max) = 17.09 | 17.48 | 17.86 Mbytes
   Step          Temp          E_pair         E_mol          TotEng         Press          Volume    
         4   300           -145036.96      0             -144258.96      136.68593      19204979     
Loop time of 0.0035891 on 10 procs for 0 steps with 20064 atoms

56.1% CPU use with 10 MPI tasks x 1 OpenMP threads

MPI task timing breakdown:
Section |  min time  |  avg time  |  max time  |%varavg| %total
---------------------------------------------------------------
Pair    | 0          | 0          | 0          |   0.0 |  0.00
Neigh   | 0          | 0          | 0          |   0.0 |  0.00
Comm    | 0          | 0          | 0          |   0.0 |  0.00
Output  | 0          | 0          | 0          |   0.0 |  0.00
Modify  | 0          | 0          | 0          |   0.0 |  0.00
Other   |            | 0.003589   |            |       |100.00

Nlocal:         2006.4 ave        2026 max        1968 min
Histogram: 1 0 0 0 2 1 1 0 2 3
Nghost:         3109.4 ave        3147 max        3081 min
Histogram: 3 1 0 1 0 2 0 1 1 1
Neighs:              0 ave           0 max           0 min
Histogram: 10 0 0 0 0 0 0 0 0 0

Total # of neighbors = 0
Ave neighs/atom = 0
Neighbor list builds = 0
Dangerous builds = 0
#8 -------tension-----------------------------
unfix  1
undump  1
unfix  pe
reset_timestep 0
fix avestress all ave/atom 1 ${dumpstep} ${dumpstep} c_1[1] c_1[2] c_1[3] c_1[4] c_1[5] c_1[6]
fix avestress all ave/atom 1 1000 ${dumpstep} c_1[1] c_1[2] c_1[3] c_1[4] c_1[5] c_1[6]
fix avestress all ave/atom 1 1000 1000 c_1[1] c_1[2] c_1[3] c_1[4] c_1[5] c_1[6]

#-----calculation of strain and Cumulative compression--------
variable                tmp equal "lz"
variable                L0 equal ${tmp}
variable                L0 equal 480.1244838588
variable                strain equal "(lz - v_L0)/v_L0"
variable                Cumulativels equal "(lz - v_L0)/10"
fix Step all print 100 "${strain} ${Cumulativels} ${zstress}" file grapoten.txt screen no

dump 2 all custom ${dumpstep} tension.xyz type x y z f_avestress[1] f_avestress[2] f_avestress[3] f_avestress[4] f_avestress[5] f_avestress[6]
dump 2 all custom 1000 tension.xyz type x y z f_avestress[1] f_avestress[2] f_avestress[3] f_avestress[4] f_avestress[5] f_avestress[6]

fix  1 all npt temp ${temperature} ${temperature} 0.1 y ${pressure} ${pressure} 10 x ${pressure} ${pressure} 10
fix  1 all npt temp 300 ${temperature} 0.1 y ${pressure} ${pressure} 10 x ${pressure} ${pressure} 10
fix  1 all npt temp 300 300 0.1 y ${pressure} ${pressure} 10 x ${pressure} ${pressure} 10
fix  1 all npt temp 300 300 0.1 y 0 ${pressure} 10 x ${pressure} ${pressure} 10
fix  1 all npt temp 300 300 0.1 y 0 0 10 x ${pressure} ${pressure} 10
fix  1 all npt temp 300 300 0.1 y 0 0 10 x 0 ${pressure} 10
fix  1 all npt temp 300 300 0.1 y 0 0 10 x 0 0 10

thermo_style custom step pe ke etotal lx ly lz
fix   2 all deform 1 z erate ${deformrate} remap x units box
fix   2 all deform 1 z erate 0.005 remap x units box
fix   3 all ave/time 2 500 1000 v_xstress v_ystress v_zstress file pressure.out
run   ${totaltime}
run   100000
WARNING: Dump 2 includes no atom IDs and is not sorted by ID. This may complicate post-processing tasks or visualization (src/dump.cpp:221)
Per MPI rank memory allocation (min/avg/max) = 18.59 | 18.98 | 19.36 Mbytes
   Step         PotEng         KinEng         TotEng           Lx             Ly             Lz      
         0  -145036.96      778.00389     -144258.96      200            200            480.12448    
       100  -144598.03      391.19936     -144206.83      199.99207      199.99121      480.36455    
       200  -144630.18      493.04873     -144137.13      199.98446      199.98576      480.60461    
       300  -144580         525.11582     -144054.89      200.00314      200.00727      480.84467    
       400  -144546.62      581.04714     -143965.58      199.99439      200.00475      481.08473    
       500  -144502.91      630.51713     -143872.4       199.98302      200.0031       481.3248     
       600  -144462.1       684.91509     -143777.18      199.99624      200.02413      481.56486    
       700  -144409.69      723.44386     -143686.24      199.98635      200.01948      481.80492    
       800  -144338.11      732.35089     -143605.76      199.96732      200.00599      482.04498    
       900  -144308.77      768.52702     -143540.24      199.96938      200.00987      482.28504    
      1000  -144264.21      761.34475     -143502.86      199.97714      200.01812      482.52511    
      1100  -144304.13      794.92041     -143509.21      199.96748      200.00853      482.76517    
      1200  -144305.93      759.69733     -143546.23      199.97527      200.01638      483.00523    
      1300  -144340.2       771.96925     -143568.23      199.97592      200.01695      483.24529    
      1400  -144335.89      774.98884     -143560.9       199.96474      200.0082       483.48536    
      1500  -144326.15      794.21821     -143531.93      199.96498      200.01035      483.72542    
      1600  -144319.41      812.62909     -143506.78      199.9674       200.01417      483.96548    
      1700  -144294.42      790.80405     -143503.62      199.95591      200.00663      484.20554    
      1800  -144313.52      787.82378     -143525.7       199.95091      200.00409      484.4456     
      1900  -144296.52      751.3873      -143545.14      199.9564       200.01333      484.68567    
      2000  -144307.52      764.1251      -143543.4       199.94543      200.00939      484.92573    
      2100  -144282.68      759.07422     -143523.61      199.93498      200.00674      485.16579    
      2200  -144283.78      780.32536     -143503.46      199.92854      200.00983      485.40585    
      2300  -144272.15      774.97678     -143497.17      199.92304      200.01479      485.64592    
      2400  -144295.39      787.61306     -143507.77      199.90991      200.01314      485.88598    
      2500  -144295.13      772.16384     -143522.97      199.90496      200.02123      486.12604    
      2600  -144294.45      772.8536      -143521.6       199.89791      200.02777      486.3661     
      2700  -144285.19      783.68664     -143501.5       199.88229      200.02755      486.60616    
      2800  -144268.21      789.12278     -143479.08      199.87027      200.03109      486.84623    
      2900  -144274.63      803.39362     -143471.24      199.86341      200.03879      487.08629    
      3000  -144255.61      775.17066     -143480.44      199.85326      200.04281      487.32635    
      3100  -144266.24      774.38661     -143491.86      199.8387       200.04049      487.56641    
      3200  -144253.79      763.19489     -143490.6       199.83169      200.04183      487.80648    
      3300  -144251.83      778.97149     -143472.86      199.81884      200.03568      488.04654    
      3400  -144230.31      778.14056     -143452.16      199.81038      200.0319       488.2866     
      3500  -144229.84      786.75907     -143443.09      199.80492      200.03045      488.52666    
      3600  -144223.1       777.14732     -143445.95      199.79856      200.02902      488.76672    
      3700  -144229.68      777.4182      -143452.27      199.78693      200.0222       489.00679    
      3800  -144226.43      774.36678     -143452.07      199.77886      200.01865      489.24685    
      3900  -144214.09      773.26108     -143440.83      199.77262      200.01579      489.48691    
      4000  -144208.43      786.39416     -143422.03      199.76583      200.00837      489.72697    
      4100  -144190.3       784.38323     -143405.92      199.76457      200.00522      489.96704    
      4200  -144188.91      785.9631      -143402.95      199.76044      199.99955      490.2071     
      4300  -144181.3       772.9796      -143408.32      199.75432      199.9912       490.44716    
      4400  -144184.29      775.17943     -143409.11      199.74879      199.98309      490.68722    
      4500  -144168.45      771.4831      -143396.97      199.74535      199.9796       490.92728    
      4600  -144161.24      782.72554     -143378.52      199.73559      199.97102      491.16735    
      4700  -144155.19      791.86659     -143363.32      199.72627      199.96289      491.40741    
      4800  -144146.69      788.15306     -143358.53      199.71933      199.95862      491.64747    
      4900  -144139.39      778.13153     -143361.26      199.71235      199.95486      491.88753    
      5000  -144133.36      769.62119     -143363.74      199.70035      199.94754      492.1276     
      5100  -144134.07      775.56743     -143358.5       199.68693      199.94039      492.36766    
      5200  -144120.14      777.73142     -143342.41      199.67638      199.93558      492.60772    
      5300  -144106.7       784.17295     -143322.52      199.66145      199.92672      492.84778    
      5400  -144091.24      784.11672     -143307.12      199.64623      199.91838      493.08784    
      5500  -144086.81      784.5765      -143302.24      199.63486      199.91288      493.32791    
      5600  -144078.51      772.85985     -143305.65      199.62486      199.90844      493.56797    
      5700  -144074.65      767.92095     -143306.73      199.60984      199.9007       493.80803    
      5800  -144066.12      769.59063     -143296.53      199.6002       199.89764      494.04809    
      5900  -144051.15      776.05397     -143275.1       199.58947      199.89248      494.28816    
      6000  -144044.11      791.31657     -143252.8       199.57594      199.88401      494.52822    
      6100  -144026.71      784.94012     -143241.77      199.56786      199.87814      494.76828    
      6200  -144023.32      780.3153      -143243         199.55798      199.87132      495.00834    
      6300  -144022.14      774.95598     -143247.18      199.54126      199.85971      495.24841    
      6400  -144012.83      771.49788     -143241.33      199.52834      199.85173      495.48847    
      6500  -143994.71      774.13515     -143220.58      199.51673      199.84591      495.72853    
      6600  -143979.14      784.14048     -143195         199.50111      199.8354       495.96859    
      6700  -143962.23      782.83047     -143179.4       199.48817      199.82742      496.20865    
      6800  -143958.74      778.14922     -143180.59      199.47466      199.81958      496.44872    
      6900  -143952.52      768.95694     -143183.57      199.45603      199.80704      496.68878    
      7000  -143950.14      773.76772     -143176.37      199.43587      199.79568      496.92884    
      7100  -143927.89      771.00267     -143156.89      199.42153      199.79019      497.1689     
      7200  -143915.95      783.03539     -143132.92      199.40273      199.7809       497.40897    
      7300  -143895.86      779.38635     -143116.47      199.38631      199.77013      497.64903    
      7400  -143890.02      777.32596     -143112.69      199.37566      199.76368      497.88909    
      7500  -143890.14      776.04979     -143114.09      199.36087      199.753        498.12915    
      7600  -143879.63      772.25796     -143107.37      199.3415       199.73756      498.36921    
      7700  -143861.45      770.84703     -143090.6       199.32446      199.7261       498.60928    
      7800  -143845.07      776.52279     -143068.55      199.30815      199.7157       498.84934    
      7900  -143837.05      786.60829     -143050.44      199.28949      199.70237      499.0894     
      8000  -143818.93      775.39633     -143043.53      199.2759       199.69526      499.32946    
      8100  -143817.19      776.57053     -143040.62      199.26073      199.68617      499.56953    
      8200  -143809.67      776.81971     -143032.85      199.23701      199.67095      499.80959    
      8300  -143789.49      773.59281     -143015.89      199.21262      199.65763      500.04965    
      8400  -143765.4       772.08286     -142993.32      199.19499      199.65264      500.28971    
      8500  -143754.83      780.32321     -142974.5       199.17192      199.64488      500.52977    
      8600  -143750.81      784.71478     -142966.1       199.14641      199.63447      500.76984    
      8700  -143740.73      776.39358     -142964.34      199.12304      199.62717      501.0099     
      8800  -143731.05      772.48896     -142958.56      199.09618      199.61534      501.24996    
      8900  -143714.36      773.97929     -142940.38      199.06814      199.60242      501.49002    
      9000  -143699.16      780.25583     -142918.91      199.04584      199.59463      501.73009    
      9100  -143682.81      780.53534     -142902.28      199.0235       199.58353      501.97015    
      9200  -143670.79      780.2739      -142890.52      198.99637      199.56907      502.21021    
      9300  -143653.58      771.48119     -142882.1       198.97519      199.56081      502.45027    
      9400  -143646.67      772.14969     -142874.52      198.95249      199.55099      502.69033    
      9500  -143633.79      773.06274     -142860.73      198.92571      199.53663      502.9304     
      9600  -143614.38      774.89942     -142839.48      198.90132      199.52371      503.17046    
      9700  -143599.81      784.54129     -142815.27      198.87844      199.51105      503.41052    
      9800  -143580.78      781.08199     -142799.7       198.85327      199.49448      503.65058    
      9900  -143572.91      780.71924     -142792.19      198.83076      199.47854      503.89065    
     10000  -143559.04      774.78254     -142784.26      198.80843      199.4625       504.13071    
     10100  -143542.98      773.62        -142769.36      198.78254      199.4451       504.37077    
     10200  -143524.73      776.20521     -142748.53      198.75655      199.42861      504.61083    
     10300  -143507.63      781.16198     -142726.46      198.72887      199.41229      504.85089    
     10400  -143491.87      782.02835     -142709.84      198.70255      199.39687      505.09096    
     10500  -143482.85      782.45936     -142700.39      198.6763       199.38036      505.33102    
     10600  -143464.34      772.04899     -142692.3       198.65038      199.36241      505.57108    
     10700  -143452.03      774.02145     -142678.01      198.62462      199.34629      505.81114    
     10800  -143434.63      779.8841      -142654.75      198.59847      199.33113      506.05121    
     10900  -143423.07      789.86319     -142633.21      198.57082      199.31444      506.29127    
     11000  -143397.61      778.36294     -142619.25      198.54142      199.29913      506.53133    
     11100  -143388.71      781.33485     -142607.38      198.51146      199.28329      506.77139    
     11200  -143362.24      770.68997     -142591.55      198.4804       199.26833      507.01145    
     11300  -143351.98      780.50056     -142571.48      198.45047      199.25602      507.25152    
     11400  -143330.24      777.57824     -142552.66      198.41993      199.24029      507.49158    
     11500  -143314.51      776.39938     -142538.11      198.38825      199.22359      507.73164    
     11600  -143309.49      784.22602     -142525.26      198.35914      199.20902      507.9717     
     11700  -143282.67      772.79991     -142509.87      198.32904      199.1945       508.21177    
     11800  -143266.45      777.09309     -142489.36      198.29719      199.17661      508.45183    
     11900  -143240.65      772.68583     -142467.96      198.26729      199.16024      508.69189    
     12000  -143227.13      777.27652     -142449.86      198.23805      199.14124      508.93195    
     12100  -143212.05      778.53171     -142433.52      198.20855      199.11848      509.17202    
     12200  -143190.27      773.06907     -142417.2       198.18007      199.09553      509.41208    
     12300  -143176.79      775.53608     -142401.26      198.15619      199.07131      509.65214    
     12400  -143165.91      780.06828     -142385.84      198.13207      199.04432      509.8922     
     12500  -143146.23      776.74763     -142369.48      198.10886      199.01761      510.13226    
     12600  -143123.18      773.89263     -142349.29      198.08973      198.99426      510.37233    
     12700  -143104.27      777.38598     -142326.89      198.06807      198.972        510.61239    
     12800  -143081.93      777.68394     -142304.25      198.04339      198.94625      510.85245    
     12900  -143065.64      780.5122      -142285.13      198.02015      198.92054      511.09251    
     13000  -143048.17      778.06303     -142270.11      197.997        198.89478      511.33258    
     13100  -143029.01      774.01962     -142254.99      197.97269      198.86717      511.57264    
     13200  -143013.43      776.92477     -142236.51      197.94819      198.84191      511.8127     
     13300  -142993.88      778.47514     -142215.41      197.92277      198.81892      512.05276    
     13400  -142970.01      777.29266     -142192.71      197.89634      198.7957       512.29282    
     13500  -142949.89      776.74173     -142173.15      197.86985      198.77683      512.53289    
     13600  -142941.53      784.21376     -142157.31      197.83956      198.75595      512.77295    
     13700  -142911.7       769.55332     -142142.15      197.8053       198.73339      513.01301    
     13800  -142894.52      770.47421     -142124.04      197.77546      198.71654      513.25307    
     13900  -142877.9       779.2242      -142098.68      197.74407      198.69731      513.49314    
     14000  -142851.03      781.20898     -142069.83      197.71066      198.67811      513.7332     
     14100  -142833.72      781.14877     -142052.57      197.68028      198.66411      513.97326    
     14200  -142813.61      775.49053     -142038.12      197.64796      198.64827      514.21332    
     14300  -142795.54      777.18382     -142018.36      197.61496      198.63208      514.45338    
     14400  -142775.9       780.16589     -141995.73      197.58465      198.61879      514.69345    
     14500  -142753.89      781.11724     -141972.77      197.55434      198.60235      514.93351    
     14600  -142728.41      778.15764     -141950.25      197.52673      198.58538      515.17357    
     14700  -142711.08      780.82472     -141930.26      197.50449      198.57221      515.41363    
     14800  -142693.51      777.74571     -141915.77      197.47852      198.55577      515.6537     
     14900  -142673.69      774.42193     -141899.27      197.45049      198.53523      515.89376    
     15000  -142655.29      774.78101     -141880.51      197.42283      198.51872      516.13382    
     15100  -142628.94      771.66827     -141857.28      197.39604      198.50243      516.37388    
     15200  -142606.03      780.37973     -141825.65      197.37015      198.48344      516.61394    
     15300  -142581.79      780.33449     -141801.46      197.34714      198.46768      516.85401    
     15400  -142563.76      777.41797     -141786.34      197.32767      198.45031      517.09407    
     15500  -142548.96      776.61548     -141772.34      197.30429      198.42844      517.33413    
     15600  -142522.42      773.00813     -141749.41      197.28072      198.40691      517.57419    
     15700  -142499.26      775.41707     -141723.84      197.26017      198.38834      517.81426    
     15800  -142482.74      783.92727     -141698.82      197.23678      198.3685       518.05432    
     15900  -142457.68      777.80941     -141679.87      197.21369      198.34891      518.29438    
     16000  -142440.41      773.75231     -141666.66      197.1947       198.33148      518.53444    
     16100  -142416.87      772.80553     -141644.06      197.17856      198.31541      518.7745     
     16200  -142385.38      774.52625     -141610.86      197.15904      198.29763      519.01457    
     16300  -142359.7       774.47703     -141585.23      197.13871      198.27943      519.25463    
     16400  -142347.53      784.02786     -141563.5       197.11905      198.263        519.49469    
     16500  -142323.77      776.22323     -141547.55      197.09608      198.24628      519.73475    
     16600  -142305.26      772.81422     -141532.44      197.07306      198.22879      519.97482    
     16700  -142277.68      770.73699     -141506.94      197.05598      198.21556      520.21488    
     16800  -142254.73      785.57452     -141469.15      197.04012      198.20137      520.45494    
     16900  -142220.05      775.98761     -141444.06      197.02215      198.18451      520.695      
     17000  -142207.49      780.72008     -141426.77      197.00539      198.17053      520.93506    
     17100  -142182.28      772.1784      -141410.1       196.98837      198.15565      521.17513    
     17200  -142166.2       778.17135     -141388.03      196.96741      198.13759      521.41519    
     17300  -142139.59      775.74589     -141363.85      196.94918      198.12441      521.65525    
     17400  -142113.84      782.32152     -141331.52      196.93175      198.11272      521.89531    
     17500  -142086.12      783.29136     -141302.82      196.91198      198.09897      522.13538    
     17600  -142065.09      782.39564     -141282.69      196.89398      198.08796      522.37544    
     17700  -142042.12      773.59737     -141268.52      196.87788      198.0792       522.6155     
     17800  -142018.95      772.69554     -141246.26      196.85971      198.0696       522.85556    
     17900  -141997.45      779.04453     -141218.41      196.84119      198.06069      523.09563    
     18000  -141963.77      775.29612     -141188.48      196.82363      198.05386      523.33569    
     18100  -141940.65      779.70993     -141160.94      196.80718      198.04554      523.57575    
     18200  -141909.32      771.68129     -141137.64      196.78997      198.0359       523.81581    
     18300  -141895.97      781.65215     -141114.32      196.77469      198.0262       524.05587    
     18400  -141873.64      777.29888     -141096.34      196.76045      198.01591      524.29594    
     18500  -141850.38      770.9669      -141079.42      196.74488      198.00604      524.536      
     18600  -141819.48      769.0194      -141050.46      196.72911      197.99664      524.77606    
     18700  -141795.76      780.42947     -141015.33      196.71163      197.98274      525.01612    
     18800  -141768.89      781.42732     -140987.47      196.695        197.96643      525.25619    
     18900  -141747.96      781.59358     -140966.37      196.68071      197.94971      525.49625    
     19000  -141725.87      776.35525     -140949.51      196.67005      197.9332       525.73631    
     19100  -141703.28      775.88492     -140927.4       196.66195      197.92139      525.97637    
     19200  -141674.14      774.4469      -140899.69      196.65281      197.90984      526.21643    
     19300  -141645.68      775.06641     -140870.62      196.64266      197.89587      526.4565     
     19400  -141624.57      782.66759     -140841.9       196.62973      197.88261      526.69656    
     19500  -141594.11      778.40512     -140815.7       196.61766      197.86777      526.93662    
     19600  -141567.88      780.39924     -140787.48      196.60697      197.85399      527.17668    
     19700  -141542.56      783.51493     -140759.05      196.59934      197.84601      527.41675    
     19800  -141514.58      780.5566      -140734.02      196.59332      197.83912      527.65681    
     19900  -141491.63      775.13636     -140716.5       196.58189      197.83201      527.89687    
     20000  -141461.39      767.57485     -140693.82      196.5706       197.82729      528.13693    
     20100  -141445.12      783.72665     -140661.4       196.55806      197.82462      528.37699    
     20200  -141406.15      776.66168     -140629.49      196.54363      197.81796      528.61706    
     20300  -141377.57      775.16097     -140602.41      196.53247      197.81351      528.85712    
     20400  -141357.93      781.9653      -140575.97      196.52366      197.81098      529.09718    
     20500  -141329.54      778.31433     -140551.22      196.51095      197.80082      529.33724    
     20600  -141306.31      775.1589      -140531.15      196.49372      197.79069      529.57731    
     20700  -141281.82      771.53808     -140510.28      196.4805       197.78275      529.81737    
     20800  -141248.29      774.55743     -140473.73      196.46648      197.77515      530.05743    
     20900  -141219.08      780.21381     -140438.87      196.45266      197.76699      530.29749    
     21000  -141189.19      777.88926     -140411.3       196.44275      197.75757      530.53755    
     21100  -141166.47      781.26537     -140385.21      196.43036      197.74734      530.77762    
     21200  -141134.75      776.3879      -140358.37      196.41769      197.73423      531.01768    
     21300  -141111.76      780.34707     -140331.41      196.40519      197.7218       531.25774    
     21400  -141078.16      773.75542     -140304.41      196.39576      197.71122      531.4978     
     21500  -141053.33      779.86737     -140273.46      196.38879      197.70168      531.73787    
     21600  -141027.93      789.46406     -140238.46      196.38097      197.69095      531.97793    
     21700  -140995.2       785.15042     -140210.05      196.37211      197.6764       532.21799    
     21800  -140968.7       773.99141     -140194.71      196.36706      197.66535      532.45805    
     21900  -140948.63      780.30464     -140168.32      196.36001      197.65363      532.69811    
     22000  -140911.28      775.8546      -140135.43      196.35012      197.63805      532.93818    
     22100  -140883.4       781.6569      -140101.74      196.34547      197.62637      533.17824    
     22200  -140847.54      779.31701     -140068.23      196.34407      197.61638      533.4183     
     22300  -140819.01      787.30998     -140031.7       196.33813      197.6012       533.65836    
     22400  -140791.97      786.29452     -140005.67      196.33192      197.58522      533.89843    
     22500  -140761.11      772.71287     -139988.39      196.32584      197.57398      534.13849    
     22600  -140742.19      778.78266     -139963.41      196.31446      197.55986      534.37855    
     22700  -140717.89      780.0558      -139937.83      196.30313      197.54982      534.61861    
     22800  -140681.37      778.78882     -139902.59      196.29535      197.54422      534.85868    
     22900  -140648.7       784.42969     -139864.27      196.28857      197.53695      535.09874    
     23000  -140620.28      782.79203     -139837.48      196.27882      197.52723      535.3388     
     23100  -140591.69      775.5197      -139816.17      196.2673       197.51393      535.57886    
     23200  -140570.57      779.67038     -139790.9       196.25523      197.50276      535.81892    
     23300  -140540.93      777.93096     -139763         196.24372      197.49403      536.05899    
     23400  -140508.99      777.22546     -139731.76      196.23146      197.48388      536.29905    
     23500  -140472.15      782.01523     -139690.13      196.22488      197.47558      536.53911    
     23600  -140440.36      783.46555     -139656.89      196.21992      197.4666       536.77917    
     23700  -140418.84      784.75535     -139634.09      196.20972      197.45263      537.01924    
     23800  -140384.8       773.05616     -139611.75      196.20301      197.44275      537.2593     
     23900  -140361.4       777.75532     -139583.64      196.19374      197.43243      537.49936    
     24000  -140328.43      776.31982     -139552.11      196.1777       197.41603      537.73942    
     24100  -140294.59      780.06687     -139514.52      196.16686      197.40556      537.97948    
     24200  -140262.43      787.40098     -139475.03      196.16035      197.4001       538.21955    
     24300  -140226.46      776.12007     -139450.34      196.14884      197.38785      538.45961    
     24400  -140202.84      777.00357     -139425.83      196.13778      197.37725      538.69967    
     24500  -140181.38      783.07194     -139398.31      196.1288       197.36665      538.93973    
     24600  -140142.3       771.12199     -139371.18      196.11433      197.35018      539.1798     
     24700  -140126.61      783.27428     -139343.33      196.10028      197.33701      539.41986    
     24800  -140083.98      768.80198     -139315.18      196.09053      197.32699      539.65992    
     24900  -140053.92      774.83386     -139279.08      196.07837      197.31609      539.89998    
     25000  -140020.16      779.75411     -139240.4       196.06737      197.30706      540.14004    
     25100  -139985.94      779.69579     -139206.24      196.0564       197.29861      540.38011    
     25200  -139961.49      782.37309     -139179.12      196.04107      197.28856      540.62017    
     25300  -139929.02      768.3947      -139160.63      196.02866      197.27856      540.86023    
     25400  -139903.39      773.91369     -139129.48      196.01636      197.26914      541.10029    
     25500  -139870.86      778.12818     -139092.73      196.00461      197.25958      541.34036    
     25600  -139835.74      778.56776     -139057.17      195.99526      197.25206      541.58042    
     25700  -139797.44      774.42247     -139023.02      195.98099      197.24321      541.82048    
     25800  -139766.85      776.63782     -138990.21      195.96531      197.23212      542.06054    
     25900  -139747.19      782.13401     -138965.05      195.95235      197.22499      542.3006     
     26000  -139710.36      767.41871     -138942.94      195.9364       197.21581      542.54067    
     26100  -139685.39      776.99962     -138908.39      195.9198       197.20478      542.78073    
     26200  -139651.74      784.46982     -138867.27      195.90646      197.19802      543.02079    
     26300  -139616.86      782.9984      -138833.86      195.89154      197.18788      543.26085    
     26400  -139579.49      774.16143     -138805.33      195.87394      197.1744       543.50092    
     26500  -139554.66      776.71493     -138777.94      195.85728      197.1613       543.74098    
     26600  -139527.12      771.08215     -138756.04      195.84296      197.14764      543.98104    
     26700  -139489.92      767.92353     -138722         195.8296       197.13357      544.2211     
     26800  -139461.94      782.20641     -138679.73      195.81813      197.121        544.46116    
     26900  -139417.4       773.88651     -138643.52      195.80606      197.10865      544.70123    
     27000  -139389.38      782.28638     -138607.09      195.79354      197.09533      544.94129    
     27100  -139354.82      781.99606     -138572.82      195.77912      197.08224      545.18135    
     27200  -139323.1       776.22474     -138546.88      195.76484      197.06767      545.42141    
     27300  -139299.28      776.41147     -138522.87      195.75218      197.05455      545.66148    
     27400  -139261.8       775.43013     -138486.37      195.73626      197.04401      545.90154    
     27500  -139221.85      775.27881     -138446.57      195.72078      197.03303      546.1416     
     27600  -139191.38      779.70977     -138411.67      195.70578      197.02523      546.38166    
     27700  -139150.74      771.49093     -138379.25      195.68892      197.01463      546.62172    
     27800  -139130.52      783.26305     -138347.26      195.67402      197.00098      546.86179    
     27900  -139093.58      772.84552     -138320.73      195.65961      196.98935      547.10185    
     28000  -139069.32      771.07756     -138298.24      195.64319      196.97507      547.34191    
     28100  -139032.13      770.40263     -138261.73      195.62713      196.96109      547.58197    
     28200  -138996.95      775.39419     -138221.56      195.6122       196.94808      547.82204    
     28300  -138957.55      772.77642     -138184.77      195.59743      196.93317      548.0621     
     28400  -138935.11      786.95021     -138148.16      195.58663      196.91973      548.30216    
     28500  -138895.94      780.18422     -138115.75      195.57576      196.90634      548.54222    
     28600  -138863.67      775.99573     -138087.67      195.56278      196.88986      548.78229    
     28700  -138837.4       777.49737     -138059.9       195.54835      196.87248      549.02235    
     28800  -138796.95      772.46898     -138024.49      195.53225      196.85681      549.26241    
     28900  -138762.53      782.84561     -137979.68      195.51751      196.8434       549.50247    
     29000  -138726.76      783.73779     -137943.03      195.49965      196.83247      549.74253    
     29100  -138688.99      779.66328     -137909.33      195.4793       196.82049      549.9826     
     29200  -138661.22      776.86528     -137884.35      195.45952      196.80929      550.22266    
     29300  -138637.34      778.87745     -137858.46      195.43823      196.79774      550.46272    
     29400  -138594.53      772.95063     -137821.58      195.41575      196.78238      550.70278    
     29500  -138558.84      776.38791     -137782.45      195.39579      196.77115      550.94285    
     29600  -138523.89      778.94904     -137744.95      195.37607      196.76432      551.18291    
     29700  -138488.41      780.02341     -137708.38      195.35281      196.75389      551.42297    
     29800  -138455.16      783.99668     -137671.17      195.33161      196.74238      551.66303    
     29900  -138414.44      787.47728     -137626.96      195.31253      196.73039      551.90309    
     30000  -138380.26      786.30939     -137593.95      195.29554      196.71327      552.14316    
     30100  -138352.66      782.18959     -137570.47      195.2833       196.69727      552.38322    
     30200  -138322.32      780.77608     -137541.55      195.27389      196.68318      552.62328    
     30300  -138285.46      778.34338     -137507.12      195.26401      196.66813      552.86334    
     30400  -138248.66      783.32853     -137465.33      195.24904      196.65107      553.10341    
     30500  -138204.84      780.84332     -137424         195.23338      196.63114      553.34347    
     30600  -138173.49      780.62222     -137392.87      195.22009      196.61261      553.58353    
     30700  -138145.92      783.91016     -137362.01      195.20546      196.59117      553.82359    
     30800  -138111.07      779.25508     -137331.82      195.18876      196.56662      554.06365    
     30900  -138076.96      774.70704     -137302.26      195.17482      196.54745      554.30372    
     31000  -138046.62      778.17272     -137268.45      195.16035      196.53         554.54378    
     31100  -138004.03      780.40605     -137223.62      195.14043      196.51165      554.78384    
     31200  -137964.57      782.17726     -137182.39      195.12202      196.49601      555.0239     
     31300  -137933.96      783.3667      -137150.59      195.10474      196.4807       555.26397    
     31400  -137901.13      777.80658     -137123.33      195.08423      196.46381      555.50403    
     31500  -137871.03      778.7039      -137092.32      195.06659      196.44655      555.74409    
     31600  -137833.14      784.35754     -137048.79      195.05245      196.43354      555.98415    
     31700  -137783.32      780.0464      -137003.27      195.03644      196.42099      556.22421    
     31800  -137752.64      782.02679     -136970.61      195.01743      196.40565      556.46428    
     31900  -137718.83      775.46536     -136943.37      194.99834      196.39259      556.70434    
     32000  -137688.16      775.37052     -136912.79      194.98033      196.37812      556.9444     
     32100  -137644.14      768.97433     -136875.17      194.95972      196.36093      557.18446    
     32200  -137608.87      782.87995     -136825.99      194.93774      196.34403      557.42453    
     32300  -137569.21      778.5535      -136790.66      194.9199       196.33019      557.66459    
     32400  -137539.43      777.29841     -136762.13      194.90298      196.31582      557.90465    
     32500  -137514.93      780.95515     -136733.98      194.88306      196.29636      558.14471    
     32600  -137465.63      766.5875      -136699.04      194.86546      196.27952      558.38477    
     32700  -137438.84      779.74687     -136659.09      194.84747      196.26293      558.62484    
     32800  -137397.09      774.89849     -136622.19      194.82387      196.24227      558.8649     
     32900  -137367.46      781.09755     -136586.36      194.80456      196.22494      559.10496    
     33000  -137332.94      783.32519     -136549.61      194.79263      196.21144      559.34502    
     33100  -137289.92      779.54079     -136510.38      194.77552      196.19028      559.58509    
     33200  -137251.47      784.36892     -136467.1       194.75926      196.16546      559.82515    
     33300  -137218.54      779.98127     -136438.56      194.74635      196.1456       560.06521    
     33400  -137185.7       774.61405     -136411.08      194.7308       196.12422      560.30527    
     33500  -137152.59      776.87572     -136375.71      194.71627      196.10436      560.54533    
     33600  -137114.74      776.23648     -136338.51      194.70345      196.08813      560.7854     
     33700  -137073.49      778.78362     -136294.7       194.69011      196.06791      561.02546    
     33800  -137028.91      778.54965     -136250.36      194.6775       196.04709      561.26552    
     33900  -136998.61      780.7908      -136217.82      194.66323      196.02776      561.50558    
     34000  -136965.44      776.28147     -136189.16      194.64705      196.0072       561.74565    
     34100  -136931.21      776.08136     -136155.13      194.63148      195.99281      561.98571    
     34200  -136893.09      776.03863     -136117.05      194.61275      195.978        562.22577    
     34300  -136852.55      776.53248     -136076.01      194.59244      195.9619       562.46583    
     34400  -136814.92      778.76378     -136036.15      194.57521      195.94911      562.7059     
     34500  -136777.46      777.47007     -135999.99      194.55877      195.93234      562.94596    
     34600  -136743.9       778.0651      -135965.84      194.54145      195.91138      563.18602    
     34700  -136703.78      772.69818     -135931.09      194.52515      195.89259      563.42608    
     34800  -136669.53      775.8943      -135893.63      194.50808      195.87266      563.66614    
     34900  -136631.62      776.503       -135855.12      194.4895       195.8542       563.90621    
     35000  -136594.79      779.8651      -135814.93      194.47138      195.83683      564.14627    
     35100  -136557.87      785.73756     -135772.13      194.4531       195.81917      564.38633    
     35200  -136518.45      788.29996     -135730.15      194.43553      195.80175      564.62639    
     35300  -136482.52      780.29963     -135702.22      194.41835      195.78392      564.86646    
     35400  -136444.52      772.21343     -135672.31      194.39887      195.76558      565.10652    
     35500  -136413.73      780.00413     -135633.73      194.37981      195.7456       565.34658    
     35600  -136368.98      778.24024     -135590.74      194.36007      195.72328      565.58664    
     35700  -136328.31      782.2122      -135546.09      194.34108      195.70088      565.8267     
     35800  -136296.42      781.31266     -135515.1       194.32534      195.6834       566.06677    
     35900  -136259.86      769.26939     -135490.59      194.30905      195.66487      566.30683    
     36000  -136228.5       777.51388     -135450.99      194.29441      195.64617      566.54689    
     36100  -136182         774.57611     -135407.42      194.28199      195.63122      566.78695    
     36200  -136146.54      782.39987     -135364.14      194.26867      195.61287      567.02702    
     36300  -136102.88      780.10531     -135322.78      194.2541       195.59402      567.26708    
     36400  -136074.89      783.91839     -135290.97      194.24189      195.57875      567.50714    
     36500  -136032.51      767.18672     -135265.33      194.22951      195.56217      567.7472     
     36600  -135998.12      772.88964     -135225.24      194.21635      195.54393      567.98726    
     36700  -135958.02      778.90435     -135179.12      194.20351      195.52409      568.22733    
     36800  -135919.34      781.00872     -135138.33      194.18904      195.50228      568.46739    
     36900  -135879.77      776.40363     -135103.36      194.17162      195.48224      568.70745    
     37000  -135846.21      776.38836     -135069.82      194.14935      195.4607       568.94751    
     37100  -135809.03      767.6269      -135041.41      194.12679      195.44149      569.18758    
     37200  -135778.69      771.48151     -135007.21      194.10941      195.42802      569.42764    
     37300  -135733.15      773.73848     -134959.42      194.08918      195.41234      569.6677     
     37400  -135693.88      778.30771     -134915.57      194.06861      195.39656      569.90776    
     37500  -135654.24      779.94961     -134874.3       194.05147      195.3857       570.14782    
     37600  -135614.52      780.00543     -134834.51      194.03151      195.37232      570.38789    
     37700  -135580.97      780.78211     -134800.19      194.01038      195.35775      570.62795    
     37800  -135540.3       768.9154      -134771.38      193.99161      195.3466       570.86801    
     37900  -135507.17      774.10041     -134733.06      193.97175      195.33597      571.10807    
     38000  -135459.72      774.75274     -134684.97      193.95284      195.3254       571.34814    
     38100  -135419.43      776.3762      -134643.05      193.93293      195.31294      571.5882     
     38200  -135386.2       780.69102     -134605.51      193.91343      195.29835      571.82826    
     38300  -135344.18      774.03565     -134570.14      193.89505      195.28508      572.06832    
     38400  -135317.56      775.34448     -134542.22      193.87455      195.26931      572.30838    
     38500  -135276.27      767.04957     -134509.22      193.85383      195.25063      572.54845    
     38600  -135236.26      772.98697     -134463.27      193.83756      195.23328      572.78851    
     38700  -135195.32      775.15537     -134420.16      193.82308      195.21422      573.02857    
     38800  -135152.46      775.56717     -134376.9       193.808        195.19242      573.26863    
     38900  -135114.1       780.41008     -134333.69      193.79327      195.17289      573.5087     
     39000  -135074.6       779.17495     -134295.43      193.78049      195.15457      573.74876    
     39100  -135036.32      768.81779     -134267.5       193.76674      195.13652      573.98882    
     39200  -135009.08      776.32372     -134232.76      193.75444      195.11853      574.22888    
     39300  -134964.52      773.2688      -134191.25      193.74495      195.10191      574.46894    
     39400  -134928.47      780.28056     -134148.19      193.73378      195.08396      574.70901    
     39500  -134881.57      773.95463     -134107.62      193.72254      195.06404      574.94907    
     39600  -134850.77      781.93462     -134068.83      193.71032      195.04551      575.18913    
     39700  -134811.24      781.92166     -134029.32      193.69608      195.02795      575.42919    
     39800  -134766.49      778.96337     -133987.53      193.6807       195.01197      575.66926    
     39900  -134727.27      785.11069     -133942.16      193.66642      194.99836      575.90932    
     40000  -134685.68      786.41308     -133899.26      193.65157      194.98365      576.14938    
     40100  -134647.78      777.08857     -133870.7       193.63607      194.9689       576.38944    
     40200  -134611.88      773.30924     -133838.57      193.62025      194.95542      576.62951    
     40300  -134578.79      779.32482     -133799.46      193.60352      194.94045      576.86957    
     40400  -134535.85      779.18005     -133756.67      193.58672      194.92659      577.10963    
     40500  -134491.08      783.51767     -133707.56      193.56851      194.91482      577.34969    
     40600  -134452.94      783.66186     -133669.28      193.55086      194.90209      577.58975    
     40700  -134413.94      778.13249     -133635.81      193.53334      194.89176      577.82982    
     40800  -134376.14      777.08843     -133599.05      193.51724      194.88113      578.06988    
     40900  -134340.03      778.6307      -133561.4       193.49826      194.86691      578.30994    
     41000  -134299.49      775.36813     -133524.12      193.47876      194.85203      578.55       
     41100  -134257.67      773.2409      -133484.42      193.46318      194.83874      578.79007    
     41200  -134223.26      783.40015     -133439.86      193.44643      194.82524      579.03013    
     41300  -134178.07      780.01665     -133398.05      193.42953      194.80945      579.27019    
     41400  -134140.12      775.95285     -133364.16      193.4138       194.79353      579.51025    
     41500  -134104.41      769.76309     -133334.65      193.39827      194.77653      579.75031    
     41600  -134070.18      773.78795     -133296.39      193.38389      194.75787      579.99038    
     41700  -134025.49      775.20866     -133250.28      193.37097      194.74022      580.23044    
     41800  -133987.55      780.12801     -133207.42      193.36101      194.72379      580.4705     
     41900  -133943.1       775.58608     -133167.52      193.34974      194.70839      580.71056    
     42000  -133903.64      775.80043     -133127.84      193.33639      194.69208      580.95063    
     42100  -133870.38      784.97935     -133085.4       193.32557      194.67764      581.19069    
     42200  -133823.04      780.96357     -133042.08      193.3144       194.66416      581.43075    
     42300  -133786.81      785.39561     -133001.41      193.30045      194.64677      581.67081    
     42400  -133745.58      775.18402     -132970.4       193.28746      194.63112      581.91087    
     42500  -133714.78      776.78148     -132938         193.27439      194.61665      582.15094    
     42600  -133675.95      779.4149      -132896.54      193.26056      194.60328      582.391      
     42700  -133629.94      779.26402     -132850.67      193.24821      194.59431      582.63106    
     42800  -133585.81      778.30211     -132807.51      193.23455      194.58328      582.87112    
     42900  -133545.75      779.34605     -132766.41      193.21886      194.5696       583.11119    
     43000  -133510.96      779.35414     -132731.61      193.20563      194.55746      583.35125    
     43100  -133473.54      774.64035     -132698.9       193.19298      194.54548      583.59131    
     43200  -133430.07      771.90974     -132658.16      193.17922      194.5321       583.83137    
     43300  -133385.71      776.23646     -132609.47      193.16564      194.52008      584.07143    
     43400  -133346.91      779.90292     -132567         193.15157      194.50805      584.3115     
     43500  -133316.92      784.51848     -132532.41      193.13561      194.4946       584.55156    
     43600  -133273.53      774.1222      -132499.41      193.11792      194.48022      584.79162    
     43700  -133239.94      771.94589     -132467.99      193.09997      194.46418      585.03168    
     43800  -133196.1       761.8592      -132434.24      193.08435      194.45014      585.27175    
     43900  -133153.61      771.0558      -132382.56      193.06945      194.43569      585.51181    
     44000  -133115.33      780.19273     -132335.14      193.0524       194.41812      585.75187    
     44100  -133063.92      773.11061     -132290.81      193.0384       194.4041       585.99193    
     44200  -133033         781.37786     -132251.63      193.02567      194.3906       586.23199    
     44300  -132999.28      778.60014     -132220.68      193.00882      194.37257      586.47206    
     44400  -132957.78      772.41153     -132185.37      192.99806      194.35855      586.71212    
     44500  -132913.88      773.4999      -132140.38      192.99126      194.34789      586.95218    
     44600  -132874.02      778.07857     -132095.94      192.98092      194.3344       587.19224    
     44700  -132836.97      782.3574      -132054.61      192.97169      194.32261      587.43231    
     44800  -132786.19      773.14097     -132013.05      192.96199      194.30944      587.67237    
     44900  -132746.99      778.16259     -131968.83      192.94896      194.29084      587.91243    
     45000  -132707.72      783.00961     -131924.71      192.93724      194.27154      588.15249    
     45100  -132666.86      777.18579     -131889.67      192.9284       194.25339      588.39255    
     45200  -132630.59      772.3023      -131858.29      192.91808      194.23678      588.63262    
     45300  -132600.5       782.41036     -131818.09      192.90793      194.22347      588.87268    
     45400  -132550.72      779.26843     -131771.45      192.89427      194.21013      589.11274    
     45500  -132507.19      783.50931     -131723.68      192.87614      194.19348      589.3528     
     45600  -132468.31      784.72836     -131683.58      192.85998      194.17828      589.59287    
     45700  -132424.32      777.18487     -131647.14      192.84601      194.16404      589.83293    
     45800  -132391.25      777.70136     -131613.54      192.83026      194.14841      590.07299    
     45900  -132353.51      778.01701     -131575.49      192.816        194.1372       590.31305    
     46000  -132308.48      777.98027     -131530.5       192.8025       194.12741      590.55312    
     46100  -132261.8       781.33417     -131480.46      192.78402      194.11433      590.79318    
     46200  -132227.64      785.38692     -131442.25      192.76795      194.10261      591.03324    
     46300  -132185.06      774.40987     -131410.65      192.755        194.0916       591.2733     
     46400  -132154.24      782.64665     -131371.6       192.74045      194.07735      591.51336    
     46500  -132111.2       780.84139     -131330.36      192.72829      194.06323      591.75343    
     46600  -132064.02      773.6231      -131290.4       192.7157       194.05059      591.99349    
     46700  -132022.44      771.47395     -131250.96      192.70028      194.03666      592.23355    
     46800  -131981.21      776.3521      -131204.86      192.68573      194.02457      592.47361    
     46900  -131937.16      780.19163     -131156.97      192.67265      194.0141       592.71368    
     47000  -131905.94      786.71173     -131119.23      192.65883      193.99965      592.95374    
     47100  -131870.41      781.12323     -131089.29      192.64543      193.98698      593.1938     
     47200  -131825.93      777.19905     -131048.73      192.63421      193.97602      593.43386    
     47300  -131786.57      781.66847     -131004.9       192.61886      193.96139      593.67392    
     47400  -131739.1       780.6847      -130958.41      192.60126      193.94644      593.91399    
     47500  -131696.92      784.59588     -130912.32      192.58732      193.93491      594.15405    
     47600  -131660.15      780.8275      -130879.32      192.57328      193.92269      594.39411    
     47700  -131623.33      776.70501     -130846.63      192.55717      193.90659      594.63417    
     47800  -131580.87      775.38233     -130805.49      192.54426      193.89213      594.87424    
     47900  -131543.44      784.32957     -130759.11      192.53251      193.87758      595.1143     
     48000  -131497.2       785.28523     -130711.92      192.51872      193.85953      595.35436    
     48100  -131456.55      782.56343     -130673.99      192.50541      193.84165      595.59442    
     48200  -131417.1       773.2216      -130643.88      192.49377      193.82532      595.83448    
     48300  -131380.2       776.11466     -130604.09      192.48101      193.80903      596.07455    
     48400  -131332.77      774.29764     -130558.47      192.46819      193.7924       596.31461    
     48500  -131293.73      786.31879     -130507.41      192.4563       193.77591      596.55467    
     48600  -131244.05      778.3354      -130465.72      192.44446      193.76058      596.79473    
     48700  -131208.25      776.57761     -130431.67      192.43421      193.74576      597.0348     
     48800  -131175.05      780.68858     -130394.36      192.42226      193.73013      597.27486    
     48900  -131135.57      777.04934     -130358.52      192.40676      193.7139       597.51492    
     49000  -131090.97      771.3016      -130319.67      192.39276      193.69992      597.75498    
     49100  -131055.67      780.8578      -130274.82      192.3775       193.68852      597.99504    
     49200  -131004.23      779.57965     -130224.65      192.36042      193.67554      598.23511    
     49300  -130967.76      787.65541     -130180.1       192.34741      193.66356      598.47517    
     49400  -130925.52      776.12872     -130149.39      192.33498      193.65444      598.71523    
     49500  -130893.29      779.01974     -130114.27      192.32091      193.64181      598.95529    
     49600  -130846.8       774.32896     -130072.47      192.30645      193.62897      599.19536    
     49700  -130804.83      780.41252     -130024.42      192.29065      193.61704      599.43542    
     49800  -130757.98      783.15142     -129974.83      192.27481      193.60571      599.67548    
     49900  -130715.27      779.43086     -129935.84      192.25729      193.59596      599.91554    
     50000  -130681.86      774.21525     -129907.64      192.24059      193.58445      600.1556     
     50100  -130646.85      780.4689      -129866.38      192.22436      193.57148      600.39567    
     50200  -130604.63      781.82521     -129822.8       192.20702      193.55866      600.63573    
     50300  -130557.99      778.1483      -129779.84      192.18793      193.54212      600.87579    
     50400  -130520.84      778.85718     -129741.99      192.17032      193.52683      601.11585    
     50500  -130482.93      774.54232     -129708.39      192.15545      193.51481      601.35592    
     50600  -130440.94      773.87704     -129667.07      192.13701      193.49976      601.59598    
     50700  -130401.68      786.08406     -129615.59      192.11997      193.48559      601.83604    
     50800  -130346.08      780.94274     -129565.14      192.10747      193.47384      602.0761     
     50900  -130304.12      776.84686     -129527.27      192.09629      193.45936      602.31617    
     51000  -130278.54      786.64834     -129491.89      192.08556      193.44398      602.55623    
     51100  -130235.93      781.67538     -129454.26      192.07772      193.42933      602.79629    
     51200  -130192.24      775.58579     -129416.65      192.06899      193.41112      603.03635    
     51300  -130153.46      776.89287     -129376.56      192.05929      193.39224      603.27641    
     51400  -130107.53      774.77776     -129332.75      192.05077      193.37462      603.51648    
     51500  -130061         776.85687     -129284.14      192.03961      193.35608      603.75654    
     51600  -130016.94      779.28639     -129237.65      192.02828      193.33799      603.9966     
     51700  -129976.37      775.54175     -129200.83      192.01798      193.3206       604.23666    
     51800  -129942.83      775.40714     -129167.42      192.00255      193.30083      604.47673    
     51900  -129900.12      774.9871      -129125.13      191.98685      193.28166      604.71679    
     52000  -129862.08      782.09456     -129079.98      191.97317      193.26786      604.95685    
     52100  -129815.87      778.19823     -129037.67      191.95737      193.25432      605.19691    
     52200  -129777.33      772.11984     -129005.21      191.94189      193.23907      605.43697    
     52300  -129740.25      774.79371     -128965.46      191.92694      193.22587      605.67704    
     52400  -129695.35      778.61416     -128916.74      191.91251      193.21416      605.9171     
     52500  -129645.37      779.92437     -128865.45      191.89676      193.20128      606.15716    
     52600  -129607.44      781.89799     -128825.54      191.88085      193.19088      606.39722    
     52700  -129568.7       773.22492     -128795.48      191.86688      193.18112      606.63729    
     52800  -129531.6       778.8652      -128752.74      191.85098      193.16866      606.87735    
     52900  -129484.09      776.69039     -128707.4       191.83429      193.15535      607.11741    
     53000  -129449.14      787.08468     -128662.06      191.81946      193.14241      607.35747    
     53100  -129396.25      774.71172     -128621.54      191.80285      193.12811      607.59753    
     53200  -129358         770.75282     -128587.25      191.78391      193.11158      607.8376     
     53300  -129321.72      772.69089     -128549.03      191.76606      193.09472      608.07766    
     53400  -129286.69      782.79179     -128503.9       191.74846      193.08121      608.31772    
     53500  -129241.85      784.24537     -128457.6       191.72987      193.06693      608.55778    
     53600  -129192.96      778.0121      -128414.94      191.70932      193.0514       608.79785    
     53700  -129159.12      778.4144      -128380.7       191.69059      193.03954      609.03791    
     53800  -129122.08      778.96995     -128343.11      191.67488      193.02842      609.27797    
     53900  -129075.81      775.11188     -128300.7       191.65771      193.01568      609.51803    
     54000  -129029.86      779.67901     -128250.18      191.64201      193.00516      609.75809    
     54100  -128980.5       782.70582     -128197.79      191.62901      192.9957       609.99816    
     54200  -128941.76      781.96855     -128159.79      191.61351      192.98561      610.23822    
     54300  -128904.46      779.12422     -128125.34      191.59709      192.97235      610.47828    
     54400  -128864.87      780.76752     -128084.1       191.58134      192.9578       610.71834    
     54500  -128821.43      777.74936     -128043.68      191.5641       192.94284      610.95841    
     54600  -128778.23      774.17561     -128004.05      191.54644      192.926        611.19847    
     54700  -128743.49      779.31771     -127964.17      191.52789      192.90934      611.43853    
     54800  -128696.66      769.23362     -127927.43      191.51018      192.8938       611.67859    
     54900  -128662.59      773.84107     -127888.75      191.49418      192.87651      611.91865    
     55000  -128618.6       779.53744     -127839.06      191.47453      192.85778      612.15872    
     55100  -128571.28      787.86536     -127783.42      191.45708      192.84267      612.39878    
     55200  -128530.45      788.06104     -127742.39      191.44146      192.8308       612.63884    
     55300  -128488.83      783.4921      -127705.33      191.42392      192.81851      612.8789     
     55400  -128444.11      778.30411     -127665.8       191.40797      192.8069       613.11897    
     55500  -128404.58      778.47028     -127626.11      191.39373      192.79747      613.35903    
     55600  -128364.03      778.52465     -127585.51      191.37679      192.78458      613.59909    
     55700  -128318.02      773.63128     -127544.39      191.35833      192.77206      613.83915    
     55800  -128276.99      769.91737     -127507.08      191.33826      192.75986      614.07921    
     55900  -128237.82      775.74158     -127462.07      191.31706      192.74569      614.31928    
     56000  -128185.92      778.67437     -127407.25      191.29831      192.7323       614.55934    
     56100  -128141.81      782.19699     -127359.62      191.27929      192.71599      614.7994     
     56200  -128101.74      779.72321     -127322.01      191.26076      192.69656      615.03946    
     56300  -128059.97      778.4402      -127281.53      191.24589      192.67818      615.27953    
     56400  -128019.69      779.53316     -127240.16      191.23094      192.65935      615.51959    
     56500  -127983.67      781.82921     -127201.84      191.21497      192.63955      615.75965    
     56600  -127937.74      779.33292     -127158.4       191.20211      192.62431      615.99971    
     56700  -127900.27      786.7176      -127113.55      191.19054      192.60897      616.23978    
     56800  -127858.32      777.70841     -127080.61      191.17666      192.59006      616.47984    
     56900  -127807.26      767.52136     -127039.74      191.16603      192.57237      616.7199     
     57000  -127771.64      781.65734     -126989.98      191.15649      192.55468      616.95996    
     57100  -127725.8       785.35098     -126940.45      191.14347      192.53415      617.20002    
     57200  -127682.08      784.03078     -126898.05      191.13029      192.51471      617.44009    
     57300  -127643.46      779.22221     -126864.24      191.11703      192.49553      617.68015    
     57400  -127599.64      776.79942     -126822.84      191.10303      192.47544      617.92021    
     57500  -127551.31      774.15744     -126777.15      191.09016      192.45481      618.16027    
     57600  -127508.97      778.48851     -126730.48      191.077        192.43414      618.40034    
     57700  -127473.96      783.79806     -126690.16      191.06468      192.4134       618.6404     
     57800  -127430.72      777.82033     -126652.9       191.05364      192.39503      618.88046    
     57900  -127385.7       776.33119     -126609.37      191.04237      192.37817      619.12052    
     58000  -127344.9       783.94334     -126560.96      191.02991      192.35975      619.36058    
     58100  -127289.61      782.85716     -126506.75      191.01787      192.34393      619.60065    
     58200  -127247.97      787.64354     -126460.32      191.0031       192.32655      619.84071    
     58300  -127210.34      783.68771     -126426.65      190.98529      192.30666      620.08077    
     58400  -127168.84      782.33963     -126386.5       190.96899      192.2884       620.32083    
     58500  -127125.66      778.87914     -126346.78      190.95408      192.27035      620.5609     
     58600  -127083.55      778.84689     -126304.7       190.93872      192.25242      620.80096    
     58700  -127035.44      776.73151     -126258.71      190.92288      192.23534      621.04102    
     58800  -126991.86      776.22709     -126215.63      190.90349      192.21826      621.28108    
     58900  -126954.57      776.83231     -126177.74      190.88319      192.20423      621.52114    
     59000  -126913.42      779.55294     -126133.87      190.86428      192.19149      621.76121    
     59100  -126866.72      778.71633     -126088         190.84327      192.1771       622.00127    
     59200  -126821.39      778.56058     -126042.83      190.82537      192.16431      622.24133    
     59300  -126778.82      775.22813     -126003.59      190.80706      192.15171      622.48139    
     59400  -126736.8       774.86743     -125961.93      190.78651      192.13595      622.72146    
     59500  -126692.97      776.38219     -125916.59      190.76687      192.12249      622.96152    
     59600  -126648.06      776.72055     -125871.34      190.74755      192.10922      623.20158    
     59700  -126610.17      777.46308     -125832.71      190.72901      192.09463      623.44164    
     59800  -126564.83      776.1148      -125788.72      190.7139       192.0817       623.6817     
     59900  -126515         776.16196     -125738.84      190.69744      192.06644      623.92177    
     60000  -126465.82      782.26849     -125683.55      190.67942      192.05096      624.16183    
     60100  -126422.5       788.58174     -125633.91      190.66321      192.03667      624.40189    
     60200  -126380.25      782.55022     -125597.7       190.64608      192.02039      624.64195    
     60300  -126338.56      783.70819     -125554.85      190.6322       192.00389      624.88202    
     60400  -126294.67      781.15895     -125513.52      190.61702      191.98596      625.12208    
     60500  -126248.42      777.78071     -125470.64      190.60199      191.96677      625.36214    
     60600  -126205.39      780.90885     -125424.48      190.59172      191.95039      625.6022     
     60700  -126151.45      770.30297     -125381.14      190.57824      191.93043      625.84226    
     60800  -126115.47      772.50775     -125342.96      190.56462      191.90858      626.08233    
     60900  -126072.75      778.78996     -125293.96      190.55332      191.89059      626.32239    
     61000  -126022.79      778.06591     -125244.72      190.53836      191.86723      626.56245    
     61100  -125979.54      779.00615     -125200.53      190.52401      191.84417      626.80251    
     61200  -125937.93      778.08747     -125159.85      190.51408      191.82629      627.04258    
     61300  -125887.22      772.80665     -125114.41      190.49931      191.80203      627.28264    
     61400  -125842.55      777.68702     -125064.86      190.48611      191.78005      627.5227     
     61500  -125799.65      782.35674     -125017.3       190.47428      191.76232      627.76276    
     61600  -125760.37      781.74978     -124978.62      190.45814      191.7406       628.00282    
     61700  -125716.16      785.34968     -124930.81      190.44391      191.7236       628.24289    
     61800  -125663.77      781.02538     -124882.74      190.42933      191.70612      628.48295    
     61900  -125612.92      774.70486     -124838.22      190.41408      191.68604      628.72301    
     62000  -125566.73      772.84542     -124793.89      190.40043      191.66903      628.96307    
     62100  -125526.92      779.13506     -124747.78      190.38373      191.65006      629.20314    
     62200  -125476.28      778.76923     -124697.51      190.36738      191.63332      629.4432     
     62300  -125432.91      785.50178     -124647.4       190.35047      191.62321      629.68326    
     62400  -125382.34      779.3232      -124603.02      190.33056      191.61092      629.92332    
     62500  -125335.77      779.27132     -124556.49      190.31035      191.59947      630.16339    
     62600  -125292.03      784.24773     -124507.78      190.29131      191.59015      630.40345    
     62700  -125241.42      779.47577     -124461.94      190.26942      191.57393      630.64351    
     62800  -125194.57      780.71177     -124413.85      190.24791      191.55968      630.88357    
     62900  -125149.68      783.67819     -124366         190.22978      191.54707      631.12363    
     63000  -125094.24      774.80315     -124319.44      190.21087      191.5355       631.3637     
     63100  -125050.94      780.21924     -124270.72      190.19117      191.52381      631.60376    
     63200  -125009.24      785.04913     -124224.19      190.17164      191.50889      631.84382    
     63300  -124958.83      781.7182      -124177.11      190.15242      191.49225      632.08388    
     63400  -124909.7       780.22037     -124129.48      190.13771      191.47255      632.32395    
     63500  -124864.24      783.00831     -124081.23      190.12215      191.45317      632.56401    
     63600  -124815.32      783.42817     -124031.89      190.10829      191.43322      632.80407    
     63700  -124764.36      780.85789     -123983.51      190.09371      191.41478      633.04413    
     63800  -124717.31      781.92443     -123935.39      190.07701      191.39491      633.28419    
     63900  -124666.79      779.98652     -123886.81      190.06048      191.37388      633.52426    
     64000  -124618.68      780.42789     -123838.25      190.04505      191.35532      633.76432    
     64100  -124569.99      780.17548     -123789.81      190.03187      191.33777      634.00438    
     64200  -124520.75      781.1405      -123739.6       190.01769      191.32042      634.24444    
     64300  -124473.41      783.86928     -123689.55      190.00363      191.30303      634.48451    
     64400  -124423.4       783.4823      -123639.92      189.98786      191.2852       634.72457    
     64500  -124371.52      781.91958     -123589.6       189.97199      191.26651      634.96463    
     64600  -124326.55      786.89525     -123539.65      189.95605      191.24915      635.20469    
     64700  -124269.49      779.63418     -123489.86      189.94205      191.23358      635.44475    
     64800  -124221.96      782.39657     -123439.56      189.92857      191.21825      635.68482    
     64900  -124173.89      783.74474     -123390.14      189.91427      191.20063      635.92488    
     65000  -124119.54      778.89374     -123340.65      189.90016      191.18315      636.16494    
     65100  -124069.22      778.04287     -123291.18      189.88337      191.16583      636.405      
     65200  -124015.57      775.80252     -123239.77      189.86376      191.14774      636.64507    
     65300  -123967.53      778.93225     -123188.6       189.84574      191.13225      636.88513    
     65400  -123922.08      785.26601     -123136.81      189.82936      191.1175       637.12519    
     65500  -123865.32      780.49861     -123084.82      189.81183      191.10121      637.36525    
     65600  -123812.81      781.64124     -123031.16      189.79467      191.0852       637.60531    
     65700  -123760.17      781.74228     -122978.42      189.77519      191.06909      637.84538    
     65800  -123704.2       778.78591     -122925.41      189.75568      191.0536       638.08544    
     65900  -123653.89      780.56093     -122873.33      189.73629      191.03863      638.3255     
     66000  -123602.85      782.3784      -122820.47      189.71597      191.02365      638.56556    
     66100  -123545.7       777.31923     -122768.38      189.69542      191.00711      638.80563    
     66200  -123492.44      776.41278     -122716.03      189.6751       190.99063      639.04569    
     66300  -123445.05      781.65703     -122663.4       189.65862      190.97508      639.28575    
     66400  -123386.61      776.9928      -122609.62      189.64436      190.95906      639.52581    
     66500  -123338.68      782.89919     -122555.78      189.62884      190.94113      639.76587    
     66600  -123285.1       783.41852     -122501.68      189.61327      190.92252      640.00594    
     66700  -123233.54      785.48727     -122448.06      189.59807      190.90632      640.246      
     66800  -123177.78      782.8724      -122394.91      189.58274      190.88891      640.48606    
     66900  -123122.59      782.99725     -122339.59      189.56779      190.87061      640.72612    
     67000  -123064.34      779.97445     -122284.37      189.55463      190.8544       640.96619    
     67100  -123009.11      781.01053     -122228.1       189.54093      190.83738      641.20625    
     67200  -122954.06      781.71771     -122172.34      189.52567      190.81833      641.44631    
     67300  -122899.41      782.96774     -122116.44      189.51164      190.79957      641.68637    
     67400  -122839.36      779.1441      -122060.21      189.49782      190.78221      641.92643    
     67500  -122788.63      785.18438     -122003.44      189.48386      190.7626       642.1665     
     67600  -122733.25      785.50332     -121947.75      189.46796      190.74267      642.40656    
     67700  -122678.57      787.89663     -121890.67      189.45343      190.72441      642.64662    
     67800  -122622.72      788.66607     -121834.06      189.4362       190.70385      642.88668    
     67900  -122560.66      784.94809     -121775.72      189.41744      190.6826       643.12675    
     68000  -122500.72      781.98735     -121718.73      189.40241      190.66609      643.36681    
     68100  -122444.91      784.06483     -121660.84      189.38453      190.6483       643.60687    
     68200  -122390.5       787.22537     -121603.27      189.36711      190.63039      643.84693    
     68300  -122329.96      784.73526     -121545.22      189.35069      190.61591      644.087      
     68400  -122269.83      782.45074     -121487.38      189.33208      190.59949      644.32706    
     68500  -122213.62      782.7793      -121430.84      189.31285      190.58258      644.56712    
     68600  -122156.27      785.19736     -121371.07      189.29448      190.56767      644.80718    
     68700  -122095.78      784.52593     -121311.26      189.27738      190.55333      645.04724    
     68800  -122033.62      782.33494     -121251.28      189.25665      190.53812      645.28731    
     68900  -121978.67      788.44858     -121190.22      189.23654      190.52297      645.52737    
     69000  -121916.98      785.7773      -121131.2       189.21774      190.50897      645.76743    
     69100  -121855.77      785.60978     -121070.16      189.19994      190.49365      646.00749    
     69200  -121798.66      789.22209     -121009.44      189.18445      190.47711      646.24756    
     69300  -121742.11      792.83699     -120949.27      189.1697       190.45902      646.48762    
     69400  -121675.6       788.98487     -120886.61      189.15529      190.43999      646.72768    
     69500  -121611.92      786.91173     -120825.01      189.14088      190.42021      646.96774    
     69600  -121552.76      788.91271     -120763.85      189.12708      190.40089      647.2078     
     69700  -121489.03      786.30964     -120702.72      189.11305      190.38174      647.44787    
     69800  -121425.81      785.53166     -120640.28      189.0971       190.36261      647.68793    
     69900  -121370.29      791.87449     -120578.41      189.08131      190.34471      647.92799    
     70000  -121305.33      787.48445     -120517.85      189.06567      190.32693      648.16805    
     70100  -121244.74      787.50095     -120457.23      189.04843      190.30696      648.40812    
     70200  -121183.96      790.20035     -120393.76      189.03146      190.28907      648.64818    
     70300  -121122.73      792.45864     -120330.27      189.01331      190.27206      648.88824    
     70400  -121047.73      780.8373      -120266.89      188.99491      190.25252      649.1283     
     70500  -120989.07      787.55228     -120201.52      188.97856      190.23329      649.36836    
     70600  -120926.62      790.8638      -120135.76      188.96401      190.21335      649.60843    
     70700  -120860.57      791.11103     -120069.46      188.94822      190.19183      649.84849    
     70800  -120796.25      792.13533     -120004.12      188.93312      190.17395      650.08855    
     70900  -120728.25      788.96461     -119939.28      188.91677      190.1578       650.32861    
     71000  -120665.53      789.57453     -119875.95      188.89856      190.14055      650.56868    
     71100  -120596.04      787.01675     -119809.02      188.88143      190.12372      650.80874    
     71200  -120537.76      795.62118     -119742.14      188.86413      190.10717      651.0488     
     71300  -120469.98      796.02609     -119673.95      188.84524      190.08889      651.28886    
     71400  -120408.73      801.49969     -119607.23      188.82725      190.07229      651.52892    
     71500  -120337.64      797.71216     -119539.93      188.80804      190.05666      651.76899    
     71600  -120272.02      800.16888     -119471.85      188.78861      190.04039      652.00905    
     71700  -120200.19      798.5291      -119401.66      188.77145      190.02434      652.24911    
     71800  -120137.47      802.0467      -119335.42      188.75553      190.00707      652.48917    
     71900  -120064.01      794.08999     -119269.92      188.74009      189.98913      652.72924    
     72000  -119997.86      798.26856     -119199.59      188.72469      189.97176      652.9693     
     72100  -119932.35      799.32919     -119133.02      188.70736      189.95439      653.20936    
     72200  -119861.46      797.94854     -119063.51      188.68984      189.93667      653.44942    
     72300  -119797.43      805.14629     -118992.29      188.67317      189.91921      653.68948    
     72400  -119722.81      803.04615     -118919.76      188.65657      189.90123      653.92955    
     72500  -119661.46      810.06927     -118851.39      188.63812      189.88134      654.16961    
     72600  -119582.16      803.04215     -118779.12      188.62004      189.8619       654.40967    
     72700  -119513.89      804.98925     -118708.9       188.60304      189.84341      654.64973    
     72800  -119446.57      806.37432     -118640.19      188.58687      189.82482      654.8898     
     72900  -119375.22      807.22976     -118567.99      188.5696       189.80559      655.12986    
     73000  -119304.98      808.51826     -118496.46      188.55258      189.7872       655.36992    
     73100  -119239.67      811.22489     -118428.45      188.53543      189.7677       655.60998    
     73200  -119167.45      812.07456     -118355.37      188.51874      189.74864      655.85004    
     73300  -119084.7       803.79966     -118280.9       188.50262      189.73071      656.09011    
     73400  -119031.34      814.72155     -118216.62      188.48541      189.71103      656.33017    
     73500  -118967.22      831.06241     -118136.16      188.46825      189.69139      656.57023    
     73600  -118876.07      824.03861     -118052.03      188.45121      189.67188      656.81029    
     73700  -118802.53      824.54819     -117977.98      188.43484      189.65315      657.05036    
     73800  -118732.55      830.21172     -117902.33      188.41845      189.63489      657.29042    
     73900  -118656.15      829.01943     -117827.14      188.40153      189.61528      657.53048    
     74000  -118582.89      829.07776     -117753.82      188.38525      189.59759      657.77054    
     74100  -118506.16      831.22672     -117674.94      188.36797      189.58026      658.01061    
     74200  -118430.93      830.7875      -117600.15      188.35023      189.56313      658.25067    
     74300  -118356.23      833.30051     -117522.93      188.33263      189.54749      658.49073    
     74400  -118282.38      835.01524     -117447.36      188.31413      189.52957      658.73079    
     74500  -118214.2       841.43171     -117372.76      188.2965       189.51172      658.97085    
     74600  -118134.88      838.21496     -117296.66      188.27873      189.49353      659.21092    
     74700  -118054.99      837.21131     -117217.78      188.25965      189.47453      659.45098    
     74800  -117982.26      844.90581     -117137.35      188.24053      189.45676      659.69104    
     74900  -117904.52      851.11637     -117053.4       188.22171      189.43909      659.9311     
     75000  -117825.96      856.39168     -116969.57      188.20435      189.421        660.17117    
     75100  -117746.19      854.24745     -116891.95      188.18694      189.40295      660.41123    
     75200  -117659.95      852.62646     -116807.32      188.16888      189.38329      660.65129    
     75300  -117583.7       856.44744     -116727.26      188.15181      189.36461      660.89135    
     75400  -117502.13      861.8134      -116640.31      188.13414      189.34606      661.13141    
     75500  -117433.22      868.15353     -116565.07      188.11624      189.3258       661.37148    
     75600  -117342.91      868.35045     -116474.56      188.09793      189.30656      661.61154    
     75700  -117265.73      875.93868     -116389.79      188.0792       189.28737      661.8516     
     75800  -117185.66      878.49545     -116307.16      188.06076      189.26821      662.09166    
     75900  -117108.23      884.26299     -116223.96      188.04243      189.24995      662.33173    
     76000  -117030.9       897.14439     -116133.76      188.02419      189.23212      662.57179    
     76100  -117100.03      1034.6661     -116065.36      188.00612      189.21477      662.81185    
     76200  -117498.12      1414.1528     -116083.96      187.99205      189.19847      663.05191    
     76300  -118248.86      1918.7869     -116330.08      187.98388      189.18708      663.29197    
     76400  -119389.35      2537.519      -116851.83      187.97922      189.17991      663.53204    
     76500  -120952.25      2953.3502     -117998.9       187.98084      189.18647      663.7721     
     76600  -122714.99      3111.4438     -119603.55      187.99566      189.21706      664.01216    
     76700  -124237.21      2906.7045     -121330.5       188.01384      189.25698      664.25222    
     76800  -125604.28      2650.3109     -122953.97      188.02653      189.29278      664.49229    
     76900  -126837.82      2413.6428     -124424.18      188.04212      189.33144      664.73235    
     77000  -127948.67      2206.6889     -125741.98      188.06017      189.37301      664.97241    
     77100  -128966.94      2037.7658     -126929.17      188.07924      189.41753      665.21247    
     77200  -129890.46      1885.8523     -128004.61      188.09978      189.46342      665.45253    
     77300  -130741.96      1761.8771     -128980.09      188.12048      189.50772      665.6926     
     77400  -131523.01      1654.9363     -129868.07      188.14381      189.55382      665.93266    
     77500  -132243.06      1562.4027     -130680.66      188.17024      189.60114      666.17272    
     77600  -132911.91      1484.055      -131427.86      188.19663      189.64794      666.41278    
     77700  -133535.4       1416.436      -132118.97      188.22304      189.69517      666.65285    
     77800  -134124.51      1361.2719     -132763.24      188.24964      189.74277      666.89291    
     77900  -134685.6       1316.3625     -133369.24      188.27472      189.78855      667.13297    
     78000  -135222.68      1279.3297     -133943.35      188.2974       189.83128      667.37303    
     78100  -135738.53      1247.0899     -134491.44      188.31915      189.87247      667.61309    
     78200  -136234.12      1217.9728     -135016.15      188.34052      189.91323      667.85316    
     78300  -136710.59      1191.064      -135519.53      188.36137      189.95304      668.09322    
     78400  -137171.06      1167.6806     -136003.38      188.38256      189.99249      668.33328    
     78500  -137613.72      1144.689      -136469.03      188.40418      190.03203      668.57334    
     78600  -138045.06      1126.1549     -136918.91      188.42497      190.07026      668.81341    
     78700  -138465         1109.6833     -137355.31      188.44464      190.10728      669.05347    
     78800  -138874.26      1094.6638     -137779.6       188.46356      190.14389      669.29353    
     78900  -139274.93      1081.7608     -138193.16      188.48136      190.17967      669.53359    
     79000  -139666.46      1069.4843     -138596.98      188.49858      190.21484      669.77365    
     79100  -140050.36      1058.2682     -138992.09      188.51535      190.24952      670.01372    
     79200  -140428.86      1049.2762     -139379.58      188.53156      190.28325      670.25378    
     79300  -140801.3       1041.2251     -139760.07      188.54742      190.31631      670.49384    
     79400  -141167.03      1033.0433     -140133.98      188.56268      190.3486       670.7339     
     79500  -141525.99      1024.4547     -140501.54      188.57719      190.38014      670.97397    
     79600  -141878.71      1015.6809     -140863.03      188.59122      190.4113       671.21403    
     79700  -142200.58      989.42161     -141211.15      188.60516      190.44254      671.45409    
     79800  -142495.79      960.0976      -141535.69      188.61944      190.47435      671.69415    
     79900  -142770.81      934.48244     -141836.33      188.63356      190.50616      671.93422    
     80000  -143023.69      909.62304     -142114.06      188.64768      190.53788      672.17428    
     80100  -143258.13      887.82262     -142370.31      188.66174      190.56954      672.41434    
     80200  -143473.16      867.34643     -142605.81      188.67559      190.60079      672.6544     
     80300  -143668.75      848.00415     -142820.75      188.68969      190.63232      672.89446    
     80400  -143845.28      830.07332     -143015.2       188.70406      190.66424      673.13453    
     80500  -144001.94      813.16682     -143188.78      188.71858      190.69633      673.37459    
     80600  -144138.65      797.9752      -143340.67      188.7333       190.72899      673.61465    
     80700  -144254.34      784.58314     -143469.76      188.74846      190.76275      673.85471    
     80800  -144348.41      773.97379     -143574.44      188.76419      190.7979       674.09478    
     80900  -144419.17      766.38042     -143652.78      188.7803       190.83426      674.33484    
     81000  -144464.97      762.31227     -143702.66      188.79667      190.87148      674.5749     
     81100  -144489.02      766.013       -143723.01      188.81228      190.90868      674.81496    
     81200  -144494.88      773.27412     -143721.6       188.82621      190.94506      675.05502    
     81300  -144479.57      769.58896     -143709.98      188.83939      190.98154      675.29509    
     81400  -144440.8       758.62072     -143682.18      188.85003      191.01592      675.53515    
     81500  -144374.51      752.53531     -143621.97      188.85772      191.04751      675.77521    
     81600  -144279.78      751.35972     -143528.42      188.86393      191.07828      676.01527    
     81700  -144167.04      751.99879     -143415.05      188.8673       191.1056       676.25534    
     81800  -144055.86      760.84192     -143295.02      188.86528      191.12395      676.4954     
     81900  -143980.04      795.75559     -143184.29      188.86145      191.13657      676.73546    
     82000  -143933.89      811.15275     -143122.74      188.85784      191.14008      676.97552    
     82100  -143885.46      764.7891      -143120.68      188.85184      191.13046      677.21558    
     82200  -143840.18      741.86382     -143098.31      188.86473      191.12914      677.45565    
     82300  -143781.92      763.97374     -143017.94      188.89439      191.134        677.69571    
     82400  -143738.12      809.41504     -142928.7       188.9259       191.1301       677.93577    
     82500  -143702.35      801.571       -142900.78      188.94999      191.1171       678.17583    
     82600  -143674.62      758.97996     -142915.64      188.98052      191.11703      678.4159     
     82700  -143665.35      761.70682     -142903.64      189.00845      191.13329      678.65596    
     82800  -143643.87      782.73919     -142861.13      189.02257      191.14984      678.89602    
     82900  -143623.12      793.88367     -142829.23      189.02916      191.16673      679.13608    
     83000  -143599.28      770.05022     -142829.23      189.03218      191.18275      679.37614    
     83100  -143573.58      757.02595     -142816.56      189.03256      191.20176      679.61621    
     83200  -143559.28      787.98198     -142771.3       189.04947      191.2263       679.85627    
     83300  -143562.63      814.427       -142748.21      189.06571      191.2419       680.09633    
     83400  -143567.22      781.9062      -142785.31      189.07795      191.24956      680.33639    
     83500  -143579.33      754.06273     -142825.27      189.09407      191.2576       680.57646    
     83600  -143582.09      758.25197     -142823.84      189.11373      191.26846      680.81652    
     83700  -143583.24      793.91071     -142789.33      189.1358       191.29056      681.05658    
     83800  -143583.03      803.28033     -142779.75      189.15823      191.31608      681.29664    
     83900  -143584.4       768.56839     -142815.83      189.17873      191.34125      681.5367     
     84000  -143589.02      750.5217      -142838.5       189.20211      191.36597      681.77677    
     84100  -143587.51      774.50608     -142813         189.22856      191.38951      682.01683    
     84200  -143565.55      789.1144      -142776.43      189.2536       191.41197      682.25689    
     84300  -143569.81      800.27247     -142769.53      189.27249      191.43556      682.49695    
     84400  -143569.47      771.31267     -142798.16      189.28747      191.46684      682.73702    
     84500  -143591.56      771.48752     -142820.08      189.30361      191.50175      682.97708    
     84600  -143588.21      766.78292     -142821.42      189.31598      191.53874      683.21714    
     84700  -143564.98      765.05398     -142799.93      189.3272       191.57361      683.4572     
     84800  -143541.37      787.17339     -142754.19      189.34122      191.61477      683.69727    
     84900  -143528.95      805.01428     -142723.94      189.35182      191.65922      683.93733    
     85000  -143519.5       784.02893     -142735.47      189.36258      191.71045      684.17739    
     85100  -143536.62      776.69863     -142759.92      189.36893      191.76019      684.41745    
     85200  -143532.14      758.35453     -142773.78      189.37465      191.79964      684.65751    
     85300  -143529.23      771.7828      -142757.45      189.37001      191.83289      684.89758    
     85400  -143515.76      784.99418     -142730.76      189.3628       191.87458      685.13764    
     85500  -143506.07      790.42523     -142715.65      189.35785      191.91356      685.3777     
     85600  -143496.7       774.26824     -142722.44      189.35262      191.95535      685.61776    
     85700  -143512.49      782.79432     -142729.7       189.35694      192.00663      685.85783    
     85800  -143506.34      770.05803     -142736.29      189.36486      192.05596      686.09789    
     85900  -143506.46      774.39695     -142732.06      189.37245      192.09059      686.33795    
     86000  -143496.19      777.96964     -142718.22      189.38509      192.12463      686.57801    
     86100  -143498.94      788.89675     -142710.05      189.39676      192.14894      686.81807    
     86200  -143502.63      786.15681     -142716.47      189.39944      192.16091      687.05814    
     86300  -143508.29      778.67922     -142729.61      189.41337      192.17856      687.2982     
     86400  -143507.24      769.23297     -142738.01      189.42918      192.19951      687.53826    
     86500  -143500.11      768.28982     -142731.82      189.43471      192.21406      687.77832    
     86600  -143494.56      785.11958     -142709.44      189.43598      192.22871      688.01839    
     86700  -143490.1       793.68738     -142696.41      189.4474       192.24665      688.25845    
     86800  -143490.44      780.50456     -142709.94      189.46064      192.26579      688.49851    
     86900  -143496.96      766.13383     -142730.83      189.47886      192.2855       688.73857    
     87000  -143503.69      770.01312     -142733.68      189.49949      192.31044      688.97863    
     87100  -143498.93      773.21282     -142725.72      189.51476      192.33092      689.2187     
     87200  -143494.04      780.82222     -142713.22      189.52335      192.35017      689.45876    
     87300  -143501.12      790.66913     -142710.45      189.54519      192.37723      689.69882    
     87400  -143506.88      781.48355     -142725.4       189.56774      192.40476      689.93888    
     87500  -143511.72      769.63784     -142742.08      189.57798      192.42681      690.17895    
     87600  -143515.41      765.56557     -142749.85      189.59158      192.44789      690.41901    
     87700  -143507.41      770.63282     -142736.78      189.60661      192.46806      690.65907    
     87800  -143494.71      782.1204      -142712.59      189.61419      192.48703      690.89913    
     87900  -143501.38      794.8744      -142706.51      189.62389      192.50784      691.13919    
     88000  -143512.42      780.66383     -142731.75      189.63639      192.53166      691.37926    
     88100  -143526.4       765.3306      -142761.07      189.64733      192.56207      691.61932    
     88200  -143533.08      766.49717     -142766.58      189.65746      192.59494      691.85938    
     88300  -143528.49      778.18151     -142750.31      189.66864      192.62415      692.09944    
     88400  -143520.6       789.11798     -142731.48      189.68076      192.65844      692.33951    
     88500  -143519.75      784.75071     -142735         189.69355      192.69565      692.57957    
     88600  -143523.51      767.09757     -142756.41      189.70735      192.72848      692.81963    
     88700  -143532.06      762.55834     -142769.5       189.71507      192.75755      693.05969    
     88800  -143535.19      773.53139     -142761.66      189.72162      192.7929       693.29975    
     88900  -143521.47      775.55433     -142745.92      189.73804      192.83854      693.53982    
     89000  -143525.12      789.17344     -142735.94      189.7486       192.87604      693.77988    
     89100  -143527.65      778.6404      -142749.01      189.76265      192.91861      694.01994    
     89200  -143532.67      766.8181      -142765.85      189.77783      192.9638       694.26       
     89300  -143536.69      773.96425     -142762.73      189.7881       193.01386      694.50007    
     89400  -143517.59      773.92726     -142743.66      189.8001       193.06275      694.74013    
     89500  -143504.52      785.53391     -142718.98      189.80621      193.10915      694.98019    
     89600  -143502.21      791.53829     -142710.67      189.81345      193.16234      695.22025    
     89700  -143511.21      779.75888     -142731.45      189.8198       193.21048      695.46031    
     89800  -143522         764.39059     -142757.61      189.82288      193.25086      695.70038    
     89900  -143520.75      761.60699     -142759.14      189.83159      193.29561      695.94044    
     90000  -143512.69      781.04183     -142731.64      189.8407       193.33547      696.1805     
     90100  -143497.44      791.05715     -142706.38      189.8473       193.36951      696.42056    
     90200  -143494.12      786.6958      -142707.42      189.86056      193.40549      696.66063    
     90300  -143502.66      770.76029     -142731.9       189.86783      193.43286      696.90069    
     90400  -143498.98      756.8745      -142742.11      189.87491      193.46526      697.14075    
     90500  -143499.5       776.68548     -142722.82      189.88638      193.50143      697.38081    
     90600  -143489.1       792.26515     -142696.84      189.89059      193.5257       697.62088    
     90700  -143484.07      793.97047     -142690.09      189.897        193.54462      697.86094    
     90800  -143488.41      779.25486     -142709.15      189.90332      193.56031      698.101      
     90900  -143502.98      767.32217     -142735.66      189.90651      193.56585      698.34106    
     91000  -143501.24      762.72129     -142738.52      189.90833      193.56696      698.58112    
     91100  -143497.1       782.06504     -142715.03      189.91265      193.56818      698.82119    
     91200  -143490.31      797.91862     -142692.39      189.91731      193.57216      699.06125    
     91300  -143482.8       783.62005     -142699.18      189.92367      193.5716       699.30131    
     91400  -143497.7       773.20762     -142724.49      189.93327      193.56872      699.54137    
     91500  -143512.34      768.53925     -142743.8       189.94115      193.56819      699.78144    
     91600  -143505.84      764.73846     -142741.11      189.95327      193.5758       700.0215     
     91700  -143491.37      775.25345     -142716.12      189.96175      193.58388      700.26156    
     91800  -143486.8       794.30836     -142692.49      189.96553      193.59008      700.50162    
     91900  -143482.48      787.19874     -142695.28      189.97475      193.59822      700.74168    
     92000  -143489.34      774.95485     -142714.38      189.97245      193.60922      700.98175    
     92100  -143491.26      765.2386      -142726.02      189.96514      193.61855      701.22181    
     92200  -143485.57      772.72936     -142712.84      189.96165      193.63135      701.46187    
     92300  -143469.37      784.56326     -142684.8       189.95922      193.64619      701.70193    
     92400  -143466.18      796.56618     -142669.61      189.95549      193.65762      701.942      
     92500  -143473.92      786.09578     -142687.82      189.95401      193.66531      702.18206    
     92600  -143481.15      766.7584      -142714.4       189.95202      193.66272      702.42212    
     92700  -143486.41      768.04078     -142718.37      189.95435      193.65601      702.66218    
     92800  -143474.65      773.00495     -142701.64      189.96258      193.64908      702.90224    
     92900  -143469.43      786.20946     -142683.22      189.96942      193.64705      703.14231    
     93000  -143473.63      792.02007     -142681.61      189.97329      193.64602      703.38237    
     93100  -143475.83      776.91241     -142698.92      189.97856      193.63791      703.62243    
     93200  -143485.32      765.12775     -142720.19      189.98752      193.63078      703.86249    
     93300  -143494.49      770.94355     -142723.55      189.99918      193.63243      704.10256    
     93400  -143489.62      778.85248     -142710.77      190.00634      193.63886      704.34262    
     93500  -143482.47      787.47482     -142695         190.01568      193.64644      704.58268    
     93600  -143485.62      787.97171     -142697.65      190.02666      193.65932      704.82274    
     93700  -143481.6       767.93652     -142713.67      190.03447      193.6749       705.0628     
     93800  -143497.02      776.75988     -142720.26      190.04685      193.69485      705.30287    
     93900  -143487.78      771.65154     -142716.13      190.06242      193.71616      705.54293    
     94000  -143491.77      785.23942     -142706.53      190.07363      193.73288      705.78299    
     94100  -143490.54      782.35111     -142708.19      190.09         193.74862      706.02305    
     94200  -143497.22      774.62221     -142722.6       190.11477      193.76769      706.26312    
     94300  -143509.22      774.80543     -142734.42      190.1313       193.78526      706.50318    
     94400  -143511.76      773.81237     -142737.95      190.14554      193.79624      706.74324    
     94500  -143509.17      779.35676     -142729.81      190.16862      193.80107      706.9833     
     94600  -143508.76      788.49519     -142720.26      190.19316      193.80603      707.22336    
     94700  -143517.48      792.14854     -142725.33      190.21564      193.81344      707.46343    
     94800  -143518.37      773.8354      -142744.53      190.23961      193.82593      707.70349    
     94900  -143521.66      766.79903     -142754.86      190.25659      193.83007      707.94355    
     95000  -143519.81      773.97246     -142745.83      190.26967      193.82882      708.18361    
     95100  -143510.11      783.82546     -142726.28      190.28366      193.83313      708.42368    
     95200  -143511.43      790.12555     -142721.31      190.29686      193.84353      708.66374    
     95300  -143522.35      783.1825      -142739.16      190.30045      193.85663      708.9038     
     95400  -143529.87      766.94859     -142762.92      190.30054      193.87117      709.14386    
     95500  -143536.38      768.6767      -142767.7       190.30205      193.88538      709.38392    
     95600  -143523.26      770.55229     -142752.71      190.30153      193.9003       709.62399    
     95700  -143525.19      790.03695     -142735.15      190.30017      193.91746      709.86405    
     95800  -143518.67      782.92356     -142735.75      190.29866      193.93663      710.10411    
     95900  -143528.07      779.7113      -142748.36      190.29498      193.9504       710.34417    
     96000  -143536.52      775.81082     -142760.7       190.29652      193.96478      710.58424    
     96100  -143536.11      775.20229     -142760.91      190.30347      193.97435      710.8243     
     96200  -143528.07      782.44489     -142745.63      190.3149       193.97426      711.06436    
     96300  -143524.86      787.82731     -142737.04      190.32873      193.97762      711.30442    
     96400  -143529.2       781.03273     -142748.16      190.34249      193.98305      711.54449    
     96500  -143536.55      770.69726     -142765.86      190.36301      193.99405      711.78455    
     96600  -143544.19      770.86724     -142773.32      190.38618      194.01012      712.02461    
     96700  -143537.04      774.65425     -142762.39      190.40834      194.02574      712.26467    
     96800  -143535.89      791.04477     -142744.84      190.42643      194.03538      712.50473    
     96900  -143526.53      785.11859     -142741.41      190.44021      194.04173      712.7448     
     97000  -143538.02      781.75103     -142756.27      190.45428      194.04929      712.98486    
     97100  -143541.36      769.3878      -142771.97      190.46695      194.06275      713.22492    
     97200  -143545.64      769.41473     -142776.23      190.46916      194.07818      713.46498    
     97300  -143540.78      774.68935     -142766.09      190.46503      194.08916      713.70505    
     97400  -143537.68      784.57543     -142753.1       190.46927      194.10083      713.94511    
     97500  -143536.45      783.93825     -142752.51      190.47476      194.10981      714.18517    
     97600  -143545.2       779.06628     -142766.14      190.48016      194.11234      714.42523    
     97700  -143553.69      769.48528     -142784.2       190.48855      194.11608      714.66529    
     97800  -143560.57      769.58255     -142790.99      190.48845      194.11365      714.90536    
     97900  -143560.23      779.01237     -142781.21      190.4849       194.11235      715.14542    
     98000  -143554.07      785.01563     -142769.05      190.4849       194.11306      715.38548    
     98100  -143552.72      788.06019     -142764.66      190.48354      194.11241      715.62554    
     98200  -143554.29      778.6515      -142775.63      190.48051      194.11416      715.86561    
     98300  -143557.82      770.02145     -142787.8       190.47804      194.1186       716.10567    
     98400  -143563.38      772.45589     -142790.93      190.47424      194.12248      716.34573    
     98500  -143566.16      778.51217     -142787.65      190.4669       194.1262       716.58579    
     98600  -143564.02      779.8447      -142784.18      190.45634      194.1271       716.82585    
     98700  -143570.72      784.60192     -142786.12      190.44459      194.13         717.06592    
     98800  -143573.17      779.81959     -142793.35      190.4286       194.13322      717.30598    
     98900  -143577.84      775.8399      -142802         190.41025      194.14091      717.54604    
     99000  -143579.1       774.48294     -142804.62      190.39386      194.15114      717.7861     
     99100  -143583.34      777.30478     -142806.03      190.37322      194.16449      718.02617    
     99200  -143587.46      777.27096     -142810.19      190.35011      194.17956      718.26623    
     99300  -143590.73      778.98152     -142811.75      190.32978      194.19797      718.50629    
     99400  -143593.35      781.61        -142811.74      190.31423      194.21548      718.74635    
     99500  -143600.1       782.39556     -142817.71      190.29084      194.23203      718.98641    
     99600  -143605.07      777.23848     -142827.83      190.26573      194.24794      719.22648    
     99700  -143605.53      769.34159     -142836.19      190.24284      194.26206      719.46654    
     99800  -143611.66      775.775       -142835.88      190.21616      194.27492      719.7066     
     99900  -143607.23      778.0726      -142829.16      190.18718      194.29217      719.94666    
    100000  -143602.86      778.30479     -142824.55      190.15832      194.3146       720.18673    
Loop time of 4690.2 on 10 procs for 100000 steps with 20064 atoms

Performance: 1.842 ns/day, 13.028 hours/ns, 21.321 timesteps/s, 427.786 katom-step/s
93.4% CPU use with 10 MPI tasks x 1 OpenMP threads

MPI task timing breakdown:
Section |  min time  |  avg time  |  max time  |%varavg| %total
---------------------------------------------------------------
Pair    | 2685.8     | 3479.4     | 4135       | 861.8 | 74.18
Neigh   | 18.663     | 28.637     | 40.47      | 144.9 |  0.61
Comm    | 206.35     | 895.06     | 1752.6     |1489.2 | 19.08
Output  | 1.1105     | 1.1727     | 1.2401     |   3.7 |  0.03
Modify  | 93.871     | 282.43     | 725.16     |1385.9 |  6.02
Other   |            | 3.537      |            |       |  0.08

Nlocal:         2006.4 ave        3679 max         393 min
Histogram: 3 0 0 1 0 1 2 0 2 1
Nghost:         1941.6 ave        3163 max         642 min
Histogram: 2 0 0 2 1 0 1 3 0 1
Neighs:              0 ave           0 max           0 min
Histogram: 10 0 0 0 0 0 0 0 0 0

Total # of neighbors = 0
Ave neighs/atom = 0
Neighbor list builds = 844
Dangerous builds = 0
Total wall time: 1:18:11
