LAMMPS (2 Aug 2023 - Update 3)
OMP_NUM_THREADS environment is not set. Defaulting to 1 thread. (src/comm.cpp:98)
  using 1 OpenMP thread(s) per MPI task

# 1------general---------------
units                             metal      #单位为lammps 中的metel 类型
dimension                    3          #模拟的维度 三维
boundary                    p p p      #周期边界条件
atom_style                  atomic   #原子类型自动
atom_modify              map array sort 100 2.0
neighbor                    3.0 bin
neigh_modify            every 1 delay 0 check yes
#2 -----global variable-------定义全局变量，方便统一修改；
variable temperature equal 300
variable tstep equal 0.001
variable pressure equal 0
variable thermalstep equal 100
variable dumpstep equal 1000
variable relaxtime equal 0
variable totaltime equal 100000
variable deformrate equal 5e-3
#3 -------model------------
#box tilt large
read_data     1.lmp
Reading data file ...
  orthogonal box = (-100 -100 -2.1416495) to (100 100 39.081159)
  4 by 3 by 1 MPI processor grid
  reading atoms ...
  1620 atoms
  read_data CPU = 0.668 seconds
group SR type 2 3
600 atoms in group SR
delete_atoms group SR
Deleted 600 atoms, new total = 1020
replicate 1 1 1
Replication is creating a 1x1x1 = 1 times larger system...
  orthogonal box = (-100 -100 -2.1416495) to (100 100 39.081159)
  4 by 3 by 1 MPI processor grid
  1020 atoms
  replicate CPU = 0.612 seconds
write_data h.data
System init for write_data ...
WARNING: Communication cutoff is 0.0. No ghost atoms will be generated. Atoms may get lost. (src/comm_brick.cpp:210)
pair_style hybrid airebo 3.0 airebo 3.0 airebo 3.0 lj/cut 10
pair_coeff * * airebo 1 CH.airebo C NULL NULL
Reading airebo potential file CH.airebo with DATE: 2011-10-25
pair_coeff * * airebo 2 CH.airebo NULL C NULL
Reading airebo potential file CH.airebo with DATE: 2011-10-25
pair_coeff * * airebo 3 CH.airebo NULL NULL C
Reading airebo potential file CH.airebo with DATE: 2011-10-25
pair_coeff 1 2 lj/cut 0.00456 3.431
pair_coeff 1 3 lj/cut 0.00456 3.431
pair_coeff 2 3 lj/cut 0.00456 3.431

# 5------minimize -----------
min_style      sd
minimize       1.0e-4 1.0e-6 100 1000
Neighbor list info ...
  update: every = 1 steps, delay = 0 steps, check = yes
  max neighbors/atom: 2000, page size: 100000
  master list distance cutoff = 13.2
  ghost atom cutoff = 13.2
  binsize = 6.6, bins = 31 31 7
  6 neighbor lists, perpetual/occasional/extra = 6 0 0
  (1) pair airebo, perpetual, skip from (5)
      attributes: full, newton on, ghost
      pair build: skip/ghost
      stencil: none
      bin: none
  (2) pair airebo, perpetual, skip from (5)
      attributes: full, newton on, ghost
      pair build: skip/ghost
      stencil: none
      bin: none
  (3) pair airebo, perpetual, skip from (5)
      attributes: full, newton on, ghost
      pair build: skip/ghost
      stencil: none
      bin: none
  (4) pair lj/cut, perpetual, skip from (6)
      attributes: half, newton on, cut 13
      pair build: skip
      stencil: none
      bin: none
  (5) neighbor class addition, perpetual
      attributes: full, newton on, ghost
      pair build: full/bin/ghost
      stencil: full/ghost/bin/3d
      bin: standard
  (6) neighbor class addition, perpetual
      attributes: half, newton on, cut 13
      pair build: half/bin/atomonly/newton
      stencil: half/bin/3d
      bin: standard
Per MPI rank memory allocation (min/avg/max) = 9.698 | 9.861 | 10.68 Mbytes
   Step          Temp          E_pair         E_mol          TotEng         Press     
         0   0             -7562.6236      0             -7562.6236     -58.353665    
         1   0             -7562.6322      0             -7562.6322     -58.244675    
Loop time of 0.819663 on 12 procs for 1 steps with 1020 atoms

37.1% CPU use with 12 MPI tasks x 1 OpenMP threads

Minimization stats:
  Stopping criterion = energy tolerance
  Energy initial, next-to-last, final = 
     -7562.62362676518  -7562.62362676518  -7562.63215599031
  Force two-norm initial, final = 1.476343 0.28811824
  Force max component initial, final = 0.046231127 0.0090219153
  Final line search alpha, max atom move = 1 0.0090219153
  Iterations, force evaluations = 1 2

MPI task timing breakdown:
Section |  min time  |  avg time  |  max time  |%varavg| %total
---------------------------------------------------------------
Pair    | 1.4707e-05 | 0.0057744  | 0.042616   |  17.5 |  0.70
Neigh   | 0          | 0          | 0          |   0.0 |  0.00
Comm    | 4.635e-06  | 0.011285   | 0.079742   |  24.2 |  1.38
Output  | 0          | 0          | 0          |   0.0 |  0.00
Modify  | 0          | 0          | 0          |   0.0 |  0.00
Other   |            | 0.8026     |            |       | 97.92

Nlocal:             85 ave         510 max           0 min
Histogram: 10 0 0 0 0 0 0 0 0 2
Nghost:            195 ave        1170 max           0 min
Histogram: 10 0 0 0 0 0 0 0 0 2
Neighs:              0 ave           0 max           0 min
Histogram: 12 0 0 0 0 0 0 0 0 0

Total # of neighbors = 0
Ave neighs/atom = 0
Neighbor list builds = 0
Dangerous builds = 0
#6----define computes------
variable nums equal count(all) #计算原子数目
variable toval equal 20.535*20.0413*lz #计算系统总体积，单层石墨烯厚度为0.335nm
variable vol equal ${toval} #体系的初始体积
variable vol equal 16965.1685351103 
variable vatom equal v_vol/v_nums #单个原子体积
compute 1 all stress/atom NULL #计算体系中单原子应力
compute xalls all reduce sum c_1[1]
variable xstress equal (c_xalls)/(v_toval*10000)
compute yalls all reduce sum c_1[2]
variable ystress equal (c_yalls)/(v_toval*10000)
compute zalls all reduce sum c_1[3]
variable zstress equal (c_zalls)/(v_toval*10000)
#7---------relaxation-------------------------
timestep ${tstep}
timestep 0.001
velocity all create ${temperature} 231743 units box dist gaussian
velocity all create 300 231743 units box dist gaussian
dump   1 all atom 100 all-cy.lammpstrj
#fix    1 all npt temp 300 300  0.1 aniso 0 0 10 drag 1  #三个方向独立控压
fix  1 all npt temp ${temperature} ${temperature} 0.1 x ${pressure} ${pressure} 10 y ${pressure} ${pressure} 10
fix  1 all npt temp 300 ${temperature} 0.1 x ${pressure} ${pressure} 10 y ${pressure} ${pressure} 10
fix  1 all npt temp 300 300 0.1 x ${pressure} ${pressure} 10 y ${pressure} ${pressure} 10
fix  1 all npt temp 300 300 0.1 x 0 ${pressure} 10 y ${pressure} ${pressure} 10
fix  1 all npt temp 300 300 0.1 x 0 0 10 y ${pressure} ${pressure} 10
fix  1 all npt temp 300 300 0.1 x 0 0 10 y 0 ${pressure} 10
fix  1 all npt temp 300 300 0.1 x 0 0 10 y 0 0 10
compute  2 all pe/atom
compute  pe all reduce sum c_2
variable PE equal "c_pe"
fix    pe all print 100 "${PE} " file PE.txt screen no
thermo  ${thermalstep}
thermo  100
#thermo_style  custom step pe ke etotal lx ly lz
run   ${relaxtime}
run   0
Per MPI rank memory allocation (min/avg/max) = 10.32 | 10.49 | 11.3 Mbytes
   Step          Temp          E_pair         E_mol          TotEng         Press          Volume    
         1   300           -7562.6322      0             -7523.1173     -32.648115      1648912.4    
Loop time of 0.0473309 on 12 procs for 0 steps with 1020 atoms

34.5% CPU use with 12 MPI tasks x 1 OpenMP threads

MPI task timing breakdown:
Section |  min time  |  avg time  |  max time  |%varavg| %total
---------------------------------------------------------------
Pair    | 0          | 0          | 0          |   0.0 |  0.00
Neigh   | 0          | 0          | 0          |   0.0 |  0.00
Comm    | 0          | 0          | 0          |   0.0 |  0.00
Output  | 0          | 0          | 0          |   0.0 |  0.00
Modify  | 0          | 0          | 0          |   0.0 |  0.00
Other   |            | 0.04733    |            |       |100.00

Nlocal:             85 ave         510 max           0 min
Histogram: 10 0 0 0 0 0 0 0 0 2
Nghost:            195 ave        1170 max           0 min
Histogram: 10 0 0 0 0 0 0 0 0 2
Neighs:              0 ave           0 max           0 min
Histogram: 12 0 0 0 0 0 0 0 0 0

Total # of neighbors = 0
Ave neighs/atom = 0
Neighbor list builds = 0
Dangerous builds = 0
#8 -------tension-----------------------------
unfix  1
undump  1
unfix  pe
reset_timestep 0
fix avestress all ave/atom 1 ${dumpstep} ${dumpstep} c_1[1] c_1[2] c_1[3] c_1[4] c_1[5] c_1[6]
fix avestress all ave/atom 1 1000 ${dumpstep} c_1[1] c_1[2] c_1[3] c_1[4] c_1[5] c_1[6]
fix avestress all ave/atom 1 1000 1000 c_1[1] c_1[2] c_1[3] c_1[4] c_1[5] c_1[6]

#-----calculation of strain and Cumulative compression--------
variable                tmp equal "lz"
variable                L0 equal ${tmp}
variable                L0 equal 41.222809
variable                strain equal "(lz - v_L0)/v_L0"
variable                Cumulativels equal "(lz - v_L0)/10"
fix Step all print 100 "${strain} ${Cumulativels} ${zstress}" file grapoten.txt screen no

dump 2 all custom ${dumpstep} tension.xyz type x y z f_avestress[1] f_avestress[2] f_avestress[3] f_avestress[4] f_avestress[5] f_avestress[6]
dump 2 all custom 1000 tension.xyz type x y z f_avestress[1] f_avestress[2] f_avestress[3] f_avestress[4] f_avestress[5] f_avestress[6]

fix  1 all npt temp ${temperature} ${temperature} 0.1 y ${pressure} ${pressure} 10 x ${pressure} ${pressure} 10
fix  1 all npt temp 300 ${temperature} 0.1 y ${pressure} ${pressure} 10 x ${pressure} ${pressure} 10
fix  1 all npt temp 300 300 0.1 y ${pressure} ${pressure} 10 x ${pressure} ${pressure} 10
fix  1 all npt temp 300 300 0.1 y 0 ${pressure} 10 x ${pressure} ${pressure} 10
fix  1 all npt temp 300 300 0.1 y 0 0 10 x ${pressure} ${pressure} 10
fix  1 all npt temp 300 300 0.1 y 0 0 10 x 0 ${pressure} 10
fix  1 all npt temp 300 300 0.1 y 0 0 10 x 0 0 10

thermo_style custom step pe ke etotal lx ly lz
fix   2 all deform 1 z erate ${deformrate} remap x units box
fix   2 all deform 1 z erate 0.005 remap x units box
fix   3 all ave/time 2 500 1000 v_xstress v_ystress v_zstress file pressure.out
run   ${totaltime}
run   100000
WARNING: Dump 2 includes no atom IDs and is not sorted by ID. This may complicate post-processing tasks or visualization (src/dump.cpp:221)
Per MPI rank memory allocation (min/avg/max) = 11.82 | 11.99 | 12.8 Mbytes
   Step         PotEng         KinEng         TotEng           Lx             Ly             Lz      
         0  -7562.6322      39.514826     -7523.1173      200            200            41.222809    
       100  -7538.9649      19.994094     -7518.9708      199.99624      199.98583      41.24342     
       200  -7538.3242      25.605537     -7512.7187      199.99356      199.9774       41.264032    
       300  -7534.0327      28.807282     -7505.2254      200.00686      199.98366      41.284643    
       400  -7532.0662      34.886361     -7497.1798      200.00103      199.96649      41.305255    
       500  -7527.2091      37.794481     -7489.4146      200.00259      199.95681      41.325866    
       600  -7522.918       39.863785     -7483.0543      200.01964      199.96497      41.346477    
       700  -7521.4748      41.972707     -7479.5021      200.00887      199.94193      41.367089    
       800  -7521.1628      40.931363     -7480.2314      200.01083      199.92778      41.3877      
       900  -7523.592       39.713485     -7483.8785      200.03269      199.93534      41.408312    
      1000  -7524.899       38.458449     -7486.4405      200.02502      199.91386      41.428923    
      1100  -7524.1832      37.734544     -7486.4487      200.02836      199.8981       41.449534    
      1200  -7522.5163      38.925654     -7483.5906      200.05081      199.89893      41.470146    
      1300  -7522.5581      41.956159     -7480.6019      200.04576      199.87147      41.490757    
      1400  -7520.726       41.090861     -7479.6351      200.04925      199.8526       41.511369    
      1500  -7520.4702      38.955528     -7481.5147      200.07737      199.85463      41.53198     
      1600  -7522.892       39.12391      -7483.7681      200.07819      199.82214      41.552591    
      1700  -7522.2812      37.632527     -7484.6487      200.08499      199.79909      41.573203    
      1800  -7520.949       37.863635     -7483.0854      200.11126      199.79423      41.593814    
      1900  -7521.3107      41.204281     -7480.1065      200.11558      199.7585       41.614426    
      2000  -7519.9518      41.494297     -7478.4575      200.13002      199.73552      41.635037    
      2100  -7520.4556      40.868433     -7479.5872      200.1603       199.72888      41.655648    
      2200  -7519.7058      38.020025     -7481.6857      200.1627       199.68784      41.67626     
      2300  -7520.5722      38.238129     -7482.3341      200.17613      199.65657      41.696871    
      2400  -7519.3409      38.398607     -7480.9423      200.21177      199.6483       41.717483    
      2500  -7519.018       40.56737      -7478.4506      200.21741      199.60892      41.738094    
      2600  -7516.8228      39.314196     -7477.5086      200.23004      199.57431      41.758706    
      2700  -7518.4016      40.289311     -7478.1123      200.26494      199.56005      41.779317    
      2800  -7518.3248      39.147727     -7479.1771      200.27346      199.52209      41.799928    
      2900  -7519.032       39.429884     -7479.6021      200.2861       199.48568      41.82054     
      3000  -7518.2486      39.606481     -7478.6421      200.3215       199.47072      41.841151    
      3100  -7516.9804      40.073163     -7476.9072      200.33126      199.43221      41.861763    
      3200  -7515.3934      39.960286     -7475.4332      200.33936      199.39294      41.882374    
      3300  -7515.5419      40.34089      -7475.201       200.37294      199.37899      41.902985    
      3400  -7515.0257      38.972803     -7476.0529      200.38376      199.34371      41.923597    
      3500  -7515.9737      38.857577     -7477.1162      200.38949      199.30465      41.944208    
      3600  -7516.777       40.170256     -7476.6068      200.41764      199.28933      41.96482     
      3700  -7514.337       40.730422     -7473.6066      200.4269       199.25553      41.985431    
      3800  -7512.7691      40.654648     -7472.1144      200.43072      199.2191       42.006042    
      3900  -7514.3891      41.566286     -7472.8228      200.46167      199.20904      42.026654    
      4000  -7514.8416      41.206126     -7473.6355      200.46518      199.17586      42.047265    
      4100  -7512.8403      39.231973     -7473.6083      200.46225      199.13816      42.067877    
      4200  -7511.8503      40.127137     -7471.7231      200.48882      199.13054      42.088488    
      4300  -7510.3455      41.991904     -7468.3536      200.49388      199.10383      42.109099    
      4400  -7509.4261      40.698431     -7468.7277      200.48642      199.06633      42.129711    
      4500  -7509.3335      39.164412     -7470.1691      200.50706      199.05779      42.150322    
      4600  -7508.7069      38.591714     -7470.1152      200.50938      199.03499      42.170934    
      4700  -7509.6267      40.177479     -7469.4492      200.49964      199.00092      42.191545    
      4800  -7508.7014      40.285588     -7468.4158      200.51786      198.99373      42.212156    
      4900  -7506.9555      40.356355     -7466.5992      200.51954      198.9742       42.232768    
      5000  -7506.1189      40.80888      -7465.31        200.50412      198.93986      42.253379    
      5100  -7506.2772      40.162667     -7466.1146      200.51785      198.93312      42.273991    
      5200  -7506.691       39.279947     -7467.4111      200.52211      198.91671      42.294602    
      5300  -7506.0312      39.22513      -7466.8061      200.50507      198.88248      42.315213    
      5400  -7504.651       39.616856     -7465.0342      200.5144       198.87437      42.335825    
      5500  -7502.8504      40.267275     -7462.5831      200.51942      198.85821      42.356436    
      5600  -7502.762       41.723238     -7461.0387      200.50405      198.82542      42.377048    
      5700  -7504.0479      40.75899      -7463.2889      200.51195      198.81442      42.397659    
      5800  -7501.6706      37.772836     -7463.8978      200.51545      198.79587      42.41827     
      5900  -7501.4049      39.125605     -7462.2793      200.50143      198.75992      42.438882    
      6000  -7500.7524      40.96185      -7459.7905      200.51192      198.75072      42.459493    
      6100  -7500.0287      41.667001     -7458.3617      200.51709      198.73168      42.480105    
      6200  -7498.1805      39.789293     -7458.3912      200.50053      198.68793      42.500716    
      6300  -7498.27        38.119862     -7460.1501      200.51139      198.67388      42.521327    
      6400  -7497.4367      38.012424     -7459.4243      200.52033      198.6544       42.541939    
      6500  -7496.4999      39.14741      -7457.3525      200.50905      198.60844      42.56255     
      6600  -7495.8971      40.075779     -7455.8213      200.52151      198.58812      42.583162    
      6700  -7493.8166      39.099357     -7454.7172      200.5333       198.56513      42.603773    
      6800  -7493.6455      39.799682     -7453.8459      200.52573      198.51583      42.624385    
      6900  -7493.1612      39.423921     -7453.7373      200.54256      198.488        42.644996    
      7000  -7493.7118      38.305059     -7455.4067      200.55934      198.46053      42.665607    
      7100  -7493.7105      37.983168     -7455.7274      200.55247      198.40565      42.686219    
      7200  -7492.2599      39.319089     -7452.9408      200.57051      198.37054      42.70683     
      7300  -7490.0324      39.493291     -7450.5391      200.5974       198.34142      42.727442    
      7400  -7487.4174      38.817283     -7448.6001      200.59119      198.28087      42.748053    
      7500  -7486.7896      39.584509     -7447.205       200.60643      198.23819      42.768664    
      7600  -7486.888       39.786937     -7447.101       200.63986      198.20775      42.789276    
      7700  -7488.216       39.673802     -7448.5422      200.64002      198.14332      42.809887    
      7800  -7486.562       38.483507     -7448.0785      200.652        198.09212      42.830499    
      7900  -7484.0099      38.725664     -7445.2842      200.68489      198.056        42.85111     
      8000  -7483.2156      40.221604     -7442.994       200.69206      197.99048      42.871721    
      8100  -7483.3822      40.902507     -7442.4796      200.70464      197.93406      42.892333    
      8200  -7480.6568      38.167953     -7442.4889      200.73554      197.8925       42.912944    
      8300  -7481.8006      39.647811     -7442.1528      200.74332      197.82334      42.933556    
      8400  -7480.7283      39.717933     -7441.0104      200.75776      197.76464      42.954167    
      8500  -7478.4793      39.977207     -7438.502       200.7889       197.72324      42.974778    
      8600  -7476.4456      40.264174     -7436.1814      200.79577      197.65324      42.99539     
      8700  -7475.5331      40.154316     -7435.3788      200.80516      197.5879       43.016001    
      8800  -7475.5547      38.616364     -7436.9383      200.83637      197.54664      43.036613    
      8900  -7475.4062      38.806262     -7436.6         200.84354      197.4819       43.057224    
      9000  -7472.2311      37.428031     -7434.803       200.84742      197.41271      43.077835    
      9100  -7472.6753      40.189797     -7432.4855      200.87545      197.37099      43.098447    
      9200  -7471.0213      40.627492     -7430.3938      200.88106      197.30895      43.119058    
      9300  -7470.8945      41.21575      -7429.6788      200.88099      197.23975      43.13967     
      9400  -7468.4321      39.208468     -7429.2236      200.90629      197.19629      43.160281    
      9500  -7468.916       40.417881     -7428.4982      200.90695      197.13381      43.180892    
      9600  -7468.0557      40.270303     -7427.7854      200.90403      197.06719      43.201504    
      9700  -7466.0143      38.166822     -7427.8475      200.92726      197.0241       43.222115    
      9800  -7465.7297      38.195874     -7427.5339      200.92613      196.96105      43.242727    
      9900  -7464.3444      39.75301      -7424.5914      200.91616      196.89447      43.263338    
     10000  -7461.8488      40.20752      -7421.6413      200.93762      196.85296      43.283949    
     10100  -7461.6473      40.89187      -7420.7554      200.93672      196.79197      43.304561    
     10200  -7460.5114      39.622542     -7420.8889      200.92014      196.71814      43.325172    
     10300  -7459.2527      38.026421     -7421.2263      200.93388      196.67369      43.345784    
     10400  -7460.3074      37.985478     -7422.3219      200.93713      196.6178       43.366395    
     10500  -7458.7666      36.977887     -7421.7887      200.91685      196.53932      43.387006    
     10600  -7457.1879      39.447642     -7417.7402      200.9271       196.49072      43.407618    
     10700  -7454.5299      39.51953      -7415.0103      200.93005      196.43671      43.428229    
     10800  -7452.7206      40.188898     -7412.5317      200.90685      196.35449      43.448841    
     10900  -7451.6541      40.141795     -7411.5123      200.9153       196.30074      43.469452    
     11000  -7451.7179      40.053652     -7411.6643      200.91737      196.24273      43.490063    
     11100  -7450.4121      38.490255     -7411.9218      200.89297      196.15782      43.510675    
     11200  -7450.2402      38.469958     -7411.7702      200.90097      196.10044      43.531286    
     11300  -7447.2153      38.453673     -7408.7617      200.90381      196.03558      43.551898    
     11400  -7445.3454      40.143266     -7405.2022      200.88121      195.94614      43.572509    
     11500  -7442.7755      39.235927     -7403.5395      200.88862      195.88334      43.593121    
     11600  -7443.2849      39.860617     -7403.4243      200.89737      195.81687      43.613732    
     11700  -7441.9571      38.291303     -7403.6658      200.87678      195.71708      43.634343    
     11800  -7441.6044      38.971061     -7402.6333      200.87983      195.64282      43.654955    
     11900  -7438.8849      39.967177     -7398.9178      200.8956       195.57533      43.675566    
     12000  -7436.2871      40.20005      -7396.087       200.87887      195.46635      43.696178    
     12100  -7435.1377      39.514313     -7395.6234      200.88112      195.37783      43.716789    
     12200  -7434.5051      38.316167     -7396.1889      200.9017       195.30607      43.7374      
     12300  -7435.0213      39.82833      -7395.1929      200.88948      195.19143      43.758012    
     12400  -7432.4005      38.927846     -7393.4726      200.89516      195.09277      43.778623    
     12500  -7429.5238      38.244693     -7391.2791      200.91842      195.01166      43.799235    
     12600  -7430.022       40.527224     -7389.4948      200.91226      194.89126      43.819846    
     12700  -7428.3021      39.828072     -7388.474       200.92098      194.78319      43.840457    
     12800  -7427.3519      39.594388     -7387.7575      200.94713      194.69073      43.861069    
     12900  -7424.0841      37.870868     -7386.2132      200.94537      194.56413      43.88168     
     13000  -7423.3008      39.959346     -7383.3415      200.95563      194.44668      43.902292    
     13100  -7422.1826      41.588527     -7380.594       200.98675      194.34825      43.922903    
     13200  -7419.966       40.486481     -7379.4795      200.98663      194.21372      43.943514    
     13300  -7419.2219      38.403115     -7380.8188      200.99502      194.08459      43.964126    
     13400  -7419.456       39.223633     -7380.2324      201.03024      193.98094      43.984737    
     13500  -7416.7954      39.155869     -7377.6396      201.03215      193.84104      44.005349    
     13600  -7414.4013      39.767135     -7374.6342      201.04064      193.70378      44.02596     
     13700  -7412.8243      39.860254     -7372.964       201.07893      193.59389      44.046571    
     13800  -7411.3687      39.286133     -7372.0826      201.08401      193.45271      44.067183    
     13900  -7410.8525      39.868137     -7370.9843      201.08776      193.30661      44.087794    
     14000  -7408.83        39.343084     -7369.4869      201.12433      193.18889      44.108406    
     14100  -7407.1751      39.015943     -7368.1592      201.13655      193.0501       44.129017    
     14200  -7405.4004      38.43654      -7366.9639      201.13293      192.89714      44.149628    
     14300  -7405.2585      39.280891     -7365.9776      201.16544      192.77361      44.17024     
     14400  -7403.5082      39.302366     -7364.2058      201.18122      192.63636      44.190851    
     14500  -7400.9751      39.938262     -7361.0368      201.17398      192.48191      44.211463    
     14600  -7398.6396      40.154446     -7358.4852      201.20256      192.35639      44.232074    
     14700  -7397.618       40.596301     -7357.0217      201.21558      192.21769      44.252685    
     14800  -7398.1936      40.197985     -7357.9956      201.20698      192.0644       44.273297    
     14900  -7396.224       38.720793     -7357.5032      201.22724      191.93638      44.293908    
     15000  -7393.4786      38.783444     -7354.6951      201.23641      191.79779      44.31452     
     15100  -7391.2103      39.822427     -7351.3878      201.22716      191.64556      44.335131    
     15200  -7390.3305      40.516072     -7349.8145      201.24313      191.51679      44.355742    
     15300  -7389.1546      40.366836     -7348.7878      201.24966      191.38124      44.376354    
     15400  -7386.8335      39.431841     -7347.4017      201.23567      191.2277       44.396965    
     15500  -7386.5106      39.572538     -7346.9381      201.24829      191.09897      44.417577    
     15600  -7384.4647      37.096395     -7347.3683      201.25405      190.96776      44.438188    
     15700  -7383.6891      39.334705     -7344.3544      201.23393      190.81373      44.4588      
     15800  -7379.5096      38.779896     -7340.7297      201.24419      190.68679      44.479411    
     15900  -7379.1161      40.78751      -7338.3286      201.24943      190.55986      44.500022    
     16000  -7374.4233      37.772824     -7336.6505      201.22574      190.40602      44.520634    
     16100  -7376.0673      39.526364     -7336.541       201.22777      190.27556      44.541245    
     16200  -7374.4279      37.694131     -7336.7337      201.23385      190.15124      44.561857    
     16300  -7373.0941      38.91363      -7334.1804      201.21126      190.00145      44.582468    
     16400  -7371.1899      40.597229     -7330.5927      201.20823      189.86781      44.603079    
     16500  -7368.4891      40.052997     -7328.4361      201.21513      189.7453       44.623691    
     16600  -7366.9769      40.10141      -7326.8754      201.19609      189.59926      44.644302    
     16700  -7364.7645      38.817589     -7325.9469      201.18612      189.45991      44.664914    
     16800  -7364.3397      38.685904     -7325.6538      201.19187      189.33547      44.685525    
     16900  -7363.516       38.769795     -7324.7462      201.17831      189.19276      44.706136    
     17000  -7360.2996      39.114015     -7321.1856      201.16719      189.05126      44.726748    
     17100  -7357.7596      40.413808     -7317.3458      201.17211      188.92244      44.747359    
     17200  -7355.307       39.923628     -7315.3834      201.16426      188.78125      44.767971    
     17300  -7354.3665      39.428332     -7314.9382      201.15372      188.63675      44.788582    
     17400  -7352.3489      37.749339     -7314.5996      201.15582      188.5015       44.809193    
     17500  -7351.7918      39.269414     -7312.5224      201.15509      188.36199      44.829805    
     17600  -7348.1151      40.555391     -7307.5597      201.14907      188.21726      44.850416    
     17700  -7345.8298      40.435023     -7305.3948      201.15135      188.07737      44.871028    
     17800  -7344.8473      39.776586     -7305.0708      201.15477      187.93589      44.891639    
     17900  -7343.6593      38.773539     -7304.8858      201.15349      187.78952      44.91225     
     18000  -7342.496       39.324876     -7303.1711      201.15691      187.6457       44.932862    
     18100  -7339.3174      38.904935     -7300.4125      201.16407      187.50233      44.953473    
     18200  -7337.0551      39.191151     -7297.8639      201.16762      187.35582      44.974085    
     18300  -7335.5088      39.469855     -7296.039       201.17287      187.20966      44.994696    
     18400  -7334.307       39.900119     -7294.4069      201.18242      187.06455      45.015307    
     18500  -7331.5858      38.685688     -7292.9001      201.19059      186.91715      45.035919    
     18600  -7331.283       40.380433     -7290.9026      201.19727      186.76942      45.05653     
     18700  -7326.8927      38.386454     -7288.5063      201.21186      186.62678      45.077142    
     18800  -7324.6292      38.926644     -7285.7025      201.22185      186.4778       45.097753    
     18900  -7323.7459      40.87898      -7282.8669      201.22823      186.32897      45.118364    
     19000  -7321.4407      39.206829     -7282.2338      201.2469       186.1903       45.138976    
     19100  -7322.0275      39.582926     -7282.4446      201.25585      186.04161      45.159587    
     19200  -7319.5826      39.321147     -7280.2614      201.26117      185.89198      45.180199    
     19300  -7315.0846      37.874851     -7277.2097      201.28297      185.75922      45.20081     
     19400  -7313.2535      39.380192     -7273.8733      201.29287      185.61436      45.221421    
     19500  -7309.6049      40.786001     -7268.8189      201.29371      185.46326      45.242033    
     19600  -7308.7016      41.679542     -7267.022       201.31688      185.33648      45.262644    
     19700  -7306.4231      39.396064     -7267.027       201.32838      185.19906      45.283256    
     19800  -7306.9695      40.238394     -7266.7311      201.32293      185.04882      45.303867    
     19900  -7304.491       38.36046      -7266.1306      201.34423      184.9253       45.324478    
     20000  -7302.8336      38.044503     -7264.7891      201.35794      184.7987       45.34509     
     20100  -7300.6956      39.569221     -7261.1264      201.34697      184.65061      45.365701    
     20200  -7298.4281      41.437716     -7256.9904      201.36521      184.53091      45.386313    
     20300  -7296.57        40.97378      -7255.5962      201.38079      184.417        45.406924    
     20400  -7295.2528      40.252351     -7255.0004      201.36352      184.27409      45.427536    
     20500  -7292.8196      39.048049     -7253.7716      201.37204      184.15544      45.448147    
     20600  -7290.5934      38.877842     -7251.7155      201.3877       184.05161      45.468758    
     20700  -7288.1031      39.054277     -7249.0489      201.36773      183.92019      45.48937     
     20800  -7286.4325      39.695672     -7246.7368      201.3673       183.80301      45.509981    
     20900  -7283.827       39.090844     -7244.7362      201.38195      183.7067       45.530593    
     21000  -7282.5148      39.92349      -7242.5913      201.36311      183.58744      45.551204    
     21100  -7280.6548      39.872303     -7240.7825      201.35166      183.47271      45.571815    
     21200  -7277.8256      38.733185     -7239.0924      201.36344      183.38188      45.592427    
     21300  -7276.8951      39.964717     -7236.9304      201.34712      183.27346      45.613038    
     21400  -7273.2989      39.035032     -7234.2639      201.3279       183.16322      45.63365     
     21500  -7270.6675      39.766426     -7230.9011      201.33448      183.07525      45.654261    
     21600  -7269.2106      41.426021     -7227.7846      201.32049      182.97588      45.674872    
     21700  -7266.7381      39.317892     -7227.4202      201.29729      182.871        45.695484    
     21800  -7266.5722      39.277841     -7227.2943      201.29522      182.78195      45.716095    
     21900  -7262.653       37.870735     -7224.7823      201.28476      182.69065      45.736707    
     22000  -7261.1102      39.724353     -7221.3859      201.26186      182.59277      45.757318    
     22100  -7258.8028      40.992226     -7217.8106      201.25368      182.50544      45.777929    
     22200  -7254.999       41.567505     -7213.4315      201.24559      182.41818      45.798541    
     22300  -7251.5244      40.794799     -7210.7297      201.22283      182.32488      45.819152    
     22400  -7250.7631      38.874165     -7211.8889      201.20965      182.23842      45.839764    
     22500  -7251.8094      40.927696     -7210.8817      201.20096      182.15347      45.860375    
     22600  -7248.5532      38.956288     -7209.5969      201.182        182.06262      45.880986    
     22700  -7246.2284      38.438102     -7207.7903      201.16846      181.97692      45.901598    
     22800  -7244.8128      40.562567     -7204.2503      201.15997      181.89278      45.922209    
     22900  -7239.2116      39.181911     -7200.0297      201.1457       181.80371      45.942821    
     23000  -7238.5129      40.404295     -7198.1086      201.13274      181.71655      45.963432    
     23100  -7237.3637      40.071137     -7197.2925      201.12695      181.63435      45.984043    
     23200  -7235.6293      40.119665     -7195.5096      201.11552      181.54394      46.004655    
     23300  -7232.5409      39.152049     -7193.3889      201.10421      181.45503      46.025266    
     23400  -7230.5376      39.407857     -7191.1297      201.10234      181.37478      46.045878    
     23500  -7227.4057      39.469416     -7187.9363      201.09294      181.28302      46.066489    
     23600  -7225.0934      41.265926     -7183.8275      201.08556      181.19186      46.0871      
     23700  -7221.3341      39.023591     -7182.3105      201.08864      181.11222      46.107712    
     23800  -7220.7799      38.400821     -7182.3791      201.08063      181.01839      46.128323    
     23900  -7218.3726      37.797676     -7180.5749      201.07678      180.92419      46.148935    
     24000  -7216.8668      38.853506     -7178.0133      201.08319      180.84368      46.169546    
     24100  -7215.8263      41.417429     -7174.4089      201.07972      180.74946      46.190157    
     24200  -7209.6715      39.366822     -7170.3047      201.07734      180.65453      46.210769    
     24300  -7208.0973      40.877938     -7167.2194      201.08919      180.57286      46.23138     
     24400  -7207.9171      41.120736     -7166.7963      201.08994      180.4787       46.251992    
     24500  -7206.1941      39.562621     -7166.6315      201.08657      180.37888      46.272603    
     24600  -7201.9303      36.696947     -7165.2334      201.10107      180.29611      46.293215    
     24700  -7201.3293      39.201161     -7162.1281      201.10574      180.20279      46.313826    
     24800  -7197.8598      40.229437     -7157.6304      201.10401      180.10168      46.334437    
     24900  -7196.8771      41.648895     -7155.2282      201.12054      180.01974      46.355049    
     25000  -7192.3954      38.67846      -7153.717       201.12889      179.92796      46.37566     
     25100  -7190.7767      38.807666     -7151.9691      201.12464      179.82516      46.396272    
     25200  -7189.4705      39.42934      -7150.0411      201.14174      179.74359      46.416883    
     25300  -7186.0375      38.42436      -7147.6132      201.15389      179.65607      46.437494    
     25400  -7183.689       38.629721     -7145.0593      201.14788      179.55344      46.458106    
     25500  -7181.461       38.965339     -7142.4956      201.16204      179.47092      46.478717    
     25600  -7178.7728      38.764207     -7140.0085      201.1774       179.38864      46.499329    
     25700  -7177.3359      40.217634     -7137.1183      201.16814      179.28697      46.51994     
     25800  -7173.9508      39.902992     -7134.0478      201.17675      179.20295      46.540551    
     25900  -7172.5629      40.346828     -7132.216       201.19473      179.12895      46.561163    
     26000  -7170.9164      39.214399     -7131.702       201.18367      179.0323       46.581774    
     26100  -7168.2463      38.153645     -7130.0926      201.18127      178.94504      46.602386    
     26200  -7166.6605      40.383973     -7126.2766      201.19867      178.87757      46.622997    
     26300  -7163.24        41.857509     -7121.3825      201.18929      178.79128      46.643608    
     26400  -7160.1119      40.704682     -7119.4072      201.17626      178.70113      46.66422     
     26500  -7157.5766      38.833079     -7118.7436      201.19026      178.63831      46.684831    
     26600  -7155.8731      38.571715     -7117.3014      201.1835       178.5625       46.705443    
     26700  -7154.8197      40.285891     -7114.5338      201.16258      178.4738       46.726054    
     26800  -7150.8318      40.166148     -7110.6657      201.16812      178.41148      46.746665    
     26900  -7146.1935      41.307407     -7104.8861      201.16607      178.34787      46.767277    
     27000  -7143.9454      41.721823     -7102.2235      201.13674      178.26115      46.787888    
     27100  -7142.4092      40.380473     -7102.0287      201.13271      178.19817      46.8085      
     27200  -7139.3974      37.864565     -7101.5328      201.13352      178.14312      46.829111    
     27300  -7140.1535      40.285898     -7099.8676      201.09982      178.06206      46.849722    
     27400  -7136.0915      38.75627      -7097.3352      201.08895      177.99794      46.870334    
     27500  -7133.1211      39.496742     -7093.6243      201.09073      177.9498       46.890945    
     27600  -7130.1968      40.888838     -7089.3079      201.0576       177.87495      46.911557    
     27700  -7128.33        40.934633     -7087.3954      201.03689      177.80937      46.932168    
     27800  -7126.4975      39.280182     -7087.2173      201.03823      177.76416      46.952779    
     27900  -7123.8747      38.736789     -7085.1379      201.0076       177.69775      46.973391    
     28000  -7122.732       40.758252     -7081.9737      200.97784      177.62775      46.994002    
     28100  -7118.1328      39.549282     -7078.5835      200.98096      177.58697      47.014614    
     28200  -7113.9606      39.303037     -7074.6576      200.95541      177.52709      47.035225    
     28300  -7111.0693      40.410306     -7070.659       200.91868      177.45404      47.055836    
     28400  -7109.3768      39.423281     -7069.9535      200.91885      177.4119       47.076448    
     28500  -7108.1316      38.472527     -7069.659       200.90082      177.35884      47.097059    
     28600  -7106.5006      38.971707     -7067.5288      200.86349      177.28578      47.117671    
     28700  -7105.9305      41.384822     -7064.5457      200.8584       177.23795      47.138282    
     28800  -7099.8921      39.780291     -7060.1118      200.84897      177.19044      47.158893    
     28900  -7096.5954      40.129121     -7056.4663      200.81308      177.11673      47.179505    
     29000  -7096.9469      41.132598     -7055.8143      200.80093      177.05957      47.200116    
     29100  -7093.9574      38.417627     -7055.5397      200.79949      177.01591      47.220728    
     29200  -7092.2848      39.897386     -7052.3874      200.76998      176.94405      47.241339    
     29300  -7087.8831      39.687954     -7048.1951      200.75378      176.87946      47.261951    
     29400  -7084.5986      39.908967     -7044.6896      200.75936      176.83714      47.282562    
     29500  -7081.307       38.696123     -7042.6109      200.73978      176.76806      47.303173    
     29600  -7081.9972      38.953765     -7043.0434      200.71696      176.69258      47.323785    
     29700  -7079.2749      38.526621     -7040.7482      200.72576      176.64379      47.344396    
     29800  -7075.5367      38.82398      -7036.7127      200.71679      176.58106      47.365008    
     29900  -7073.1943      40.348602     -7032.8457      200.6917       176.49722      47.385619    
     30000  -7070.6722      40.62591      -7030.0463      200.70155      176.44253      47.40623     
     30100  -7067.0871      39.307071     -7027.78        200.70316      176.38354      47.426842    
     30200  -7066.3074      40.012361     -7026.2951      200.67891      176.29578      47.447453    
     30300  -7063.5153      37.918804     -7025.5964      200.68503      176.22993      47.468065    
     30400  -7060.0713      37.79859      -7022.2727      200.69714      176.17426      47.488676    
     30500  -7056.6         39.142437     -7017.4576      200.67917      176.08843      47.509287    
     30600  -7053.6008      39.271723     -7014.3291      200.68152      176.01311      47.529899    
     30700  -7051.8749      39.939517     -7011.9353      200.7001       175.95793      47.55051     
     30800  -7049.7066      39.528748     -7010.1779      200.68865      175.87493      47.571122    
     30900  -7047.166       37.633359     -7009.5327      200.6842       175.79132      47.591733    
     31000  -7044.4004      37.186134     -7007.2142      200.70489      175.7332       47.612344    
     31100  -7041.2766      39.27262      -7002.004       200.70096      175.65508      47.632956    
     31200  -7036.567       37.879774     -6998.6872      200.69301      175.56784      47.653567    
     31300  -7035.1257      39.27776      -6995.8479      200.71068      175.50257      47.674179    
     31400  -7033.7445      40.058981     -6993.6855      200.71783      175.43324      47.69479     
     31500  -7029.4198      36.660567     -6992.7592      200.70395      175.34484      47.715401    
     31600  -7028.4277      37.374108     -6991.0536      200.71542      175.27272      47.736013    
     31700  -7026.5897      40.039508     -6986.5502      200.73009      175.2104       47.756624    
     31800  -7021.9059      39.956386     -6981.9496      200.71486      175.12529      47.777236    
     31900  -7018.6177      39.218498     -6979.3992      200.71585      175.04682      47.797847    
     32000  -7016.691       38.599372     -6978.0916      200.73448      174.99003      47.818458    
     32100  -7015.7162      39.050649     -6976.6656      200.71976      174.91122      47.83907     
     32200  -7013.5722      39.12834      -6974.4438      200.7107       174.82816      47.859681    
     32300  -7009.9416      39.89732      -6970.0443      200.72827      174.77351      47.880293    
     32400  -7005.0212      39.571671     -6965.4495      200.71769      174.70242      47.900904    
     32500  -7003.7021      41.095439     -6962.6066      200.69621      174.61702      47.921515    
     32600  -7000.7096      39.053934     -6961.6557      200.70958      174.56269      47.942127    
     32700  -7000.3243      39.935519     -6960.3888      200.70351      174.50102      47.962738    
     32800  -6996.437       38.97728      -6957.4597      200.67645      174.41983      47.98335     
     32900  -6993.455       39.428458     -6954.0266      200.6803       174.36228      48.003961    
     33000  -6989.6811      38.856903     -6950.8242      200.6782       174.31068      48.024572    
     33100  -6987.9188      40.424789     -6947.4941      200.64817      174.23502      48.045184    
     33200  -6984.7447      40.714442     -6944.0302      200.63665      174.17145      48.065795    
     33300  -6980.636       40.450751     -6940.1853      200.63877      174.12748      48.086407    
     33400  -6976.8878      39.087484     -6937.8003      200.6112       174.05946      48.107018    
     33500  -6976.4488      38.945867     -6937.503       200.58345      173.9896       48.12763     
     33600  -6974.1269      38.400818     -6935.7261      200.58373      173.94836      48.148241    
     33700  -6971.127       38.831483     -6932.2955      200.56003      173.88954      48.168852    
     33800  -6968.2344      40.537833     -6927.6966      200.52418      173.81875      48.189464    
     33900  -6963.1682      39.225609     -6923.9426      200.51895      173.77692      48.210075    
     34000  -6960.8239      38.933019     -6921.8909      200.5027       173.72906      48.230687    
     34100  -6960.7702      40.975375     -6919.7948      200.46132      173.65648      48.251298    
     34200  -6957.9856      39.977848     -6918.0077      200.44445      173.60872      48.271909    
     34300  -6953.8841      37.461746     -6916.4223      200.43615      173.56956      48.292521    
     34400  -6953.0076      39.640099     -6913.3675      200.39378      173.499        48.313132    
     34500  -6948.3282      40.323545     -6908.0046      200.36932      173.44383      48.333744    
     34600  -6945.0925      40.373241     -6904.7192      200.36565      173.41014      48.354355    
     34700  -6941.5438      38.613324     -6902.9305      200.32778      173.34385      48.374966    
     34800  -6940.9733      39.487609     -6901.4857      200.29278      173.27889      48.395578    
     34900  -6937.4182      38.361538     -6899.0566      200.28789      173.24473      48.416189    
     35000  -6935.4133      39.552983     -6895.8604      200.26047      173.18652      48.436801    
     35100  -6930.5085      38.053113     -6892.4554      200.22047      173.11476      48.457412    
     35200  -6929.8486      40.950688     -6888.8979      200.21363      173.07477      48.478023    
     35300  -6925.9851      40.779751     -6885.2053      200.19675      173.02417      48.498635    
     35400  -6921.5942      39.955305     -6881.6389      200.15457      172.94582      48.519246    
     35500  -6919.7512      39.096423     -6880.6547      200.14205      172.89613      48.539858    
     35600  -6918.5823      38.971684     -6879.6106      200.13495      172.85145      48.560469    
     35700  -6915.4019      38.596244     -6876.8056      200.10076      172.77411      48.58108     
     35800  -6911.8757      39.35476      -6872.5209      200.07981      172.71139      48.601692    
     35900  -6908.3306      40.251903     -6868.0787      200.08123      172.67087      48.622303    
     36000  -6905.9542      40.702314     -6865.2519      200.05717      172.59709      48.642915    
     36100  -6904.2714      38.526543     -6865.7448      200.02806      172.51887      48.663526    
     36200  -6900.929       37.1901       -6863.7389      200.03158      172.47358      48.684137    
     36300  -6898.8793      39.341609     -6859.5377      200.02088      172.40757      48.704749    
     36400  -6895.1972      40.261713     -6854.9355      199.99015      172.31905      48.72536     
     36500  -6891.1657      39.047072     -6852.1186      199.99201      172.26639      48.745972    
     36600  -6889.9008      39.668908     -6850.2319      199.99243      172.20526      48.766583    
     36700  -6888.0287      38.217143     -6849.8115      199.96493      172.11545      48.787194    
     36800  -6884.9737      37.574679     -6847.399       199.95829      172.04864      48.807806    
     36900  -6880.9565      38.159357     -6842.7971      199.96746      171.99108      48.828417    
     37000  -6879.771       40.696805     -6839.0742      199.94694      171.90386      48.849029    
     37100  -6874.906       39.217825     -6835.6882      199.93259      171.82514      48.86964     
     37200  -6871.2203      39.081502     -6832.1388      199.94471      171.76654      48.890251    
     37300  -6868.8167      40.08944      -6828.7273      199.9354       171.68475      48.910863    
     37400  -6865.8657      39.819528     -6826.0461      199.91462      171.59672      48.931474    
     37500  -6864.6418      39.471151     -6825.1707      199.92505      171.53437      48.952086    
     37600  -6860.945       37.575216     -6823.3698      199.92611      171.45992      48.972697    
     37700  -6858.6331      39.156279     -6819.4768      199.90198      171.36885      48.993308    
     37800  -6855.0368      40.77587      -6814.261       199.90458      171.29777      49.01392     
     37900  -6851.0162      39.415054     -6811.6011      199.91681      171.23316      49.034531    
     38000  -6849.0887      39.624449     -6809.4643      199.89048      171.14093      49.055143    
     38100  -6846.9176      39.114385     -6807.8032      199.88263      171.06153      49.075754    
     38200  -6845.9801      39.731361     -6806.2487      199.89931      171.00189      49.096366    
     38300  -6841.4724      37.268588     -6804.2038      199.87941      170.91706      49.116977    
     38400  -6839.3527      39.613912     -6799.7388      199.85848      170.82969      49.137588    
     38500  -6833.8259      39.000802     -6794.8251      199.87395      170.77043      49.1582      
     38600  -6832.2853      41.051954     -6791.2334      199.86456      170.69663      49.178811    
     38700  -6828.4873      39.493526     -6788.9937      199.83258      170.60635      49.199423    
     38800  -6826.6604      38.32599      -6788.3344      199.83472      170.53967      49.220034    
     38900  -6824.881       38.709061     -6786.1719      199.83686      170.47911      49.240645    
     39000  -6819.7634      37.70052      -6782.0629      199.8027       170.3918       49.261257    
     39100  -6817.8799      39.386477     -6778.4934      199.78937      170.31789      49.281868    
     39200  -6813.6469      38.846486     -6774.8004      199.79512      170.26341      49.30248     
     39300  -6810.6229      39.431148     -6771.1918      199.76848      170.18566      49.323091    
     39400  -6807.6945      39.770314     -6767.9242      199.74108      170.10635      49.343702    
     39500  -6804.6003      38.986863     -6765.6134      199.74314      170.0528       49.364314    
     39600  -6803.6361      39.070832     -6764.5653      199.72416      169.98596      49.384925    
     39700  -6799.7272      37.57519      -6762.152       199.68565      169.90322      49.405537    
     39800  -6798.0906      40.661685     -6757.4289      199.67797      169.84761      49.426148    
     39900  -6793.3219      40.604322     -6752.7175      199.66899      169.79221      49.446759    
     40000  -6791.5353      41.435862     -6750.0994      199.62337      169.70911      49.467371    
     40100  -6787.9493      39.617771     -6748.3315      199.60075      169.64583      49.487982    
     40200  -6785.1348      38.879872     -6746.2549      199.59612      169.59826      49.508594    
     40300  -6782.4594      39.052215     -6743.4071      199.55663      169.52189      49.529205    
     40400  -6778.3003      39.208694     -6739.0916      199.51775      169.44809      49.549816    
     40500  -6774.3819      40.999392     -6733.3825      199.51479      169.4058       49.570428    
     40600  -6772.8504      41.28688      -6731.5636      199.48637      169.33939      49.591039    
     40700  -6770.2108      39.489819     -6730.7209      199.43423      169.25792      49.611651    
     40800  -6768.2078      39.604041     -6728.6038      199.41943      169.20789      49.632262    
     40900  -6765.458       39.665521     -6725.7925      199.40225      169.15228      49.652873    
     41000  -6761.0867      39.120396     -6721.9663      199.34992      169.07185      49.673485    
     41100  -6755.9799      39.126857     -6716.853       199.32142      169.0111       49.694096    
     41200  -6754.243       40.619713     -6713.6233      199.31137      168.96187      49.714708    
     41300  -6752.2961      39.008915     -6713.2871      199.2689       168.888        49.735319    
     41400  -6750.3154      39.391437     -6710.9239      199.22431      168.81217      49.75593     
     41500  -6747.025       39.109332     -6707.9157      199.21558      168.76512      49.776542    
     41600  -6743.4234      39.250043     -6704.1733      199.18459      168.69887      49.797153    
     41700  -6739.9817      40.647765     -6699.3339      199.13256      168.61532      49.817765    
     41800  -6737.616       41.646279     -6695.9697      199.11883      168.56279      49.838376    
     41900  -6735.542       39.461392     -6696.0806      199.10119      168.50714      49.858987    
     42000  -6733.2343      39.379424     -6693.8548      199.04911      168.42205      49.879599    
     42100  -6729.5906      39.544515     -6690.0461      199.02312      168.35664      49.90021     
     42200  -6726.359       40.860517     -6685.4985      199.01587      168.30797      49.920822    
     42300  -6721.1366      39.445577     -6681.691       198.97383      168.22745      49.941433    
     42400  -6720.9933      40.599358     -6680.3939      198.93537      168.14546      49.962045    
     42500  -6717.481       37.983437     -6679.4975      198.9297       168.09614      49.982656    
     42600  -6714.7982      38.861269     -6675.9369      198.9027       168.02593      50.003267    
     42700  -6709.7782      38.606415     -6671.1718      198.86137      167.93604      50.023879    
     42800  -6708.4837      41.402147     -6667.0816      198.8462       167.87438      50.04449     
     42900  -6705.6722      41.049847     -6664.6223      198.83695      167.81677      50.065102    
     43000  -6701.7201      39.362327     -6662.3578      198.80006      167.72746      50.085713    
     43100  -6699.4395      40.052814     -6659.3867      198.77186      167.64887      50.106324    
     43200  -6695.5878      38.845483     -6656.7423      198.77144      167.59534      50.126936    
     43300  -6691.873       37.719767     -6654.1533      198.74525      167.51351      50.147547    
     43400  -6689.8819      39.229788     -6650.6521      198.70705      167.42094      50.168159    
     43500  -6686.3783      40.07744      -6646.3009      198.70601      167.36313      50.18877     
     43600  -6683.4696      40.746701     -6642.7229      198.69383      167.29067      50.209381    
     43700  -6680.9494      40.131109     -6640.8183      198.65192      167.19179      50.229993    
     43800  -6679.8954      39.95501      -6639.9404      198.64006      167.12166      50.250604    
     43900  -6674.3073      37.217946     -6637.0894      198.64041      167.05761      50.271216    
     44000  -6674.2223      41.546332     -6632.676       198.60336      166.96273      50.291827    
     44100  -6666.4497      37.473754     -6628.9759      198.57962      166.87818      50.312438    
     44200  -6665.6175      39.576986     -6626.0405      198.58421      166.81614      50.33305     
     44300  -6663.3753      40.057098     -6623.3182      198.55955      166.73177      50.353661    
     44400  -6659.6556      38.605139     -6621.0505      198.52803      166.63752      50.374273    
     44500  -6658.0145      38.021372     -6619.9931      198.52496      166.56809      50.394884    
     44600  -6655.0643      37.965367     -6617.0989      198.51501      166.49504      50.415495    
     44700  -6651.0229      39.498463     -6611.5244      198.48313      166.40018      50.436107    
     44800  -6647.7208      40.133207     -6607.5876      198.46734      166.31973      50.456718    
     44900  -6644.533       39.76592      -6604.7671      198.46944      166.25632      50.47733     
     45000  -6641.469       38.731433     -6602.7376      198.44322      166.16817      50.497941    
     45100  -6640.0254      38.84913      -6601.1762      198.41121      166.07582      50.518552    
     45200  -6638.3843      39.441914     -6598.9424      198.41255      166.01178      50.539164    
     45300  -6633.629       39.6801       -6593.9489      198.39888      165.93477      50.559775    
     45400  -6629.0992      40.010401     -6589.0888      198.35899      165.83804      50.580387    
     45500  -6627.2617      41.046527     -6586.2152      198.35071      165.768        50.600998    
     45600  -6623.6116      38.918337     -6584.6933      198.34966      165.7021       50.621609    
     45700  -6621.6718      38.926228     -6582.7455      198.31107      165.60967      50.642221    
     45800  -6618.5218      38.993985     -6579.5278      198.2881       165.53021      50.662832    
     45900  -6614.3799      40.724058     -6573.6558      198.28846      165.46854      50.683444    
     46000  -6610.0296      40.214977     -6569.8146      198.25564      165.38393      50.704055    
     46100  -6607.8805      39.671394     -6568.2091      198.2202       165.29944      50.724666    
     46200  -6606.3647      39.653421     -6566.7113      198.21314      165.23587      50.745278    
     46300  -6601.6627      38.047305     -6563.6154      198.18937      165.16242      50.765889    
     46400  -6600.0563      40.100999     -6559.9553      198.14929      165.07671      50.786501    
     46500  -6595.1064      39.465079     -6555.6413      198.12933      165.00794      50.807112    
     46600  -6591.7954      42.700191     -6549.0952      198.11516      164.94414      50.827723    
     46700  -6588.7963      41.65321      -6547.1431      198.07668      164.86328      50.848335    
     46800  -6586.1942      39.978206     -6546.216       198.03897      164.7837       50.868946    
     46900  -6584.5487      39.880037     -6544.6687      198.02565      164.72341      50.889558    
     47000  -6581.6086      38.940915     -6542.6677      197.99897      164.65368      50.910169    
     47100  -6579.7848      40.550945     -6539.2338      197.95077      164.56924      50.930781    
     47200  -6573.9126      40.209241     -6533.7034      197.92765      164.50421      50.951392    
     47300  -6571.1383      41.396373     -6529.742       197.91034      164.44407      50.972003    
     47400  -6567.7276      39.627108     -6528.1005      197.86344      164.36339      50.992615    
     47500  -6565.8738      39.907754     -6525.966       197.8257       164.28979      51.013226    
     47600  -6562.8308      39.472226     -6523.3586      197.8076       164.2317       51.033838    
     47700  -6559.8263      39.38551      -6520.4408      197.76874      164.15824      51.054449    
     47800  -6556.7649      39.6207       -6517.1442      197.72356      164.08019      51.07506     
     47900  -6553.4874      40.465934     -6513.0215      197.70233      164.02163      51.095672    
     48000  -6549.611       40.353518     -6509.2575      197.67095      163.95468      51.116283    
     48100  -6548.1671      40.958104     -6507.209       197.62245      163.87383      51.136895    
     48200  -6544.8733      38.873558     -6505.9998      197.59308      163.81003      51.157506    
     48300  -6542.0143      38.735238     -6503.2791      197.56869      163.75026      51.178117    
     48400  -6538.5538      39.636247     -6498.9175      197.52308      163.67145      51.198729    
     48500  -6533.9694      41.08551      -6492.8839      197.48197      163.59857      51.21934     
     48600  -6530.9677      40.615643     -6490.3521      197.46449      163.54357      51.239952    
     48700  -6529.1279      39.985122     -6489.1427      197.42879      163.47254      51.260563    
     48800  -6527.1075      39.950412     -6487.1571      197.3784       163.39076      51.281174    
     48900  -6521.5109      37.300015     -6484.2109      197.35776      163.33255      51.301786    
     49000  -6519.6752      39.710244     -6479.965       197.33387      163.27003      51.322397    
     49100  -6515.6711      41.179899     -6474.4912      197.28296      163.18665      51.343009    
     49200  -6514.4231      42.371349     -6472.0517      197.25249      163.11766      51.36362     
     49300  -6508.7498      37.918501     -6470.8313      197.23748      163.06283      51.384231    
     49400  -6508.4206      40.345388     -6468.0752      197.19764      162.98739      51.404843    
     49500  -6503.5578      38.798618     -6464.7592      197.15698      162.9066       51.425454    
     49600  -6501.4049      40.291938     -6461.1129      197.13918      162.84997      51.446066    
     49700  -6496.7757      40.38347      -6456.3922      197.11317      162.78374      51.466677    
     49800  -6493.5396      41.094405     -6452.4452      197.06929      162.69854      51.487288    
     49900  -6490.6342      38.997837     -6451.6364      197.04326      162.6325       51.5079      
     50000  -6488.6164      38.892932     -6449.7235      197.02854      162.5734       51.528511    
     50100  -6485.9692      39.190533     -6446.7787      196.99222      162.49324      51.549123    
     50200  -6480.4519      37.684188     -6442.7678      196.95681      162.41615      51.569734    
     50300  -6477.2154      39.965737     -6437.2496      196.94537      162.35616      51.590345    
     50400  -6474.5471      40.603537     -6433.9436      196.91935      162.28453      51.610957    
     50500  -6471.5602      37.476847     -6434.0833      196.87833      162.19958      51.631568    
     50600  -6469.1601      37.817782     -6431.3423      196.86338      162.13415      51.65218     
     50700  -6466.0534      38.28845      -6427.7649      196.84519      162.06854      51.672791    
     50800  -6462.0409      38.776805     -6423.2641      196.8055       161.98316      51.693402    
     50900  -6460.0627      40.878771     -6419.184       196.78313      161.90915      51.714014    
     51000  -6457.6939      40.969299     -6416.7246      196.7708       161.84745      51.734625    
     51100  -6455.3456      39.225108     -6416.1205      196.73822      161.76644      51.755237    
     51200  -6451.4399      38.271417     -6413.1685      196.70686      161.68395      51.775848    
     51300  -6448.4816      39.846685     -6408.6349      196.69396      161.62144      51.79646     
     51400  -6444.3297      40.228423     -6404.1013      196.67238      161.54874      51.817071    
     51500  -6440.8914      39.542422     -6401.349       196.63496      161.46177      51.837682    
     51600  -6439.8099      38.566231     -6401.2437      196.61573      161.39436      51.858294    
     51700  -6437.2947      39.32322      -6397.9715      196.60455      161.32972      51.878905    
     51800  -6432.7847      39.647769     -6393.1369      196.56984      161.24637      51.899517    
     51900  -6427.7736      39.211281     -6388.5623      196.53833      161.16903      51.920128    
     52000  -6427.1621      41.456245     -6385.7058      196.53149      161.10784      51.940739    
     52100  -6423.6428      39.847602     -6383.7952      196.50695      161.0345       51.961351    
     52200  -6419.7839      39.011683     -6380.7722      196.46847      160.95146      51.981962    
     52300  -6417.0183      39.675059     -6377.3432      196.45655      160.88752      52.002574    
     52400  -6414.8099      40.719717     -6374.0902      196.43936      160.82257      52.023185    
     52500  -6410.8539      39.695115     -6371.1588      196.39983      160.73989      52.043796    
     52600  -6406.7935      37.699282     -6369.0942      196.37977      160.67091      52.064408    
     52700  -6404.3832      38.05723      -6366.326       196.36617      160.61216      52.085019    
     52800  -6401.5078      39.475659     -6362.0322      196.33333      160.53523      52.105631    
     52900  -6397.0901      40.606263     -6356.4839      196.30067      160.46038      52.126242    
     53000  -6393.38        40.353359     -6353.0266      196.28725      160.40315      52.146853    
     53100  -6390.6699      38.973084     -6351.6968      196.26736      160.33753      52.167465    
     53200  -6388.5569      39.343781     -6349.2131      196.22835      160.2614       52.188076    
     53300  -6385.4152      39.771231     -6345.6439      196.20547      160.19864      52.208688    
     53400  -6381.7058      39.272093     -6342.4337      196.19362      160.14148      52.229299    
     53500  -6379.4948      39.071509     -6340.4233      196.15637      160.06978      52.24991     
     53600  -6375.945       37.415767     -6338.5292      196.12329      160.00037      52.270522    
     53700  -6374.5328      39.729787     -6334.803       196.10953      159.94555      52.291133    
     53800  -6369.9155      41.105477     -6328.81        196.07928      159.88244      52.311745    
     53900  -6365.1471      39.829468     -6325.3176      196.03781      159.80868      52.332356    
     54000  -6364.1964      40.862525     -6323.3339      196.02136      159.75434      52.352967    
     54100  -6360.0184      38.682553     -6321.3358      195.99928      159.70074      52.373579    
     54200  -6357.2219      38.955657     -6318.2662      195.95535      159.62718      52.39419     
     54300  -6353.0495      38.595998     -6314.4535      195.93031      159.56958      52.414802    
     54400  -6351.8702      41.011493     -6310.8587      195.91464      159.52267      52.435413    
     54500  -6347.5237      39.448535     -6308.0751      195.87458      159.45378      52.456024    
     54600  -6346.3954      38.882852     -6307.5125      195.83707      159.38993      52.476636    
     54700  -6343.091       38.968258     -6304.1227      195.82152      159.34469      52.497247    
     54800  -6338.1195      39.138599     -6298.9809      195.7936       159.28687      52.517859    
     54900  -6334.3721      39.568063     -6294.804       195.74688      159.21813      52.53847     
     55000  -6331.7004      40.355017     -6291.3454      195.72168      159.16741      52.559081    
     55100  -6327.5777      38.817283     -6288.7604      195.70364      159.11971      52.579693    
     55200  -6324.4623      38.244437     -6286.2178      195.66084      159.05601      52.600304    
     55300  -6322.2902      39.367159     -6282.9231      195.62566      158.99772      52.620916    
     55400  -6319.813       40.582492     -6279.2305      195.60877      158.9529       52.641527    
     55500  -6316.3658      40.327773     -6276.038       195.57424      158.89585      52.662138    
     55600  -6312.8441      38.788518     -6274.0556      195.53272      158.83357      52.68275     
     55700  -6310.0836      37.891454     -6272.1921      195.51337      158.78787      52.703361    
     55800  -6307.9538      39.461102     -6268.4927      195.48866      158.73926      52.723973    
     55900  -6303.8379      41.755905     -6262.082       195.44412      158.67478      52.744584    
     56000  -6298.9661      40.699759     -6258.2663      195.41708      158.62449      52.765196    
     56100  -6296.391       40.079048     -6256.312       195.4025       158.58465      52.785807    
     56200  -6294.3055      39.734212     -6254.5713      195.36612      158.52734      52.806418    
     56300  -6291.5641      40.340758     -6251.2233      195.32835      158.46726      52.82703     
     56400  -6286.1269      39.024522     -6247.1024      195.31032      158.42612      52.847641    
     56500  -6284.2914      40.655727     -6243.6357      195.2873       158.37807      52.868253    
     56600  -6281.5034      38.713659     -6242.7898      195.24506      158.31472      52.888864    
     56700  -6279.1411      38.909452     -6240.2317      195.22074      158.26686      52.909475    
     56800  -6274.6835      39.326993     -6235.3565      195.20819      158.22812      52.930087    
     56900  -6270.2781      39.679024     -6230.5991      195.16861      158.16543      52.950698    
     57000  -6266.8991      39.924787     -6226.9744      195.13335      158.10896      52.97131     
     57100  -6264.0607      39.996668     -6224.064       195.12757      158.07374      52.991921    
     57200  -6261.3257      39.934448     -6221.3913      195.09773      158.01972      53.012532    
     57300  -6256.9166      38.303459     -6218.6131      195.05484      157.95607      53.033144    
     57400  -6255.5546      40.232476     -6215.3222      195.04708      157.91985      53.053755    
     57500  -6251.9954      39.951056     -6212.0444      195.02957      157.87784      53.074367    
     57600  -6249.2396      38.620396     -6210.6192      194.98456      157.81021      53.094978    
     57700  -6245.2926      37.96032      -6207.3323      194.96409      157.76408      53.115589    
     57800  -6241.743       39.555502     -6202.1875      194.95563      157.72879      53.136201    
     57900  -6237.063       39.541404     -6197.5216      194.91791      157.66707      53.156812    
     58000  -6233.4796      38.781748     -6194.6978      194.88448      157.60974      53.177424    
     58100  -6234.8687      40.476708     -6194.392       194.87855      157.5774       53.198035    
     58200  -6230.5629      38.957009     -6191.6059      194.85549      157.52815      53.218646    
     58300  -6225.302       38.460322     -6186.8417      194.81622      157.46601      53.239258    
     58400  -6221.3999      39.961069     -6181.4388      194.80274      157.42677      53.259869    
     58500  -6217.9706      39.780527     -6178.19        194.79205      157.38867      53.280481    
     58600  -6214.5111      38.232512     -6176.2786      194.75468      157.32735      53.301092    
     58700  -6213.0986      39.75979      -6173.3388      194.73232      157.28116      53.321703    
     58800  -6210.8054      40.864574     -6169.9408      194.72705      157.24732      53.342315    
     58900  -6207.6782      40.947265     -6166.7309      194.69522      157.19161      53.362926    
     59000  -6202.6854      38.707934     -6163.9775      194.66572      157.13828      53.383538    
     59100  -6201.6859      39.856095     -6161.8298      194.66126      157.10603      53.404149    
     59200  -6197.9269      38.953818     -6158.9731      194.63778      157.05715      53.42476     
     59300  -6192.342       38.300426     -6154.0416      194.60298      156.99765      53.445372    
     59400  -6188.9203      40.730425     -6148.1898      194.59139      156.96099      53.465983    
     59500  -6185.3302      40.246147     -6145.0841      194.5805       156.92218      53.486595    
     59600  -6181.9687      38.745713     -6143.223       194.54828      156.86551      53.507206    
     59700  -6180.5058      40.286048     -6140.2197      194.53093      156.82404      53.527817    
     59800  -6176.2636      39.726239     -6136.5374      194.5229       156.78734      53.548429    
     59900  -6172.3584      38.612916     -6133.7455      194.49316      156.73355      53.56904     
     60000  -6170.7425      37.733952     -6133.0086      194.47181      156.68847      53.589652    
     60100  -6168.8389      39.311755     -6129.5271      194.46691      156.65516      53.610263    
     60200  -6162.9773      38.569502     -6124.4078      194.44225      156.60613      53.630875    
     60300  -6158.3521      38.852314     -6119.4998      194.41287      156.55373      53.651486    
     60400  -6156.0683      40.389746     -6115.6786      194.40735      156.52091      53.672097    
     60500  -6155.1826      42.071838     -6113.1108      194.39267      156.48079      53.692709    
     60600  -6150.2296      38.785623     -6111.444       194.35843      156.42588      53.71332     
     60700  -6147.6194      39.654374     -6107.965       194.3478       156.39033      53.733932    
     60800  -6144.0435      40.258203     -6103.7853      194.33688      156.35559      53.754543    
     60900  -6138.6717      39.156243     -6099.5155      194.30337      156.30397      53.775154    
     61000  -6134.9201      39.728222     -6095.1919      194.28569      156.26482      53.795766    
     61100  -6132.6301      41.268102     -6091.362       194.27864      156.23315      53.816377    
     61200  -6129.7728      39.734991     -6090.0378      194.25281      156.18925      53.836989    
     61300  -6125.5215      38.259025     -6087.2625      194.22721      156.1451       53.8576      
     61400  -6122.7596      39.742652     -6083.0169      194.21728      156.11283      53.878211    
     61500  -6119.1195      41.25275      -6077.8667      194.19699      156.07391      53.898823    
     61600  -6113.4962      40.902581     -6072.5937      194.16817      156.0286       53.919434    
     61700  -6109.4029      39.737104     -6069.6658      194.15106      155.99258      53.940046    
     61800  -6109.0092      40.453873     -6068.5553      194.13819      155.96099      53.960657    
     61900  -6106.1622      40.352734     -6065.8094      194.11504      155.92148      53.981268    
     62000  -6101.9354      39.424481     -6062.5109      194.08868      155.88031      54.00188     
     62100  -6098.483       39.88024      -6058.6027      194.07845      155.85162      54.022491    
     62200  -6094.2878      39.011236     -6055.2766      194.05765      155.8173       54.043103    
     62300  -6091.853       39.221444     -6052.6316      194.02642      155.77382      54.063714    
     62400  -6087.265       38.080771     -6049.1842      194.01293      155.74416      54.084325    
     62500  -6084.4667      39.796993     -6044.6697      193.99742      155.71404      54.104937    
     62600  -6079.7234      40.5111       -6039.2123      193.96609      155.67358      54.125548    
     62700  -6074.7684      40.27484      -6034.4936      193.94429      155.63981      54.14616     
     62800  -6073.1017      40.70376      -6032.3979      193.93109      155.61329      54.166771    
     62900  -6069.9604      39.331052     -6030.6293      193.90418      155.57799      54.187382    
     63000  -6065.7583      38.704007     -6027.0543      193.87795      155.54184      54.207994    
     63100  -6063.0837      39.932245     -6023.1515      193.8643       155.51673      54.228605    
     63200  -6058.7674      39.14446      -6019.6229      193.84007      155.48499      54.249217    
     63300  -6055.6341      38.162223     -6017.4719      193.81164      155.44781      54.269828    
     63400  -6053.186       39.009727     -6014.1762      193.79607      155.4228       54.290439    
     63500  -6049.4667      40.625964     -6008.8408      193.77379      155.3931       54.311051    
     63600  -6042.4019      40.087519     -6002.3143      193.74036      155.35534      54.331662    
     63700  -6039.1457      40.671036     -5998.4746      193.72069      155.32861      54.352274    
     63800  -6036.5815      40.161076     -5996.4204      193.70401      155.30446      54.372885    
     63900  -6032.3725      39.149887     -5993.2226      193.67585      155.27067      54.393496    
     64000  -6029.2761      39.235065     -5990.0411      193.65265      155.24212      54.414108    
     64100  -6025.8935      38.940391     -5986.9531      193.63653      155.21947      54.434719    
     64200  -6024.3042      39.708533     -5984.5957      193.61043      155.18767      54.455331    
     64300  -6020.5285      38.216944     -5982.3115      193.58578      155.15831      54.475942    
     64400  -6014.8866      37.082523     -5977.8041      193.56585      155.13375      54.496553    
     64500  -6011.1452      40.598722     -5970.5465      193.54137      155.10539      54.517165    
     64600  -6006.8731      41.184495     -5965.6886      193.51617      155.07428      54.537776    
     64700  -6003.7088      40.578692     -5963.1301      193.49375      155.04778      54.558388    
     64800  -6000.341       39.720264     -5960.6207      193.47377      155.02348      54.578999    
     64900  -5996.1828      39.198084     -5956.9847      193.44989      154.99524      54.599611    
     65000  -5992.1853      39.1638       -5953.0215      193.42602      154.9657       54.620222    
     65100  -5990.1844      40.566206     -5949.6182      193.40386      154.9388       54.640833    
     65200  -5985.395       38.32162      -5947.0734      193.38473      154.91473      54.661445    
     65300  -5981.3317      38.024944     -5943.3068      193.3629       154.8873       54.682056    
     65400  -5977.988       40.521796     -5937.4662      193.33711      154.85505      54.702668    
     65500  -5973.0636      41.772398     -5931.2912      193.31991      154.83183      54.723279    
     65600  -5966.6483      39.249078     -5927.3992      193.29925      154.80562      54.74389     
     65700  -5963.8271      39.351482     -5924.4757      193.27167      154.7723       54.764502    
     65800  -5960.0899      39.171655     -5920.9183      193.25605      154.74942      54.785113    
     65900  -5957.2738      39.986721     -5917.2871      193.23636      154.72394      54.805725    
     66000  -5953.514       39.71079      -5913.8032      193.21         154.69062      54.826336    
     66100  -5949.9572      39.797962     -5910.1592      193.19386      154.66652      54.846947    
     66200  -5946.7252      38.91551      -5907.8097      193.17612      154.64243      54.867559    
     66300  -5943.1997      37.7307       -5905.469       193.14998      154.60891      54.88817     
     66400  -5937.2985      38.032304     -5899.2662      193.13198      154.5823       54.908782    
     66500  -5931.9311      39.101188     -5892.8299      193.1141       154.55633      54.929393    
     66600  -5927.3217      39.073349     -5888.2483      193.08797      154.52272      54.950004    
     66700  -5922.9354      37.830874     -5885.1045      193.06961      154.49422      54.970616    
     66800  -5921.2409      38.638298     -5882.6026      193.05381      154.46856      54.991227    
     66900  -5918.2635      40.146261     -5878.1173      193.03308      154.43863      55.011839    
     67000  -5911.2261      38.286505     -5872.9396      193.01275      154.40833      55.03245     
     67100  -5907.3093      39.220779     -5868.0885      192.99544      154.37976      55.053061    
     67200  -5904.7589      40.249442     -5864.5094      192.97841      154.35251      55.073673    
     67300  -5901.862       39.730774     -5862.1312      192.95734      154.32154      55.094284    
     67400  -5895.9608      38.432388     -5857.5284      192.93978      154.29131      55.114896    
     67500  -5892.5676      40.620841     -5851.9468      192.92193      154.26237      55.135507    
     67600  -5885.3579      40.107679     -5845.2502      192.90213      154.23192      55.156118    
     67700  -5880.3432      41.344408     -5838.9988      192.88507      154.20147      55.17673     
     67800  -5878.1139      41.902933     -5836.211       192.86607      154.17051      55.197341    
     67900  -5873.1328      39.243097     -5833.8897      192.84878      154.14244      55.217953    
     68000  -5871.3334      40.824923     -5830.5085      192.8318       154.11233      55.238564    
     68100  -5865.4642      38.59704      -5826.8671      192.81077      154.0782       55.259175    
     68200  -5861.9093      39.126563     -5822.7828      192.79601      154.05157      55.279787    
     68300  -5856.4165      37.993686     -5818.4228      192.7797       154.02299      55.300398    
     68400  -5853.1979      38.138992     -5815.0589      192.75825      153.98792      55.32101     
     68500  -5850.0754      39.153574     -5810.9218      192.74392      153.96095      55.341621    
     68600  -5845.4792      40.659683     -5804.8195      192.72698      153.93223      55.362232    
     68700  -5837.3512      40.483712     -5796.8675      192.70471      153.89873      55.382844    
     68800  -5833.136       41.126143     -5792.0099      192.68812      153.86786      55.403455    
     68900  -5829.5772      41.475148     -5788.102       192.6722       153.83993      55.424067    
     69000  -5825.8908      41.556876     -5784.3339      192.65286      153.80924      55.444678    
     69100  -5819.863       39.233413     -5780.6296      192.63336      153.77701      55.46529     
     69200  -5816.0096      39.058272     -5776.9513      192.6192       153.74862      55.485901    
     69300  -5812.9985      39.787129     -5773.2114      192.60061      153.71923      55.506512    
     69400  -5808.3582      40.254535     -5768.1037      192.57869      153.68589      55.527124    
     69500  -5803.9706      39.709885     -5764.2607      192.5632       153.65631      55.547735    
     69600  -5799.6476      39.063022     -5760.5846      192.5459       153.6272       55.568347    
     69700  -5793.6989      38.841086     -5754.8578      192.524        153.59568      55.588958    
     69800  -5789.6125      40.697568     -5748.9149      192.50428      153.56407      55.609569    
     69900  -5785.3763      42.517784     -5742.8585      192.48795      153.53491      55.630181    
     70000  -5779.3627      39.678386     -5739.6843      192.46838      153.50586      55.650792    
     70100  -5774.067       38.843385     -5735.2236      192.44665      153.47486      55.671404    
     70200  -5770.7725      40.084142     -5730.6883      192.42924      153.44446      55.692015    
     70300  -5765.338       39.089346     -5726.2487      192.41122      153.416        55.712626    
     70400  -5761.3092      39.685893     -5721.6233      192.38706      153.38411      55.733238    
     70500  -5756.2985      39.737975     -5716.5605      192.3671       153.35378      55.753849    
     70600  -5750.1912      39.053532     -5711.1377      192.34952      153.32454      55.774461    
     70700  -5746.1138      40.748549     -5705.3652      192.32512      153.29319      55.795072    
     70800  -5739.8687      39.729622     -5700.1391      192.30369      153.26335      55.815683    
     70900  -5736.7244      40.342122     -5696.3822      192.2838       153.23316      55.836295    
     71000  -5730.8072      39.129494     -5691.6777      192.26104      153.20263      55.856906    
     71100  -5726.4507      39.965726     -5686.485       192.2395       153.17462      55.877518    
     71200  -5721.4031      39.762259     -5681.6409      192.21505      153.14269      55.898129    
     71300  -5716.4314      40.162364     -5676.269       192.19172      153.11172      55.91874     
     71400  -5710.5463      39.444966     -5671.1014      192.17102      153.08512      55.939352    
     71500  -5705.3084      39.839585     -5665.4688      192.14448      153.05368      55.959963    
     71600  -5700.9324      40.649873     -5660.2825      192.11937      153.02236      55.980575    
     71700  -5696.1866      40.766839     -5655.4197      192.0977       152.99472      56.001186    
     71800  -5690.2543      40.523272     -5649.731       192.07227      152.96561      56.021797    
     71900  -5686.3249      41.837309     -5644.4876      192.04501      152.93409      56.042409    
     72000  -5679.8406      40.564815     -5639.2757      192.01982      152.90404      56.06302     
     72100  -5674.8098      39.779242     -5635.0306      191.99633      152.87668      56.083632    
     72200  -5669.2037      39.118563     -5630.0851      191.9681       152.84669      56.104243    
     72300  -5665.9898      40.72179      -5625.268       191.93983      152.81441      56.124854    
     72400  -5661.3006      41.166501     -5620.1341      191.91612      152.78736      56.145466    
     72500  -5654.5563      39.927275     -5614.629       191.88786      152.75745      56.166077    
     72600  -5650.3955      41.107751     -5609.2877      191.85898      152.726        56.186689    
     72700  -5646.0584      41.0242       -5605.0342      191.8333       152.69725      56.2073      
     72800  -5638.668       40.411877     -5598.2561      191.80333      152.6663       56.227911    
     72900  -5632.8809      40.338022     -5592.5429      191.77475      152.63634      56.248523    
     73000  -5629.5813      41.956339     -5587.6249      191.74717      152.60609      56.269134    
     73100  -5623.4932      40.645204     -5582.848       191.71643      152.57455      56.289746    
     73200  -5618.6166      41.106608     -5577.51        191.68799      152.54457      56.310357    
     73300  -5610.9986      38.983274     -5572.0153      191.66002      152.51452      56.330968    
     73400  -5608.6578      41.951359     -5566.7064      191.62771      152.48064      56.35158     
     73500  -5603.8936      42.084576     -5561.809       191.59901      152.44998      56.372191    
     73600  -5598.5065      42.270451     -5556.236       191.57015      152.41986      56.392803    
     73700  -5591.7054      40.767082     -5550.9384      191.53701      152.38516      56.413414    
     73800  -5584.4513      39.725791     -5544.7255      191.50619      152.35254      56.434026    
     73900  -5583.5821      42.629075     -5540.953       191.4766       152.32155      56.454637    
     74000  -5574.1526      40.047317     -5534.1052      191.44363      152.28762      56.475248    
     74100  -5568.8869      41.27947      -5527.6074      191.41139      152.25364      56.49586     
     74200  -5563.7859      42.447276     -5521.3386      191.38079      152.22126      56.516471    
     74300  -5559.6023      44.079364     -5515.5229      191.34827      152.18695      56.537083    
     74400  -5552.2574      41.065527     -5511.1919      191.31537      152.15219      56.557694    
     74500  -5547.1288      42.017516     -5505.1113      191.28313      152.11821      56.578305    
     74600  -5542.5259      41.860991     -5500.6649      191.25133      152.08366      56.598917    
     74700  -5537.5475      43.129015     -5494.4184      191.2172       152.04751      56.619528    
     74800  -5529.6356      41.451913     -5488.1836      191.18315      152.01185      56.64014     
     74900  -5522.6813      41.262556     -5481.4187      191.15108      151.97698      56.660751    
     75000  -5518.7742      41.896521     -5476.8777      191.11621      151.93901      56.681362    
     75100  -5514.102       43.046717     -5471.0553      191.0799       151.90162      56.701974    
     75200  -5507.9459      43.242397     -5464.7035      191.04774      151.86647      56.722585    
     75300  -5501.7845      43.711067     -5458.0734      191.01148      151.82675      56.743197    
     75400  -5497.1326      44.111428     -5453.0212      190.97384      151.7874       56.763808    
     75500  -5490.2527      43.615449     -5446.6373      190.9408       151.75172      56.784419    
     75600  -5484.836       45.090284     -5439.7457      190.90417      151.71157      56.805031    
     75700  -5477.7948      44.584752     -5433.21        190.86408      151.6695       56.825642    
     75800  -5470.6395      45.240112     -5425.3994      190.829        151.63181      56.846254    
     75900  -5465.0335      45.655289     -5419.3782      190.79226      151.59143      56.866865    
     76000  -5459.1034      45.709241     -5413.3942      190.75191      151.54834      56.887476    
     76100  -5453.8228      46.338003     -5407.4848      190.7144       151.50819      56.908088    
     76200  -5445.9277      44.024422     -5401.9033      190.67626      151.46647      56.928699    
     76300  -5441.7822      44.55471      -5397.2275      190.63545      151.42262      56.949311    
     76400  -5435.1754      45.125104     -5390.0503      190.59588      151.38035      56.969922    
     76500  -5427.0412      43.189397     -5383.8518      190.55717      151.33754      56.990533    
     76600  -5424.151       47.294977     -5376.856       190.51588      151.2933       57.011145    
     76700  -5416.0144      42.943435     -5373.071       190.47328      151.24801      57.031756    
     76800  -5414.0437      46.06655      -5367.9771      190.43213      151.20316      57.052368    
     76900  -5406.0504      44.199904     -5361.8505      190.39099      151.15855      57.072979    
     77000  -5398.5584      46.701336     -5351.857       190.34679      151.11182      57.09359     
     77100  -5391.7208      46.403359     -5345.3174      190.30259      151.06378      57.114202    
     77200  -5386.7         44.953602     -5341.7464      190.26029      151.01791      57.134813    
     77300  -5379.388       45.726749     -5333.6612      190.2161       150.97047      57.155425    
     77400  -5372.3941      44.427481     -5327.9666      190.16957      150.92006      57.176036    
     77500  -5366.3824      46.952912     -5319.4295      190.12456      150.87202      57.196647    
     77600  -5359.3471      48.024704     -5311.3224      190.07916      150.82257      57.217259    
     77700  -5351.6818      46.148213     -5305.5336      190.03104      150.77044      57.23787     
     77800  -5344.5471      43.647983     -5300.8991      189.98383      150.72002      57.258482    
     77900  -5341.423       44.793493     -5296.6295      189.93732      150.66922      57.279093    
     78000  -5335.6736      47.273215     -5288.4003      189.88773      150.6154       57.299705    
     78100  -5326.3751      47.453361     -5278.9217      189.83769      150.56204      57.320316    
     78200  -5319.1646      47.970805     -5271.1938      189.78914      150.50936      57.340927    
     78300  -5311.424       47.424279     -5263.9997      189.73861      150.45403      57.361539    
     78400  -5307.5496      49.585525     -5257.964       189.68724      150.39885      57.38215     
     78500  -5301.2827      49.239416     -5252.0433      189.63607      150.34344      57.402762    
     78600  -5292.7984      46.728827     -5246.0696      189.58289      150.28571      57.423373    
     78700  -5287.6895      46.027143     -5241.6624      189.52959      150.2283       57.443984    
     78800  -5279.9997      47.354557     -5232.6452      189.4774       150.17122      57.464596    
     78900  -5302.1156      71.574921     -5230.5407      189.42208      150.11185      57.485207    
     79000  -5545.4724      225.38224     -5320.0902      189.37213      150.0565       57.505819    
     79100  -5972.4963      321.19016     -5651.3062      189.32207      150.00709      57.52643     
     79200  -6380.2816      278.29341     -6101.9882      189.26956      149.95778      57.547041    
     79300  -6775.315       258.39401     -6516.9209      189.27161      149.94554      57.567653    
     79400  -7035.5264      160.83463     -6874.6918      189.26342      149.93478      57.588264    
     79500  -7118.5099      92.388336     -7026.1216      189.25568      149.91705      57.608876    
     79600  -7154.9331      58.83932      -7096.0937      189.17653      149.84387      57.629487    
     79700  -7173.7489      43.486539     -7130.2624      189.17173      149.80339      57.650098    
     79800  -7180.5133      33.19431      -7147.319       189.20688      149.76972      57.67071     
     79900  -7186.519       33.693897     -7152.8251      189.20909      149.69893      57.691321    
     80000  -7184.6646      36.627644     -7148.037       189.22482      149.63711      57.711933    
     80100  -7180.4491      43.169682     -7137.2794      189.2314       149.56254      57.732544    
     80200  -7176.115       44.729839     -7131.3851      189.24669      149.48359      57.753155    
     80300  -7178.9107      42.785678     -7136.125       189.26906      149.41936      57.773767    
     80400  -7182.0382      37.507456     -7144.5308      189.27375      149.34721      57.794378    
     80500  -7183.4399      35.680854     -7147.759       189.28162      149.27666      57.81499     
     80600  -7181.6648      37.843607     -7143.8212      189.30504      149.21438      57.835601    
     80700  -7177.7576      41.465824     -7136.2918      189.29944      149.14341      57.856212    
     80800  -7176.0811      43.928797     -7132.1523      189.28763      149.07978      57.876824    
     80900  -7175.8683      40.079439     -7135.7888      189.28005      149.02729      57.897435    
     81000  -7179.9994      38.345685     -7141.6537      189.2455       148.97177      57.918047    
     81100  -7180.7088      36.755341     -7143.9534      189.21374      148.92501      57.938658    
     81200  -7179.7963      38.764988     -7141.0313      189.20244      148.89482      57.959269    
     81300  -7175.8284      40.185986     -7135.6424      189.14794      148.85334      57.979881    
     81400  -7175.5956      43.473052     -7132.1226      189.09851      148.8237       58.000492    
     81500  -7176.5466      42.508466     -7134.0382      189.06035      148.79614      58.021104    
     81600  -7176.0276      36.830208     -7139.1974      189.02357      148.77272      58.041715    
     81700  -7179.572       38.236329     -7141.3356      188.96342      148.74106      58.062326    
     81800  -7179.091       39.471323     -7139.6197      188.91459      148.7107       58.082938    
     81900  -7177.0811      40.410573     -7136.6705      188.8687       148.68196      58.103549    
     82000  -7175.3685      40.566308     -7134.8022      188.80887      148.64397      58.124161    
     82100  -7176.3324      40.039571     -7136.2928      188.7613       148.61203      58.144772    
     82200  -7177.0573      38.384684     -7138.6726      188.7195       148.57964      58.165383    
     82300  -7179.5756      38.08383      -7141.4917      188.67286      148.54019      58.185995    
     82400  -7178.7086      38.028182     -7140.6804      188.64794      148.50477      58.206606    
     82500  -7179.2828      40.519236     -7138.7636      188.60695      148.46057      58.227218    
     82600  -7178.2426      40.655057     -7137.5876      188.56464      148.41067      58.247829    
     82700  -7178.1896      39.437069     -7138.7525      188.53861      148.364        58.268441    
     82800  -7180.9364      40.166335     -7140.7701      188.50319      148.30378      58.289052    
     82900  -7180.0156      38.164396     -7141.8512      188.47009      148.23954      58.309663    
     83000  -7178.2674      37.209772     -7141.0577      188.4529       148.18229      58.330275    
     83100  -7179.362       40.895288     -7138.4667      188.42243      148.11381      58.350886    
     83200  -7177.1618      40.923574     -7136.2382      188.41195      148.04479      58.371498    
     83300  -7176.9931      40.180857     -7136.8123      188.40098      147.9728       58.392109    
     83400  -7178.0291      39.338679     -7138.6904      188.36539      147.88181      58.41272     
     83500  -7179.5209      40.123657     -7139.3973      188.3531       147.80264      58.433332    
     83600  -7176.2042      37.974466     -7138.2298      188.34016      147.72067      58.453943    
     83700  -7174.8848      38.909268     -7135.9755      188.31519      147.63377      58.474555    
     83800  -7175.1775      39.980807     -7135.1967      188.30297      147.54784      58.495166    
     83900  -7177.3794      40.304663     -7137.0747      188.2935       147.46618      58.515777    
     84000  -7178.3267      38.642784     -7139.6839      188.26151      147.37466      58.536389    
     84100  -7178.9419      37.929609     -7141.0123      188.25028      147.29575      58.557       
     84200  -7177.2743      38.423651     -7138.8507      188.24334      147.22269      58.577612    
     84300  -7174.6722      39.437442     -7135.2348      188.20161      147.13819      58.598223    
     84400  -7175.1365      41.720997     -7133.4155      188.15599      147.05949      58.618834    
     84500  -7174.6929      39.527468     -7135.1655      188.12288      146.98907      58.639446    
     84600  -7176.1541      37.750027     -7138.404       188.058        146.90577      58.660057    
     84700  -7177.2968      38.063193     -7139.2336      188.00369      146.83263      58.680669    
     84800  -7176.2514      39.397685     -7136.8537      187.94311      146.75972      58.70128     
     84900  -7174.1082      40.688284     -7133.4199      187.8823       146.68651      58.721891    
     85000  -7173.9101      40.939        -7132.9711      187.82384      146.61358      58.742503    
     85100  -7174.8778      40.662056     -7134.2157      187.76198      146.53731      58.763114    
     85200  -7175.2814      39.28866      -7135.9927      187.70282      146.45845      58.783726    
     85300  -7175.661       39.419334     -7136.2417      187.64348      146.37539      58.804337    
     85400  -7174.6086      39.383923     -7135.2247      187.60439      146.29453      58.824948    
     85500  -7173.9257      39.648448     -7134.2773      187.55482      146.2094       58.84556     
     85600  -7173.5501      39.92108      -7133.6291      187.4965       146.1141       58.866171    
     85700  -7173.1629      39.04602      -7134.1169      187.4505       146.0305       58.886783    
     85800  -7172.5499      37.67283      -7134.8771      187.39644      145.94884      58.907394    
     85900  -7174.4924      38.895781     -7135.5967      187.33947      145.86738      58.928005    
     86000  -7175.211       39.797361     -7135.4137      187.28629      145.79111      58.948617    
     86100  -7173.2977      39.572864     -7133.7248      187.21632      145.70195      58.969228    
     86200  -7173.0635      41.65211      -7131.4114      187.14984      145.61545      58.98984     
     86300  -7171.9409      40.486281     -7131.4546      187.07895      145.5276       59.010451    
     86400  -7173.9423      41.634565     -7132.3077      186.99819      145.43633      59.031062    
     86500  -7172.7558      38.015699     -7134.7401      186.93228      145.34871      59.051674    
     86600  -7172.9314      37.678629     -7135.2528      186.86078      145.25073      59.072285    
     86700  -7171.8787      38.477424     -7133.4013      186.79588      145.15332      59.092897    
     86800  -7170.388       40.141048     -7130.247       186.72812      145.05231      59.113508    
     86900  -7169.1924      40.513722     -7128.6787      186.66094      144.95163      59.13412     
     87000  -7170.7709      41.093749     -7129.6771      186.60065      144.84742      59.154731    
     87100  -7171.932       39.751548     -7132.1804      186.53704      144.73691      59.175342    
     87200  -7170.8906      37.168569     -7133.722       186.47954      144.63171      59.195954    
     87300  -7172.6052      39.633448     -7132.9718      186.42756      144.52181      59.216565    
     87400  -7170.1322      39.2572       -7130.875       186.36953      144.40137      59.237177    
     87500  -7170.9353      41.547294     -7129.388       186.31223      144.28556      59.257788    
     87600  -7170.4095      41.051359     -7129.3581      186.25799      144.1702       59.278399    
     87700  -7170.2459      39.458235     -7130.7877      186.21347      144.06268      59.299011    
     87800  -7171.6153      39.852895     -7131.7624      186.16782      143.95176      59.319622    
     87900  -7170.8404      39.051778     -7131.7886      186.10738      143.83367      59.340234    
     88000  -7169.5732      39.450936     -7130.1223      186.0487       143.7201       59.360845    
     88100  -7167.6379      39.790295     -7127.8476      185.99412      143.60984      59.381456    
     88200  -7166.5958      39.518648     -7127.0772      185.92339      143.49356      59.402068    
     88300  -7167.8873      39.533909     -7128.3534      185.85861      143.37966      59.422679    
     88400  -7169.1988      38.96435      -7130.2344      185.79885      143.27063      59.443291    
     88500  -7168.9023      37.968343     -7130.9339      185.73295      143.15722      59.463902    
     88600  -7169.8577      40.273531     -7129.5841      185.67316      143.04498      59.484513    
     88700  -7167.1554      39.573233     -7127.5822      185.61943      142.93899      59.505125    
     88800  -7166.6836      40.246755     -7126.4369      185.55328      142.82503      59.525736    
     88900  -7166.9488      39.936177     -7127.0127      185.4967       142.71913      59.546348    
     89000  -7167.1078      39.082082     -7128.0257      185.43774      142.61065      59.566959    
     89100  -7168.6742      40.897402     -7127.7768      185.36733      142.49555      59.58757     
     89200  -7167.8713      40.666444     -7127.2049      185.29626      142.38274      59.608182    
     89300  -7166.7568      40.049618     -7126.7072      185.22069      142.26668      59.628793    
     89400  -7167.235       41.227703     -7126.0073      185.15486      142.15579      59.649405    
     89500  -7165.6371      40.037671     -7125.5994      185.08655      142.04615      59.670016    
     89600  -7166.4173      39.509954     -7126.9074      185.01711      141.93944      59.690627    
     89700  -7165.8892      38.188657     -7127.7006      184.95457      141.83781      59.711239    
     89800  -7166.2847      39.579136     -7126.7055      184.88541      141.73586      59.73185     
     89900  -7162.8841      38.244774     -7124.6393      184.81179      141.63386      59.752462    
     90000  -7163.7092      41.419139     -7122.2901      184.74142      141.53833      59.773073    
     90100  -7163.0532      40.746577     -7122.3066      184.67589      141.44579      59.793684    
     90200  -7165.6574      40.262083     -7125.3953      184.60548      141.34987      59.814296    
     90300  -7164.2463      37.292453     -7126.9539      184.52316      141.24822      59.834907    
     90400  -7164.4687      38.054044     -7126.4147      184.45669      141.15607      59.855519    
     90500  -7164.7312      40.439329     -7124.2919      184.3923       141.06265      59.87613     
     90600  -7162.0452      40.784989     -7121.2602      184.32091      140.96428      59.896741    
     90700  -7161.0748      39.748692     -7121.3261      184.25264      140.86936      59.917353    
     90800  -7162.4463      39.047142     -7123.3992      184.18581      140.77834      59.937964    
     90900  -7165.3147      39.136985     -7126.1777      184.12147      140.68709      59.958576    
     91000  -7163.6204      37.205754     -7126.4147      184.05674      140.59326      59.979187    
     91100  -7161.5568      38.81053      -7122.7463      183.9929       140.50037      59.999798    
     91200  -7158.5623      40.485485     -7118.0768      183.92184      140.40356      60.02041     
     91300  -7158.8586      43.194929     -7115.6637      183.87036      140.31659      60.041021    
     91400  -7162.7804      40.11197      -7122.6684      183.81179      140.22668      60.061633    
     91500  -7164.7113      36.697567     -7128.0138      183.75075      140.13096      60.082244    
     91600  -7163.632       35.833167     -7127.7989      183.70089      140.03715      60.102856    
     91700  -7161.585       39.456593     -7122.1284      183.65156      139.94153      60.123467    
     91800  -7156.8817      41.52149      -7115.3602      183.60572      139.84903      60.144078    
     91900  -7157.4717      43.937753     -7113.534       183.56056      139.75806      60.16469     
     92000  -7159.6488      40.360856     -7119.2879      183.5271       139.66732      60.185301    
     92100  -7161.8944      36.47014      -7125.4243      183.48145      139.5736       60.205913    
     92200  -7161.365       35.237592     -7126.1274      183.4361       139.48734      60.226524    
     92300  -7160.7014      38.122986     -7122.5784      183.38799      139.40346      60.247135    
     92400  -7156.5005      39.795816     -7116.7047      183.3317       139.32129      60.267747    
     92500  -7155.1274      41.653925     -7113.4734      183.27699      139.24638      60.288358    
     92600  -7156.9534      40.600134     -7116.3533      183.22231      139.17583      60.30897     
     92700  -7160.5962      38.961008     -7121.6352      183.16255      139.10794      60.329581    
     92800  -7160.7439      36.486466     -7124.2574      183.10741      139.04578      60.350192    
     92900  -7160.8216      38.690169     -7122.1314      183.05411      138.98482      60.370804    
     93000  -7157.5296      40.67836      -7116.8512      183.00135      138.92802      60.391415    
     93100  -7154.6381      41.877059     -7112.761       182.93488      138.86752      60.412027    
     93200  -7155.3521      41.714805     -7113.6373      182.88106      138.81492      60.432638    
     93300  -7156.755       38.510835     -7118.2442      182.8299       138.75397      60.453249    
     93400  -7158.0401      36.593933     -7121.4462      182.78247      138.69353      60.473861    
     93500  -7159.0777      38.251149     -7120.8266      182.73006      138.62725      60.494472    
     93600  -7155.5396      39.003344     -7116.5362      182.69676      138.56763      60.515084    
     93700  -7153.5475      41.244736     -7112.3027      182.6636       138.50293      60.535695    
     93800  -7154.9331      42.806741     -7112.1263      182.62054      138.43371      60.556306    
     93900  -7155.0943      39.174383     -7115.9199      182.59287      138.36771      60.576918    
     94000  -7157.4446      38.226475     -7119.2182      182.56467      138.30097      60.597529    
     94100  -7157.2564      38.11369      -7119.1427      182.53174      138.23221      60.618141    
     94200  -7155.3507      39.687563     -7115.6632      182.50623      138.16711      60.638752    
     94300  -7152.2224      40.042309     -7112.1801      182.47595      138.10192      60.659363    
     94400  -7152.3191      41.008346     -7111.3108      182.44366      138.03959      60.679975    
     94500  -7153.2532      39.929965     -7113.3232      182.41962      137.97939      60.700586    
     94600  -7154.2789      38.888901     -7115.39        182.38903      137.91541      60.721198    
     94700  -7153.5882      37.22284      -7116.3653      182.35755      137.85202      60.741809    
     94800  -7153.8709      38.583749     -7115.2871      182.32517      137.78741      60.76242     
     94900  -7152.0811      39.673008     -7112.4081      182.29049      137.72649      60.783032    
     95000  -7150.0815      40.144723     -7109.9368      182.26777      137.67241      60.803643    
     95100  -7151.4235      41.461466     -7109.962       182.2415       137.62132      60.824255    
     95200  -7152.7577      40.332719     -7112.4249      182.21806      137.57322      60.844866    
     95300  -7153.2629      39.077625     -7114.1852      182.19392      137.52663      60.865477    
     95400  -7152.7896      39.084589     -7113.705       182.16295      137.48015      60.886089    
     95500  -7151.2512      39.943019     -7111.3082      182.13734      137.4381       60.9067      
     95600  -7149.9852      40.794517     -7109.1907      182.10297      137.39317      60.927312    
     95700  -7147.6476      40.294711     -7107.3529      182.06855      137.34935      60.947923    
     95800  -7150.3417      40.443468     -7109.8982      182.02444      137.30524      60.968535    
     95900  -7151.557       38.869348     -7112.6876      181.9918       137.26582      60.989146    
     96000  -7150.5901      37.198082     -7113.392       181.94574      137.22421      61.009757    
     96100  -7151.1508      39.927776     -7111.223       181.90411      137.18731      61.030369    
     96200  -7147.4847      39.977074     -7107.5076      181.85535      137.15272      61.05098     
     96300  -7146.2696      41.319531     -7104.9501      181.80542      137.11944      61.071592    
     96400  -7148.4096      41.112473     -7107.2972      181.76696      137.09543      61.092203    
     96500  -7149.9371      38.88221      -7111.0549      181.72942      137.07135      61.112814    
     96600  -7150.0232      37.743061     -7112.2802      181.6886       137.04301      61.133426    
     96700  -7148.4916      38.586684     -7109.9049      181.64672      137.01336      61.154037    
     96800  -7145.7577      40.378805     -7105.3789      181.60016      136.97957      61.174649    
     96900  -7144.5037      41.794153     -7102.7096      181.5608       136.9529       61.19526     
     97000  -7144.9067      40.510183     -7104.3966      181.53008      136.92402      61.215871    
     97100  -7146.7936      38.517383     -7108.2762      181.49444      136.89074      61.236483    
     97200  -7148.595       38.010084     -7110.585       181.47386      136.85976      61.257094    
     97300  -7147.1159      37.363796     -7109.7521      181.45501      136.82017      61.277706    
     97400  -7146.4832      40.035316     -7106.4479      181.43659      136.78314      61.298317    
     97500  -7143.7968      40.782487     -7103.0143      181.42059      136.74285      61.318928    
     97600  -7143.6417      41.176996     -7102.4647      181.41005      136.70485      61.33954     
     97700  -7143.9702      38.964969     -7105.0053      181.39056      136.66249      61.360151    
     97800  -7146.4177      38.491862     -7107.9258      181.37922      136.62105      61.380763    
     97900  -7146.1843      36.695591     -7109.4887      181.36605      136.57286      61.401374    
     98000  -7146.1143      38.301657     -7107.8127      181.35262      136.52382      61.421985    
     98100  -7145.727       41.111656     -7104.6153      181.34986      136.47979      61.442597    
     98200  -7143.117       40.14055      -7102.9764      181.34681      136.4358       61.463208    
     98300  -7143.8812      40.059665     -7103.8215      181.33331      136.38864      61.48382     
     98400  -7144.9966      39.155006     -7105.8416      181.32299      136.34686      61.504431    
     98500  -7143.4234      37.059356     -7106.3641      181.31422      136.30698      61.525042    
     98600  -7144.4512      38.90865      -7105.5426      181.28448      136.25709      61.545654    
     98700  -7143.2877      40.007642     -7103.2801      181.26414      136.22041      61.566265    
     98800  -7140.5731      39.446725     -7101.1264      181.23816      136.17916      61.586877    
     98900  -7139.448       37.943136     -7101.5049      181.21865      136.14842      61.607488    
     99000  -7142.9528      39.823182     -7103.1296      181.19081      136.12167      61.628099    
     99100  -7142.994       38.405897     -7104.5881      181.16696      136.1007       61.648711    
     99200  -7143.6251      39.463911     -7104.1612      181.14887      136.08401      61.669322    
     99300  -7141.1287      38.689114     -7102.4396      181.11954      136.06306      61.689934    
     99400  -7142.1028      41.344724     -7100.7581      181.08545      136.04099      61.710545    
     99500  -7139.661       40.059206     -7099.6018      181.05144      136.02086      61.731156    
     99600  -7140.8066      40.246825     -7100.5598      181.01884      135.99989      61.751768    
     99700  -7143.0509      39.799474     -7103.2514      180.98319      135.97522      61.772379    
     99800  -7141.9512      37.35294      -7104.5982      180.96216      135.95597      61.792991    
     99900  -7141.6478      38.851928     -7102.7959      180.92728      135.93113      61.813602    
    100000  -7139.3796      39.67063      -7099.7089      180.89792      135.90737      61.834213    
Loop time of 29882.1 on 12 procs for 100000 steps with 1020 atoms

Performance: 0.289 ns/day, 83.006 hours/ns, 3.346 timesteps/s, 3.413 katom-step/s
40.7% CPU use with 12 MPI tasks x 1 OpenMP threads

MPI task timing breakdown:
Section |  min time  |  avg time  |  max time  |%varavg| %total
---------------------------------------------------------------
Pair    | 0.61213    | 249.74     | 1510.6     |3524.5 |  0.84
Neigh   | 0.0024567  | 0.46238    | 2.8646     | 151.2 |  0.00
Comm    | 17.045     | 352.12     | 1851       |3279.4 |  1.18
Output  | 123.23     | 126.9      | 130.07     |  19.7 |  0.42
Modify  | 22764      | 25521      | 26109      | 730.5 | 85.41
Other   |            | 3632       |            |       | 12.15

Nlocal:             85 ave         518 max           0 min
Histogram: 10 0 0 0 0 0 0 0 0 2
Nghost:        126.333 ave         700 max           0 min
Histogram: 10 0 0 0 0 0 0 0 0 2
Neighs:              0 ave           0 max           0 min
Histogram: 12 0 0 0 0 0 0 0 0 0

Total # of neighbors = 0
Ave neighs/atom = 0
Neighbor list builds = 228
Dangerous builds = 0
Total wall time: 8:18:14
