LAMMPS (2 Aug 2023 - Update 3)
OMP_NUM_THREADS environment is not set. Defaulting to 1 thread. (src/comm.cpp:98)
  using 1 OpenMP thread(s) per MPI task

# 1------general---------------
units                             metal      #单位为lammps 中的metel 类型
dimension                    3          #模拟的维度 三维
boundary                    p p p      #周期边界条件
atom_style                  atomic   #原子类型自动
atom_modify              map array sort 100 2.0
neighbor                    3.0 bin
neigh_modify            every 1 delay 0 check yes
#2 -----global variable-------定义全局变量，方便统一修改；
variable temperature equal 300
variable tstep equal 0.001
variable pressure equal 0
variable thermalstep equal 100
variable dumpstep equal 1000
variable relaxtime equal 0
variable totaltime equal 100000
variable deformrate equal 5e-3
#3 -------model------------
#box tilt large
read_data     1.lmp
Reading data file ...
  orthogonal box = (-100 -100 -2.3312515) to (100 100 46.166171)
  3 by 4 by 1 MPI processor grid
  reading atoms ...
  1480 atoms
  read_data CPU = 0.007 seconds
replicate 1 1 1
Replication is creating a 1x1x1 = 1 times larger system...
  orthogonal box = (-100 -100 -2.3312515) to (100 100 46.166171)
  3 by 4 by 1 MPI processor grid
  1480 atoms
  replicate CPU = 0.001 seconds
group SR type 2 3
360 atoms in group SR
delete_atoms group SR
Deleted 360 atoms, new total = 1120

write_data z.data
System init for write_data ...
WARNING: Communication cutoff is 0.0. No ghost atoms will be generated. Atoms may get lost. (src/comm_brick.cpp:210)
pair_style hybrid airebo 3.0 airebo 3.0 airebo 3.0 lj/cut 10
pair_coeff * * airebo 1 CH.airebo C NULL NULL
Reading airebo potential file CH.airebo with DATE: 2011-10-25
pair_coeff * * airebo 2 CH.airebo NULL C NULL
Reading airebo potential file CH.airebo with DATE: 2011-10-25
pair_coeff * * airebo 3 CH.airebo NULL NULL C
Reading airebo potential file CH.airebo with DATE: 2011-10-25
pair_coeff 1 2 lj/cut 0.00456 3.431
pair_coeff 1 3 lj/cut 0.00456 3.431
pair_coeff 2 3 lj/cut 0.00456 3.431

# 5------minimize -----------
min_style      sd
minimize       1.0e-4 1.0e-6 100 1000
Neighbor list info ...
  update: every = 1 steps, delay = 0 steps, check = yes
  max neighbors/atom: 2000, page size: 100000
  master list distance cutoff = 13.2
  ghost atom cutoff = 13.2
  binsize = 6.6, bins = 31 31 8
  6 neighbor lists, perpetual/occasional/extra = 6 0 0
  (1) pair airebo, perpetual, skip from (5)
      attributes: full, newton on, ghost
      pair build: skip/ghost
      stencil: none
      bin: none
  (2) pair airebo, perpetual, skip from (5)
      attributes: full, newton on, ghost
      pair build: skip/ghost
      stencil: none
      bin: none
  (3) pair airebo, perpetual, skip from (5)
      attributes: full, newton on, ghost
      pair build: skip/ghost
      stencil: none
      bin: none
  (4) pair lj/cut, perpetual, skip from (6)
      attributes: half, newton on, cut 13
      pair build: skip
      stencil: none
      bin: none
  (5) neighbor class addition, perpetual
      attributes: full, newton on, ghost
      pair build: full/bin/ghost
      stencil: full/ghost/bin/3d
      bin: standard
  (6) neighbor class addition, perpetual
      attributes: half, newton on, cut 13
      pair build: half/bin/atomonly/newton
      stencil: half/bin/3d
      bin: standard
Per MPI rank memory allocation (min/avg/max) = 9.701 | 9.865 | 10.68 Mbytes
   Step          Temp          E_pair         E_mol          TotEng         Press     
         0   0             -8302.0952      0             -8302.0952     -48.029154    
         1   0             -8302.1071      0             -8302.1071     -47.94229     
Loop time of 0.023164 on 12 procs for 1 steps with 1120 atoms

91.3% CPU use with 12 MPI tasks x 1 OpenMP threads

Minimization stats:
  Stopping criterion = energy tolerance
  Energy initial, next-to-last, final = 
     -8302.09521262467  -8302.09521262467  -8302.10711331519
  Force two-norm initial, final = 1.756651 0.28579382
  Force max component initial, final = 0.052442243 0.0085447709
  Final line search alpha, max atom move = 1 0.0085447709
  Iterations, force evaluations = 1 2

MPI task timing breakdown:
Section |  min time  |  avg time  |  max time  |%varavg| %total
---------------------------------------------------------------
Pair    | 2.072e-06  | 0.0037333  | 0.022889   |  13.7 | 16.12
Neigh   | 0          | 0          | 0          |   0.0 |  0.00
Comm    | 2.082e-06  | 0.00010537 | 0.0011187  |   0.0 |  0.45
Output  | 0          | 0          | 0          |   0.0 |  0.00
Modify  | 0          | 0          | 0          |   0.0 |  0.00
Other   |            | 0.01933    |            |       | 83.43

Nlocal:        93.3333 ave         580 max           0 min
Histogram: 10 0 0 0 0 0 0 0 0 2
Nghost:        191.333 ave        1168 max           0 min
Histogram: 10 0 0 0 0 0 0 0 0 2
Neighs:              0 ave           0 max           0 min
Histogram: 12 0 0 0 0 0 0 0 0 0

Total # of neighbors = 0
Ave neighs/atom = 0
Neighbor list builds = 0
Dangerous builds = 0
#6----define computes------
variable nums equal count(all) #计算原子数目
variable toval equal 18.7166*18.7166*lz #计算系统总体积，单层石墨烯厚度为0.335nm
variable vol equal ${toval} #体系的初始体积
variable vol equal 16989.1863529152 
variable vatom equal v_vol/v_nums #单个原子体积
compute 1 all stress/atom NULL #计算体系中单原子应力
compute xalls all reduce sum c_1[1]
variable xstress equal (c_xalls)/(v_toval*10000)
compute yalls all reduce sum c_1[2]
variable ystress equal (c_yalls)/(v_toval*10000)
compute zalls all reduce sum c_1[3]
variable zstress equal (c_zalls)/(v_toval*10000)
#7---------relaxation-------------------------
timestep ${tstep}
timestep 0.001
velocity all create ${temperature} 231743 units box dist gaussian
velocity all create 300 231743 units box dist gaussian
dump   1 all atom 100 all-cy.lammpstrj
#fix    1 all npt temp 300 300  0.1 aniso 0 0 10 drag 1  #三个方向独立控压
fix  1 all npt temp ${temperature} ${temperature} 0.1 x ${pressure} ${pressure} 10 y ${pressure} ${pressure} 10
fix  1 all npt temp 300 ${temperature} 0.1 x ${pressure} ${pressure} 10 y ${pressure} ${pressure} 10
fix  1 all npt temp 300 300 0.1 x ${pressure} ${pressure} 10 y ${pressure} ${pressure} 10
fix  1 all npt temp 300 300 0.1 x 0 ${pressure} 10 y ${pressure} ${pressure} 10
fix  1 all npt temp 300 300 0.1 x 0 0 10 y ${pressure} ${pressure} 10
fix  1 all npt temp 300 300 0.1 x 0 0 10 y 0 ${pressure} 10
fix  1 all npt temp 300 300 0.1 x 0 0 10 y 0 0 10
compute  2 all pe/atom
compute  pe all reduce sum c_2
variable PE equal "c_pe"
fix    pe all print 100 "${PE} " file PE.txt screen no
thermo  ${thermalstep}
thermo  100
#thermo_style  custom step pe ke etotal lx ly lz
run   ${relaxtime}
run   0
Per MPI rank memory allocation (min/avg/max) = 10.33 | 10.49 | 11.31 Mbytes
   Step          Temp          E_pair         E_mol          TotEng         Press          Volume    
         1   300           -8302.1071      0             -8258.7145     -24.050074      1939896.9    
Loop time of 4.25827e-05 on 12 procs for 0 steps with 1120 atoms

94.7% CPU use with 12 MPI tasks x 1 OpenMP threads

MPI task timing breakdown:
Section |  min time  |  avg time  |  max time  |%varavg| %total
---------------------------------------------------------------
Pair    | 0          | 0          | 0          |   0.0 |  0.00
Neigh   | 0          | 0          | 0          |   0.0 |  0.00
Comm    | 0          | 0          | 0          |   0.0 |  0.00
Output  | 0          | 0          | 0          |   0.0 |  0.00
Modify  | 0          | 0          | 0          |   0.0 |  0.00
Other   |            | 4.258e-05  |            |       |100.00

Nlocal:        93.3333 ave         560 max           0 min
Histogram: 10 0 0 0 0 0 0 0 0 2
Nghost:        191.333 ave        1148 max           0 min
Histogram: 10 0 0 0 0 0 0 0 0 2
Neighs:              0 ave           0 max           0 min
Histogram: 12 0 0 0 0 0 0 0 0 0

Total # of neighbors = 0
Ave neighs/atom = 0
Neighbor list builds = 0
Dangerous builds = 0
#8 -------tension-----------------------------
unfix  1
undump  1
unfix  pe
reset_timestep 0
fix avestress all ave/atom 1 ${dumpstep} ${dumpstep} c_1[1] c_1[2] c_1[3] c_1[4] c_1[5] c_1[6]
fix avestress all ave/atom 1 1000 ${dumpstep} c_1[1] c_1[2] c_1[3] c_1[4] c_1[5] c_1[6]
fix avestress all ave/atom 1 1000 1000 c_1[1] c_1[2] c_1[3] c_1[4] c_1[5] c_1[6]

#-----calculation of strain and Cumulative compression--------
variable                tmp equal "lz"
variable                L0 equal ${tmp}
variable                L0 equal 48.497423
variable                strain equal "(lz - v_L0)/v_L0"
variable                Cumulativels equal "(lz - v_L0)/10"
fix Step all print 100 "${strain} ${Cumulativels} ${zstress}" file grapoten.txt screen no

dump 2 all custom ${dumpstep} tension.xyz type x y z f_avestress[1] f_avestress[2] f_avestress[3] f_avestress[4] f_avestress[5] f_avestress[6]
dump 2 all custom 1000 tension.xyz type x y z f_avestress[1] f_avestress[2] f_avestress[3] f_avestress[4] f_avestress[5] f_avestress[6]

fix  1 all npt temp ${temperature} ${temperature} 0.1 y ${pressure} ${pressure} 10 x ${pressure} ${pressure} 10
fix  1 all npt temp 300 ${temperature} 0.1 y ${pressure} ${pressure} 10 x ${pressure} ${pressure} 10
fix  1 all npt temp 300 300 0.1 y ${pressure} ${pressure} 10 x ${pressure} ${pressure} 10
fix  1 all npt temp 300 300 0.1 y 0 ${pressure} 10 x ${pressure} ${pressure} 10
fix  1 all npt temp 300 300 0.1 y 0 0 10 x ${pressure} ${pressure} 10
fix  1 all npt temp 300 300 0.1 y 0 0 10 x 0 ${pressure} 10
fix  1 all npt temp 300 300 0.1 y 0 0 10 x 0 0 10

thermo_style custom step pe ke etotal lx ly lz
fix   2 all deform 1 z erate ${deformrate} remap x units box
fix   2 all deform 1 z erate 0.005 remap x units box
fix   3 all ave/time 2 500 1000 v_xstress v_ystress v_zstress file pressure.out
run   ${totaltime}
run   100000
WARNING: Dump 2 includes no atom IDs and is not sorted by ID. This may complicate post-processing tasks or visualization (src/dump.cpp:221)
Per MPI rank memory allocation (min/avg/max) = 11.83 | 11.99 | 12.81 Mbytes
   Step         PotEng         KinEng         TotEng           Lx             Ly             Lz      
         0  -8302.1071      43.392631     -8258.7145      200            200            48.497423    
       100  -8276.2285      22.003685     -8254.2248      199.99358      199.99128      48.521672    
       200  -8274.598       27.10867      -8247.4894      199.98683      199.98276      48.54592     
       300  -8271.2861      31.874082     -8239.412       199.99341      199.98754      48.570169    
       400  -8267.2935      36.571357     -8230.7221      199.9858       199.97754      48.594418    
       500  -8263.0095      40.695277     -8222.3142      199.98344      199.97257      48.618667    
       600  -8259.394       44.011737     -8215.3822      199.98858      199.97402      48.642915    
       700  -8257.0354      45.737793     -8211.2976      199.97694      199.95758      48.667164    
       800  -8256.3869      44.407733     -8211.9791      199.98189      199.95716      48.691413    
       900  -8259.5335      43.803262     -8215.7302      199.98376      199.95568      48.715661    
      1000  -8260.5391      42.071937     -8218.4672      199.96857      199.93508      48.73991     
      1100  -8261.4285      43.291485     -8218.137       199.97928      199.93913      48.764159    
      1200  -8258.6633      43.149829     -8215.5135      199.98077      199.93243      48.788408    
      1300  -8256.6418      43.803921     -8212.8379      199.9652       199.90875      48.812656    
      1400  -8256.0725      44.251551     -8211.8209      199.97627      199.91446      48.836905    
      1500  -8257.3384      44.500678     -8212.8377      199.97037      199.90202      48.861154    
      1600  -8257.3344      42.037443     -8215.297       199.96405      199.88661      48.885402    
      1700  -8259.1563      42.622749     -8216.5335      199.97393      199.88709      48.909651    
      1800  -8258.3718      43.065367     -8215.3064      199.96232      199.86805      48.9339      
      1900  -8255.489       43.068064     -8212.4209      199.96116      199.86109      48.958149    
      2000  -8255.0235      44.664257     -8210.3592      199.96927      199.86039      48.982397    
      2100  -8256.4469      45.851293     -8210.5956      199.95319      199.83334      49.006646    
      2200  -8254.4219      41.727598     -8212.6943      199.95859      199.82888      49.030895    
      2300  -8255.5629      41.481886     -8214.081       199.96422      199.82644      49.055143    
      2400  -8256.4547      42.893246     -8213.5615      199.948        199.80142      49.079392    
      2500  -8254.2064      43.164829     -8211.0416      199.95278      199.79471      49.103641    
      2600  -8255.7         47.117927     -8208.582       199.95763      199.7873       49.127889    
      2700  -8253.7052      45.284994     -8208.4202      199.94625      199.76498      49.152138    
      2800  -8253.6229      43.317267     -8210.3056      199.94824      199.75843      49.176387    
      2900  -8253.4769      42.106031     -8211.3708      199.94699      199.74686      49.200636    
      3000  -8252.9067      42.452607     -8210.4541      199.93678      199.724        49.224884    
      3100  -8251.1316      42.952164     -8208.1795      199.94564      199.71924      49.249133    
      3200  -8252.1978      45.585928     -8206.6119      199.94143      199.70412      49.273382    
      3300  -8250.3024      43.923292     -8206.3791      199.92649      199.67932      49.29763     
      3400  -8251.2913      43.767344     -8207.524       199.94037      199.68036      49.321879    
      3500  -8250.6947      42.56807      -8208.1267      199.93237      199.65705      49.346128    
      3600  -8250.8288      43.433062     -8207.3958      199.92016      199.63368      49.370377    
      3700  -8248.7727      43.403959     -8205.3688      199.93264      199.63677      49.394625    
      3800  -8246.815       43.756163     -8203.0588      199.9176       199.61121      49.418874    
      3900  -8247.4991      44.533395     -8202.9657      199.90999      199.59267      49.443123    
      4000  -8246.2623      41.043964     -8205.2184      199.91875      199.59084      49.467371    
      4100  -8247.3007      42.313206     -8204.9875      199.90012      199.56532      49.49162     
      4200  -8246.2121      42.481919     -8203.7302      199.89793      199.5564       49.515869    
      4300  -8246.699       44.970638     -8201.7283      199.89924      199.54878      49.540118    
      4400  -8245.3763      45.759309     -8199.617       199.87983      199.52095      49.564366    
      4500  -8244.5366      45.372405     -8199.1642      199.88069      199.51702      49.588615    
      4600  -8244.6834      43.060621     -8201.6228      199.87458      199.50818      49.612864    
      4700  -8244.0057      42.170595     -8201.8351      199.85315      199.48183      49.637112    
      4800  -8242.5489      42.591034     -8199.9579      199.85645      199.4786       49.661361    
      4900  -8242.3015      45.108014     -8197.1935      199.84829      199.46559      49.68561     
      5000  -8239.9256      43.57727      -8196.3483      199.82632      199.44174      49.709859    
      5100  -8239.6995      43.01289      -8196.6866      199.82907      199.44046      49.734107    
      5200  -8240.9733      44.398966     -8196.5743      199.81549      199.41985      49.758356    
      5300  -8238.512       42.487693     -8196.0243      199.79916      199.39652      49.782605    
      5400  -8238.5644      43.369558     -8195.1949      199.80103      199.39565      49.806853    
      5500  -8236.3312      44.242644     -8192.0886      199.78218      199.37257      49.831102    
      5600  -8234.9735      45.175512     -8189.7979      199.76927      199.35283      49.855351    
      5700  -8234.4922      43.379771     -8191.1124      199.77307      199.34821      49.8796      
      5800  -8236.0344      44.260481     -8191.7739      199.75194      199.32109      49.903848    
      5900  -8236.6345      44.956068     -8191.6785      199.74214      199.3047       49.928097    
      6000  -8233.7694      42.338793     -8191.4307      199.74393      199.29751      49.952346    
      6100  -8234.3721      44.645343     -8189.7268      199.72072      199.26304      49.976594    
      6200  -8230.7897      44.210968     -8186.5787      199.71694      199.24999      50.000843    
      6300  -8230.724       45.377608     -8185.3464      199.71523      199.2396       50.025092    
      6400  -8230.2243      43.341524     -8186.8828      199.69088      199.20426      50.049341    
      6500  -8230.751       43.406855     -8187.3441      199.68897      199.18946      50.073589    
      6600  -8228.5242      42.515653     -8186.0085      199.68353      199.17148      50.097838    
      6700  -8228.541       44.607848     -8183.9331      199.66117      199.13621      50.122087    
      6800  -8225.6709      43.72016      -8181.9507      199.66149      199.1237       50.146335    
      6900  -8223.7679      44.041219     -8179.7266      199.65291      199.09919      50.170584    
      7000  -8224.2716      44.695268     -8179.5763      199.63257      199.06227      50.194833    
      7100  -8224.6377      43.429751     -8181.2079      199.63458      199.04798      50.219082    
      7200  -8222.4123      41.514369     -8180.8979      199.62078      199.02044      50.24333     
      7300  -8223.7897      44.34553      -8179.4442      199.60233      198.98476      50.267579    
      7400  -8220.8349      43.918263     -8176.9167      199.60617      198.9693       50.291828    
      7500  -8218.1084      44.298819     -8173.8096      199.5896       198.93566      50.316076    
      7600  -8217.2612      43.385203     -8173.876       199.57113      198.90134      50.340325    
      7700  -8217.81        42.741867     -8175.0682      199.57352      198.88629      50.364574    
      7800  -8218.157       43.817108     -8174.3398      199.55342      198.84765      50.388822    
      7900  -8215.7022      42.115972     -8173.5863      199.53694      198.81529      50.413071    
      8000  -8214.7369      42.30413      -8172.4328      199.53486      198.798        50.43732     
      8100  -8212.7866      43.204949     -8169.5817      199.50962      198.75801      50.461569    
      8200  -8213.6764      46.240135     -8167.4362      199.49839      198.73142      50.485817    
      8300  -8211.094       42.858114     -8168.2358      199.49124      198.70872      50.510066    
      8400  -8211.9582      42.692813     -8169.2654      199.46169      198.66599      50.534315    
      8500  -8210.9352      43.088303     -8167.8469      199.45085      198.64207      50.558563    
      8600  -8209.3534      44.13196      -8165.2214      199.43964      198.61696      50.582812    
      8700  -8206.7671      43.851404     -8162.9157      199.40905      198.57221      50.607061    
      8800  -8205.0795      42.236519     -8162.8429      199.39754      198.54841      50.63131     
      8900  -8206.1604      41.328686     -8164.8317      199.37954      198.51994      50.655558    
      9000  -8206.0466      42.853969     -8163.1926      199.34849      198.47709      50.679807    
      9100  -8204.2245      43.991534     -8160.233       199.33844      198.45394      50.704056    
      9200  -8201.8399      43.894874     -8157.9451      199.31645      198.41943      50.728304    
      9300  -8200.7514      43.905696     -8156.8457      199.28393      198.37441      50.752553    
      9400  -8200.1458      43.621953     -8156.5238      199.27289      198.35153      50.776802    
      9500  -8199.6964      41.375342     -8158.3211      199.24662      198.31116      50.801051    
      9600  -8199.4664      41.503231     -8157.9632      199.21619      198.26617      50.825299    
      9700  -8197.4049      42.587152     -8154.8178      199.20375      198.23803      50.849548    
      9800  -8195.4627      43.60169      -8151.861       199.17136      198.19174      50.873797    
      9900  -8193.8315      43.979914     -8149.8516      199.14458      198.1487       50.898045    
     10000  -8192.4188      44.149374     -8148.2694      199.12844      198.11597      50.922294    
     10100  -8192.2971      44.029317     -8148.2678      199.09261      198.0639       50.946543    
     10200  -8192.7447      43.782228     -8148.9625      199.06692      198.0199       50.970792    
     10300  -8189.2139      41.699882     -8147.514       199.04729      197.98153      50.99504     
     10400  -8187.6012      43.946165     -8143.655       199.01188      197.92618      51.019289    
     10500  -8184.8415      42.959461     -8141.882       198.98743      197.88185      51.043538    
     10600  -8185.1512      44.296631     -8140.8546      198.96277      197.83612      51.067786    
     10700  -8183.6422      43.098587     -8140.5436      198.92634      197.77797      51.092035    
     10800  -8183.5155      42.64368      -8140.8718      198.9032       197.73253      51.116284    
     10900  -8182.9532      41.959513     -8140.9937      198.87457      197.67973      51.140533    
     11000  -8181.0698      43.440357     -8137.6294      198.83783      197.6187       51.164781    
     11100  -8177.9048      43.889717     -8134.0151      198.81567      197.57072      51.18903     
     11200  -8176.4016      44.230262     -8132.1713      198.78133      197.51065      51.213279    
     11300  -8174.6103      42.667886     -8131.9424      198.74703      197.45039      51.237527    
     11400  -8173.7741      41.536268     -8132.2378      198.71975      197.39625      51.261776    
     11500  -8174.0636      43.245801     -8130.8178      198.68064      197.32961      51.286025    
     11600  -8170.7849      44.607839     -8126.1771      198.64878      197.27059      51.310274    
     11700  -8168.5059      44.426978     -8124.0789      198.61637      197.21059      51.334522    
     11800  -8167.4168      43.260543     -8124.1562      198.57332      197.1399       51.358771    
     11900  -8167.5359      43.37307      -8124.1628      198.54139      197.07821      51.38302     
     12000  -8166.6311      43.772537     -8122.8586      198.50267      197.01216      51.407268    
     12100  -8162.6498      42.112448     -8120.5374      198.45964      196.94039      51.431517    
     12200  -8159.5418      43.60425      -8115.9376      198.4241       196.87568      51.455766    
     12300  -8159.9609      45.537404     -8114.4235      198.38145      196.80391      51.480015    
     12400  -8158.6091      43.545642     -8115.0634      198.33584      196.72972      51.504263    
     12500  -8157.3598      42.591327     -8114.7684      198.29603      196.66152      51.528512    
     12600  -8156.1027      42.444561     -8113.6581      198.24844      196.58354      51.552761    
     12700  -8154.2181      42.716911     -8111.5012      198.20212      196.50759      51.577009    
     12800  -8153.1769      45.558777     -8107.6181      198.16148      196.43672      51.601258    
     12900  -8150.021       44.843822     -8105.1772      198.10718      196.35233      51.625507    
     13000  -8149.6561      44.0618       -8105.5943      198.06017      196.27466      51.649755    
     13100  -8147.8888      42.672073     -8105.2167      198.01538      196.19856      51.674004    
     13200  -8147.7612      44.024818     -8103.7364      197.95606      196.10845      51.698253    
     13300  -8144.5191      42.278393     -8102.2407      197.911        196.03186      51.722502    
     13400  -8144.4926      43.352463     -8101.1401      197.85863      195.94751      51.74675     
     13500  -8141.9117      42.307794     -8099.6039      197.79686      195.853        51.770999    
     13600  -8140.4567      43.666373     -8096.7903      197.75318      195.77467      51.795248    
     13700  -8137.9057      44.234406     -8093.6713      197.69766      195.68564      51.819496    
     13800  -8137.2362      44.621161     -8092.615       197.63258      195.58693      51.843745    
     13900  -8136.3338      42.53424      -8093.7995      197.58427      195.50407      51.867994    
     14000  -8134.7847      42.205872     -8092.5789      197.52641      195.41004      51.892243    
     14100  -8133.5789      43.899553     -8089.6794      197.46018      195.30844      51.916491    
     14200  -8130.522       43.652287     -8086.8697      197.41236      195.22381      51.94074     
     14300  -8129.3567      44.73684      -8084.6199      197.34843      195.12148      51.964989    
     14400  -8125.7069      42.572002     -8083.1349      197.28118      195.01751      51.989237    
     14500  -8127.8534      43.232824     -8084.6206      197.23342      194.92964      52.013486    
     14600  -8125.6015      42.124956     -8083.4765      197.16493      194.82067      52.037735    
     14700  -8122.6857      43.166414     -8079.5193      197.10066      194.71458      52.061984    
     14800  -8118.3847      42.180973     -8076.2038      197.05049      194.62339      52.086232    
     14900  -8118.4553      44.492779     -8073.9625      196.97775      194.50801      52.110481    
     15000  -8117.1258      43.767937     -8073.3578      196.9155       194.40273      52.13473     
     15100  -8117.3466      43.188943     -8074.1577      196.86011      194.30306      52.158978    
     15200  -8114.816       42.276532     -8072.5394      196.78633      194.18475      52.183227    
     15300  -8111.8155      42.157301     -8069.6582      196.72458      194.07907      52.207476    
     15400  -8110.5864      43.793145     -8066.7933      196.66695      193.97754      52.231725    
     15500  -8107.4622      43.919634     -8063.5425      196.58786      193.85414      52.255973    
     15600  -8104.1168      42.984014     -8061.1328      196.52866      193.75047      52.280222    
     15700  -8105.592       44.54008      -8061.0519      196.46756      193.64527      52.304471    
     15800  -8104.6734      43.158861     -8061.5145      196.38287      193.51776      52.328719    
     15900  -8100.7249      41.750534     -8058.9744      196.3239       193.41522      52.352968    
     16000  -8099.2895      44.128266     -8055.1613      196.25832      193.30536      52.377217    
     16100  -8097.2818      44.783673     -8052.4982      196.17107      193.17658      52.401466    
     16200  -8095.3037      44.197275     -8051.1064      196.11376      193.07588      52.425714    
     16300  -8092.3156      42.307007     -8050.0086      196.03986      192.95919      52.449963    
     16400  -8091.4654      42.240834     -8049.2246      195.95564      192.83185      52.474212    
     16500  -8091.414       42.329726     -8049.0843      195.89867      192.73202      52.49846     
     16600  -8088.0299      41.611238     -8046.4186      195.82113      192.61317      52.522709    
     16700  -8083.598       41.640886     -8041.9572      195.73675      192.48666      52.546958    
     16800  -8082.5934      43.221346     -8039.3721      195.68012      192.38683      52.571207    
     16900  -8080.7856      43.278914     -8037.5067      195.60059      192.26543      52.595455    
     17000  -8079.3906      42.753243     -8036.6373      195.51594      192.1396       52.619704    
     17100  -8078.0866      40.942982     -8037.1436      195.45715      192.0404       52.643953    
     17200  -8075.8328      41.216645     -8034.6162      195.37441      191.91652      52.668201    
     17300  -8074.1056      43.210488     -8030.8952      195.29409      191.79647      52.69245     
     17400  -8071.3205      42.962626     -8028.3579      195.23471      191.69692      52.716699    
     17500  -8069.6626      43.615513     -8026.0471      195.14866      191.57147      52.740948    
     17600  -8066.4578      42.441151     -8024.0167      195.07332      191.45527      52.765196    
     17700  -8066.0999      42.787114     -8023.3128      195.00871      191.35104      52.789445    
     17800  -8066.0702      43.341846     -8022.7283      194.92438      191.22652      52.813694    
     17900  -8063.9566      43.536135     -8020.4205      194.8516       191.11446      52.837942    
     18000  -8059.2734      43.638752     -8015.6347      194.78422      191.00598      52.862191    
     18100  -8056.4252      43.4364       -8012.9888      194.70197      190.88255      52.88644     
     18200  -8055.9343      44.194225     -8011.7401      194.63127      190.77177      52.910688    
     18300  -8054.4659      43.19866      -8011.2672      194.56141      190.6604       52.934937    
     18400  -8052.9366      42.614472     -8010.3221      194.48318      190.53982      52.959186    
     18500  -8050.1835      41.240162     -8008.9433      194.41648      190.43012      52.983435    
     18600  -8047.2569      41.962656     -8005.2942      194.34549      190.31649      53.007683    
     18700  -8045.2218      44.184899     -8001.0369      194.26872      190.19597      53.031932    
     18800  -8040.6903      42.096139     -7998.5941      194.20904      190.09104      53.056181    
     18900  -8041.145       43.827776     -7997.3173      194.13523      189.97218      53.080429    
     19000  -8040.7639      43.411086     -7997.3528      194.06066      189.85307      53.104678    
     19100  -8038.1964      41.845553     -7996.3508      194.00265      189.74986      53.128927    
     19200  -8035.3563      43.462436     -7991.8939      193.92756      189.62946      53.153176    
     19300  -8032.9221      44.330757     -7988.5913      193.86117      189.51656      53.177424    
     19400  -8029.0894      42.568783     -7986.5206      193.80428      189.41304      53.201673    
     19500  -8028.37        43.270263     -7985.0997      193.72833      189.29215      53.225922    
     19600  -8027.5524      43.811889     -7983.7405      193.66428      189.18309      53.25017     
     19700  -8023.1593      41.023657     -7982.1356      193.60631      189.07858      53.274419    
     19800  -8022.6221      44.157566     -7978.4645      193.53309      188.96025      53.298668    
     19900  -8018.7685      44.386207     -7974.3823      193.47358      188.85645      53.322917    
     20000  -8016.5217      44.401935     -7972.1197      193.41281      188.75233      53.347165    
     20100  -8015.7398      43.677408     -7972.0624      193.33993      188.63637      53.371414    
     20200  -8014.2571      42.684985     -7971.5721      193.28243      188.53515      53.395663    
     20300  -8010.7278      41.884613     -7968.8432      193.22134      188.43415      53.419911    
     20400  -8006.7352      41.527146     -7965.2081      193.14852      188.3222       53.44416     
     20500  -8006.4964      44.544891     -7961.9515      193.09181      188.22566      53.468409    
     20600  -8003.0677      43.710126     -7959.3576      193.02914      188.12567      53.492658    
     20700  -8001.4496      43.40344      -7958.0462      192.95674      188.01759      53.516906    
     20800  -8000.0461      42.112916     -7957.9332      192.90249      187.92782      53.541155    
     20900  -7998.2128      42.416653     -7955.7962      192.83556      187.82828      53.565404    
     21000  -7994.8617      43.386658     -7951.475       192.76604      187.72662      53.589652    
     21100  -7991.2071      43.158989     -7948.0481      192.71182      187.64129      53.613901    
     21200  -7990.7125      44.694659     -7946.0178      192.64414      187.54592      53.63815     
     21300  -7987.6132      43.130769     -7944.4824      192.57519      187.44855      53.662399    
     21400  -7985.902       42.684439     -7943.2176      192.52083      187.36485      53.686647    
     21500  -7983.7825      41.336381     -7942.4461      192.45285      187.27063      53.710896    
     21600  -7983.5344      41.945249     -7941.5892      192.38389      187.17689      53.735145    
     21700  -7979.0092      41.631746     -7937.3774      192.33108      187.09808      53.759393    
     21800  -7975.3415      42.353598     -7932.9879      192.26416      187.00489      53.783642    
     21900  -7973.4422      43.397595     -7930.0446      192.19804      186.91405      53.807891    
     22000  -7970.9865      43.406651     -7927.5798      192.14498      186.83636      53.83214     
     22100  -7968.2212      42.25714      -7925.9641      192.0778       186.74486      53.856388    
     22200  -7967.4345      41.83458      -7925.6         192.01559      186.65918      53.880637    
     22300  -7964.468       40.644763     -7923.8232      191.96169      186.58061      53.904886    
     22400  -7962.1488      43.1445       -7919.0043      191.89674      186.49034      53.929134    
     22500  -7958.343       42.820192     -7915.5228      191.8383       186.40826      53.953383    
     22600  -7956.5757      43.011051     -7913.5646      191.78528      186.3302       53.977632    
     22700  -7955.1817      43.182589     -7911.9991      191.72245      186.24037      54.001881    
     22800  -7952.7683      41.65422      -7911.1141      191.66878      186.16123      54.026129    
     22900  -7951.0082      40.704012     -7910.3042      191.61521      186.08342      54.050378    
     23000  -7949.8371      43.680753     -7906.1564      191.55321      185.99527      54.074627    
     23100  -7945.8092      44.234396     -7901.5748      191.5048       185.91943      54.098875    
     23200  -7942.7054      43.941421     -7898.7639      191.45476      185.8414       54.123124    
     23300  -7939.8847      43.293157     -7896.5915      191.39495      185.75342      54.147373    
     23400  -7939.4002      43.650252     -7895.7499      191.34904      185.67935      54.171621    
     23500  -7936.8828      42.191417     -7894.6914      191.29733      185.59766      54.19587     
     23600  -7933.7392      42.852291     -7890.8869      191.24297      185.5122       54.220119    
     23700  -7930.1424      44.232655     -7885.9098      191.20256      185.44118      54.244368    
     23800  -7928.588       45.124364     -7883.4636      191.14999      185.35877      54.268616    
     23900  -7925.7997      43.50437      -7882.2953      191.09817      185.27474      54.292865    
     24000  -7923.5225      42.034479     -7881.488       191.06001      185.20387      54.317114    
     24100  -7921.0556      41.659885     -7879.3957      191.00916      185.12068      54.341362    
     24200  -7917.743       44.255002     -7873.488       190.9604       185.04055      54.365611    
     24300  -7914.0833      43.682428     -7870.4009      190.92567      184.97208      54.38986     
     24400  -7911.8045      42.679764     -7869.1247      190.8714       184.88558      54.414109    
     24500  -7909.7816      41.454668     -7868.3269      190.82533      184.80739      54.438357    
     24600  -7910.4012      44.097896     -7866.3033      190.79133      184.74115      54.462606    
     24700  -7905.3994      43.817726     -7861.5817      190.73844      184.65707      54.486855    
     24800  -7902.8251      45.554749     -7857.2703      190.69529      184.58389      54.511103    
     24900  -7899.1786      43.537833     -7855.6408      190.6594       184.51766      54.535352    
     25000  -7897.8331      43.200401     -7854.6327      190.60616      184.43543      54.559601    
     25100  -7895.8475      42.899294     -7852.9482      190.56434      184.36553      54.58385     
     25200  -7891.9993      41.623064     -7850.3763      190.5279       184.30151      54.608098    
     25300  -7890.208       45.201591     -7845.0064      190.4738       184.22195      54.632347    
     25400  -7885.3966      43.864538     -7841.532       190.4324       184.15538      54.656596    
     25500  -7883.7924      43.200836     -7840.5915      190.39427      184.09346      54.680844    
     25600  -7881.7671      42.002677     -7839.7644      190.34145      184.01735      54.705093    
     25700  -7880.7324      43.32691      -7837.4055      190.30087      183.95495      54.729342    
     25800  -7876.3753      42.276921     -7834.0984      190.26064      183.89481      54.753591    
     25900  -7873.7688      44.136691     -7829.6321      190.20682      183.82107      54.777839    
     26000  -7869.0525      45.034757     -7824.0177      190.16712      183.76252      54.802088    
     26100  -7867.3818      45.900716     -7821.4811      190.12416      183.70374      54.826337    
     26200  -7864.7411      42.974822     -7821.7663      190.06777      183.63291      54.850585    
     26300  -7863.9852      43.733609     -7820.2516      190.02851      183.57665      54.874834    
     26400  -7862.5396      43.653258     -7818.8863      189.9818       183.5181       54.899083    
     26500  -7858.5627      41.817014     -7816.7457      189.92691      183.45161      54.923332    
     26600  -7856.7718      43.834712     -7812.9371      189.88689      183.39835      54.94758     
     26700  -7852.7314      44.336803     -7808.3946      189.84167      183.34056      54.971829    
     26800  -7849.0808      43.530294     -7805.5505      189.78744      183.27696      54.996078    
     26900  -7847.9874      42.752316     -7805.2351      189.74523      183.22397      55.020326    
     27000  -7846.9664      42.704596     -7804.2618      189.69773      183.16585      55.044575    
     27100  -7844.4113      43.625683     -7800.7856      189.64708      183.10425      55.068824    
     27200  -7839.7812      43.291331     -7796.4899      189.60661      183.05424      55.093073    
     27300  -7838.5794      46.00791      -7792.5715      189.55732      182.99531      55.117321    
     27400  -7834.1476      44.29438      -7789.8533      189.50917      182.93519      55.14157     
     27500  -7830.8085      40.670709     -7790.1378      189.47073      182.88459      55.165819    
     27600  -7830.7496      42.477598     -7788.272       189.42092      182.82472      55.190067    
     27700  -7827.855       43.646148     -7784.2089      189.37645      182.76889      55.214316    
     27800  -7823.9521      43.91268      -7780.0394      189.33984      182.71826      55.238565    
     27900  -7819.9089      43.086762     -7776.8222      189.28938      182.65366      55.262814    
     28000  -7819.7184      45.388316     -7774.3301      189.2482       182.59802      55.287062    
     28100  -7815.0153      42.944281     -7772.071       189.21188      182.5479       55.311311    
     28200  -7813.1427      43.021427     -7770.1213      189.16519      182.48153      55.33556     
     28300  -7811.8847      42.180616     -7769.704       189.12717      182.42587      55.359808    
     28400  -7808.6368      42.036041     -7766.6007      189.09219      182.37289      55.384057    
     28500  -7804.7668      43.387184     -7761.3797      189.0458       182.30744      55.408306    
     28600  -7799.3391      41.797478     -7757.5416      189.01362      182.25393      55.432554    
     28700  -7797.0769      42.531022     -7754.5459      188.98112      182.19926      55.456803    
     28800  -7796.1998      43.553308     -7752.6465      188.93486      182.13047      55.481052    
     28900  -7794.5938      42.394723     -7752.199       188.90415      182.07664      55.505301    
     29000  -7791.3103      41.607048     -7749.7032      188.87188      182.01952      55.529549    
     29100  -7788.2236      43.269943     -7744.9537      188.82944      181.95144      55.553798    
     29200  -7785.4069      44.069345     -7741.3376      188.80241      181.8991       55.578047    
     29300  -7781.0551      42.683104     -7738.372       188.77039      181.84191      55.602295    
     29400  -7779.6075      44.101179     -7735.5064      188.72838      181.77358      55.626544    
     29500  -7776.1118      42.622792     -7733.489       188.70125      181.72037      55.650793    
     29600  -7774.0519      41.981981     -7732.07        188.67051      181.66236      55.675042    
     29700  -7770.9136      41.462074     -7729.4515      188.63036      181.59601      55.69929     
     29800  -7768.2179      43.841884     -7724.376       188.60314      181.5429       55.723539    
     29900  -7766.2751      46.167343     -7720.1077      188.57006      181.48478      55.747788    
     30000  -7760.867       43.205142     -7717.6619      188.53054      181.4188       55.772036    
     30100  -7759.9589      43.878322     -7716.0806      188.50372      181.36674      55.796285    
     30200  -7756.6768      42.694313     -7713.9825      188.4695       181.30903      55.820534    
     30300  -7752.8313      41.844691     -7710.9866      188.42961      181.24644      55.844783    
     30400  -7751.6288      43.774638     -7707.8542      188.40278      181.19598      55.869031    
     30500  -7747.8207      43.556202     -7704.2645      188.36594      181.13727      55.89328     
     30600  -7742.8845      42.511447     -7700.3731      188.32582      181.07795      55.917529    
     30700  -7740.3706      43.615838     -7696.7548      188.29965      181.03169      55.941777    
     30800  -7739.1866      44.47011      -7694.7165      188.25871      180.9729       55.966026    
     30900  -7736.7744      42.501597     -7694.2728      188.21751      180.91479      55.990275    
     31000  -7734.4069      42.552493     -7691.8544      188.18706      180.86858      56.014524    
     31100  -7731.3757      43.972068     -7687.4036      188.14457      180.8134       56.038772    
     31200  -7728.4659      45.487558     -7682.9784      188.10401      180.75913      56.063021    
     31300  -7724.7427      44.453786     -7680.289       188.07436      180.71628      56.08727     
     31400  -7722.8662      44.669548     -7678.1967      188.02831      180.66206      56.111518    
     31500  -7719.2161      43.290454     -7675.9256      187.98344      180.6088       56.135767    
     31600  -7717.6114      43.457432     -7674.1539      187.95462      180.56857      56.160016    
     31700  -7714.458       41.587546     -7672.8705      187.90777      180.51486      56.184265    
     31800  -7711.4545      42.445239     -7669.0093      187.86233      180.46464      56.208513    
     31900  -7706.2953      42.724299     -7663.571       187.83033      180.42575      56.232762    
     32000  -7704.6498      44.715094     -7659.9347      187.78164      180.37046      56.257011    
     32100  -7701.2606      43.918365     -7657.3422      187.73637      180.3207       56.281259    
     32200  -7698.2128      42.437139     -7655.7757      187.70283      180.28316      56.305508    
     32300  -7696.4432      41.444106     -7654.9991      187.6558       180.23153      56.329757    
     32400  -7694.8525      43.148405     -7651.7041      187.61047      180.1802       56.354006    
     32500  -7690.7075      45.050739     -7645.6567      187.57606      180.14184      56.378254    
     32600  -7685.6636      43.42006      -7642.2436      187.52901      180.09081      56.402503    
     32700  -7683.7076      44.035277     -7639.6723      187.48334      180.03924      56.426752    
     32800  -7680.4787      42.474184     -7638.0045      187.45035      179.99941      56.451       
     32900  -7677.8052      41.897941     -7635.9073      187.40277      179.94728      56.475249    
     33000  -7675.0895      43.078763     -7632.0108      187.35732      179.89626      56.499498    
     33100  -7670.6481      44.156477     -7626.4916      187.3253       179.85509      56.523747    
     33200  -7667.3052      44.150377     -7623.1548      187.27887      179.80184      56.547995    
     33300  -7664.544       42.822457     -7621.7216      187.23504      179.75117      56.572244    
     33400  -7663.203       42.862069     -7620.3409      187.20288      179.71034      56.596493    
     33500  -7659.5831      42.446973     -7617.1362      187.15659      179.65312      56.620741    
     33600  -7656.147       42.77937      -7613.3677      187.116        179.60157      56.64499     
     33700  -7652.2099      42.729298     -7609.4806      187.08457      179.5583       56.669239    
     33800  -7650.445       45.574827     -7604.8701      187.04136      179.50119      56.693487    
     33900  -7645.1508      45.582473     -7599.5684      187.00353      179.4474       56.717736    
     34000  -7644.0345      45.826192     -7598.2083      186.97366      179.40151      56.741985    
     34100  -7641.5923      44.050291     -7597.542       186.93178      179.34167      56.766234    
     34200  -7638.5234      43.210994     -7595.3124      186.89386      179.28592      56.790482    
     34300  -7636.1262      43.262512     -7592.8637      186.86924      179.24154      56.814731    
     34400  -7631.9555      42.88964      -7589.0658      186.82729      179.17988      56.83898     
     34500  -7627.5458      43.683641     -7583.8621      186.79202      179.12317      56.863228    
     34600  -7624.4382      43.942792     -7580.4954      186.76631      179.07746      56.887477    
     34700  -7623.568       43.701778     -7579.8663      186.72391      179.01354      56.911726    
     34800  -7621.4692      42.824465     -7578.6447      186.68999      178.95755      56.935975    
     34900  -7617.8066      43.04584      -7574.7608      186.66294      178.90842      56.960223    
     35000  -7612.9312      42.984747     -7569.9465      186.62246      178.84651      56.984472    
     35100  -7609.8616      43.613846     -7566.2478      186.58883      178.78865      57.008721    
     35200  -7607.0233      43.563189     -7563.4601      186.55994      178.73774      57.032969    
     35300  -7606.0213      42.91778      -7563.1035      186.52138      178.67771      57.057218    
     35400  -7602.0995      41.047171     -7561.0523      186.48747      178.6197       57.081467    
     35500  -7598.9351      42.596346     -7556.3387      186.46095      178.56992      57.105716    
     35600  -7596.146       44.506449     -7551.6396      186.41836      178.50756      57.129964    
     35700  -7592.5599      44.220769     -7548.3391      186.38288      178.45165      57.154213    
     35800  -7588.2524      42.541242     -7545.7111      186.35395      178.40146      57.178462    
     35900  -7584.9589      41.839439     -7543.1195      186.31094      178.33936      57.20271     
     36000  -7582.929       41.775138     -7541.1539      186.2771       178.28793      57.226959    
     36100  -7579.6637      41.480055     -7538.1836      186.24261      178.23686      57.251208    
     36200  -7575.6896      42.586108     -7533.1035      186.19935      178.17615      57.275457    
     36300  -7571.9065      43.351294     -7528.5552      186.16309      178.12421      57.299705    
     36400  -7568.0395      42.281712     -7525.7578      186.13036      178.07693      57.323954    
     36500  -7568.0029      43.758182     -7524.2448      186.08663      178.01895      57.348203    
     36600  -7565.6164      42.881734     -7522.7346      186.04827      177.96583      57.372451    
     36700  -7562.9913      42.188824     -7520.8025      186.01408      177.91922      57.3967      
     36800  -7560.4008      42.696805     -7517.704       185.96577      177.85959      57.420949    
     36900  -7555.551       43.47974      -7512.0713      185.92814      177.80973      57.445198    
     37000  -7549.7593      42.547632     -7507.2117      185.89359      177.76453      57.469446    
     37100  -7546.981       43.609851     -7503.3712      185.84378      177.70655      57.493695    
     37200  -7544.6881      43.004454     -7501.6836      185.8035       177.65718      57.517944    
     37300  -7542.449       42.028678     -7500.4204      185.76514      177.60907      57.542192    
     37400  -7540.4427      43.350274     -7497.0924      185.71767      177.55425      57.566441    
     37500  -7536.7853      44.039772     -7492.7455      185.67562      177.50558      57.59069     
     37600  -7534.3867      45.119874     -7489.2668      185.6389       177.46043      57.614939    
     37700  -7529.0421      42.959848     -7486.0823      185.59033      177.40438      57.639187    
     37800  -7527.4658      44.441844     -7483.0239      185.5461       177.354        57.663436    
     37900  -7523.1015      43.048023     -7480.0534      185.50728      177.30881      57.687685    
     38000  -7520.9593      44.271739     -7476.6876      185.45813      177.25254      57.711933    
     38100  -7515.1494      42.0974       -7473.052       185.41648      177.2035       57.736182    
     38200  -7513.047       43.648911     -7469.3981      185.37626      177.15682      57.760431    
     38300  -7508.6886      42.49759      -7466.191       185.3274       177.10068      57.78468     
     38400  -7506.7178      42.421821     -7464.296       185.28383      177.04968      57.808928    
     38500  -7504.6349      42.003585     -7462.6313      185.24303      177.00147      57.833177    
     38600  -7502.2479      42.964737     -7459.2832      185.19703      176.94814      57.857426    
     38700  -7497.8259      44.595481     -7453.2304      185.15366      176.89615      57.881674    
     38800  -7493.3529      43.839583     -7449.5134      185.11249      176.84699      57.905923    
     38900  -7490.8971      43.496628     -7447.4005      185.06497      176.79157      57.930172    
     39000  -7489.4954      43.740704     -7445.7547      185.02155      176.73827      57.95442     
     39100  -7486.1109      42.908684     -7443.2022      184.98201      176.68809      57.978669    
     39200  -7480.6333      43.448257     -7437.1851      184.93566      176.63147      58.002918    
     39300  -7478.0132      45.275018     -7432.7382      184.89496      176.58027      58.027167    
     39400  -7475.2144      44.3397       -7430.8747      184.85377      176.52602      58.051415    
     39500  -7472.318       42.686157     -7429.6319      184.80723      176.46749      58.075664    
     39600  -7469.7145      42.854287     -7426.8602      184.767        176.41427      58.099913    
     39700  -7465.1151      42.623729     -7422.4914      184.72654      176.36105      58.124161    
     39800  -7460.7967      44.297041     -7416.4997      184.68235      176.30398      58.14841     
     39900  -7457.476       43.881982     -7413.594       184.64088      176.2493       58.172659    
     40000  -7455.134       43.226645     -7411.9074      184.59966      176.19269      58.196908    
     40100  -7453.0902      43.291302     -7409.7989      184.55395      176.13169      58.221156    
     40200  -7450.7638      43.457733     -7407.3061      184.51507      176.07847      58.245405    
     40300  -7446.6588      42.320964     -7404.3379      184.47528      176.02321      58.269654    
     40400  -7442.5284      42.94593      -7399.5825      184.42881      175.95992      58.293902    
     40500  -7438.3418      43.526526     -7394.8153      184.39096      175.9072       58.318151    
     40600  -7436.5597      44.789496     -7391.7702      184.34811      175.84938      58.3424      
     40700  -7433.9317      43.042041     -7390.8897      184.30021      175.7863       58.366649    
     40800  -7431.0662      42.293966     -7388.7722      184.26325      175.73371      58.390897    
     40900  -7427.7709      43.032054     -7384.7389      184.22171      175.67689      58.415146    
     41000  -7423.0915      42.557234     -7380.5343      184.17383      175.61318      58.439395    
     41100  -7420.7214      43.942525     -7376.7788      184.13326      175.5562       58.463643    
     41200  -7417.2582      43.849304     -7373.4089      184.09415      175.49931      58.487892    
     41300  -7414.4494      44.254241     -7370.1951      184.04565      175.43606      58.512141    
     41400  -7410.2907      43.147367     -7367.1433      184.00546      175.37787      58.53639     
     41500  -7407.2633      43.094159     -7364.1691      183.96819      175.32316      58.560638    
     41600  -7403.6593      42.988512     -7360.6708      183.91687      175.25753      58.584887    
     41700  -7400.4579      43.6786       -7356.7793      183.87408      175.19947      58.609136    
     41800  -7396.7388      43.872799     -7352.866       183.83607      175.14374      58.633384    
     41900  -7394.0206      44.216656     -7349.8039      183.78505      175.07826      58.657633    
     42000  -7390.4817      42.04231      -7348.4394      183.74351      175.02138      58.681882    
     42100  -7388.1654      41.757148     -7346.4083      183.70326      174.96457      58.706131    
     42200  -7384.9578      42.738125     -7342.2197      183.65313      174.89826      58.730379    
     42300  -7381.7168      45.800373     -7335.9164      183.61002      174.84011      58.754628    
     42400  -7377.797       45.127545     -7332.6694      183.56979      174.78456      58.778877    
     42500  -7375.1855      44.299534     -7330.886       183.51881      174.71755      58.803125    
     42600  -7372.4502      43.353976     -7329.0963      183.4745       174.65916      58.827374    
     42700  -7368.8393      42.777064     -7326.0622      183.43443      174.60478      58.851623    
     42800  -7365.13        44.355125     -7320.7748      183.38146      174.53648      58.875872    
     42900  -7360.6945      45.303535     -7315.391       183.3362       174.47712      58.90012     
     43000  -7356.4442      43.401601     -7313.0426      183.29687      174.42342      58.924369    
     43100  -7354.2615      42.788502     -7311.473       183.24315      174.35504      58.948618    
     43200  -7352.2753      42.927397     -7309.3479      183.19735      174.29569      58.972866    
     43300  -7348.5805      42.447438     -7306.1331      183.15553      174.24117      58.997115    
     43400  -7344.8996      44.069444     -7300.8302      183.10204      174.17411      59.021364    
     43500  -7340.1817      44.682017     -7295.4997      183.05444      174.11402      59.045613    
     43600  -7336.5926      43.052731     -7293.5398      183.01313      174.06002      59.069861    
     43700  -7336.4317      44.39374      -7292.038       182.96072      173.99496      59.09411     
     43800  -7332.002       42.710379     -7289.2917      182.90996      173.93273      59.118359    
     43900  -7330.0301      44.18605      -7285.844       182.86781      173.87869      59.142607    
     44000  -7324.9701      43.99848      -7280.9716      182.81515      173.81414      59.166856    
     44100  -7321.058       45.698269     -7275.3598      182.76273      173.74955      59.191105    
     44200  -7317.5279      44.176846     -7273.3511      182.72167      173.69748      59.215353    
     44300  -7316.8872      45.283138     -7271.604       182.66891      173.63316      59.239602    
     44400  -7312.6005      43.740933     -7268.8596      182.61542      173.56832      59.263851    
     44500  -7308.7708      42.67926      -7266.0916      182.57192      173.5138       59.2881      
     44600  -7305.1473      42.713204     -7262.4341      182.51985      173.45071      59.312348    
     44700  -7300.767       43.538233     -7257.2287      182.4668       173.38716      59.336597    
     44800  -7297.5164      44.694177     -7252.8223      182.42185      173.33072      59.360846    
     44900  -7294.7937      43.41717      -7251.3765      182.37058      173.26895      59.385094    
     45000  -7293.0257      42.920752     -7250.105       182.31507      173.20313      59.409343    
     45100  -7290.0707      43.693001     -7246.3777      182.26829      173.14481      59.433592    
     45200  -7284.5666      42.617331     -7241.9492      182.21795      173.08477      59.457841    
     45300  -7282.5778      45.339004     -7237.2388      182.1614       173.01866      59.482089    
     45400  -7279.0713      46.128622     -7232.9427      182.11391      172.9606       59.506338    
     45500  -7274.0194      43.333051     -7230.6863      182.06346      172.89922      59.530587    
     45600  -7273.2105      43.374454     -7229.8361      182.00735      172.83252      59.554835    
     45700  -7269.2097      42.1374       -7227.0723      181.95771      172.77356      59.579084    
     45800  -7266.2232      43.956012     -7222.2672      181.906        172.71117      59.603333    
     45900  -7260.7531      43.584072     -7217.169       181.85177      172.64614      59.627582    
     46000  -7258.1494      44.02879      -7214.1206      181.80179      172.58711      59.65183     
     46100  -7255.1993      43.624704     -7211.5746      181.74707      172.52299      59.676079    
     46200  -7252.9059      44.275618     -7208.6302      181.69252      172.45841      59.700328    
     46300  -7249.5863      43.828425     -7205.7579      181.64194      172.39831      59.724576    
     46400  -7245.6052      43.039205     -7202.566       181.58673      172.33425      59.748825    
     46500  -7242.8216      44.601555     -7198.2201      181.5325       172.26931      59.773074    
     46600  -7238.1336      44.694267     -7193.4394      181.48377      172.20979      59.797323    
     46700  -7235.1804      44.484181     -7190.6963      181.42736      172.1444       59.821571    
     46800  -7231.8493      42.265756     -7189.5836      181.37018      172.07615      59.84582     
     46900  -7229.6787      42.793653     -7186.8851      181.32257      172.01705      59.870069    
     47000  -7226.9423      44.098212     -7182.8441      181.26766      171.95161      59.894317    
     47100  -7221.7283      43.193588     -7178.5347      181.20816      171.88193      59.918566    
     47200  -7218.7139      43.728811     -7174.9851      181.16301      171.82446      59.942815    
     47300  -7216.3041      44.609813     -7171.6943      181.10746      171.75871      59.967064    
     47400  -7211.9666      43.157171     -7168.8095      181.04723      171.68706      59.991312    
     47500  -7208.1839      41.773897     -7166.41        181.00028      171.62697      60.015561    
     47600  -7207.2899      42.630845     -7164.659       180.94642      171.56217      60.03981     
     47700  -7202.2383      41.899617     -7160.3387      180.88768      171.49221      60.064058    
     47800  -7199.2206      44.910613     -7154.31        180.84096      171.43102      60.088307    
     47900  -7195.0418      44.525043     -7150.5167      180.78725      171.36358      60.112556    
     48000  -7190.9279      43.249012     -7147.6789      180.72744      171.29125      60.136805    
     48100  -7189.3896      43.057063     -7146.3325      180.67884      171.22922      60.161053    
     48200  -7185.7089      41.426439     -7144.2825      180.62985      171.16462      60.185302    
     48300  -7183.4789      43.788418     -7139.6905      180.56895      171.09038      60.209551    
     48400  -7178.2099      42.790505     -7135.4194      180.52117      171.02723      60.233799    
     48500  -7174.5565      43.282567     -7131.2739      180.47355      170.96227      60.258048    
     48600  -7170.3239      43.268482     -7127.0554      180.41361      170.88619      60.282297    
     48700  -7166.1038      42.74337      -7123.3605      180.36277      170.81983      60.306546    
     48800  -7164.3595      43.13944      -7121.2201      180.31748      170.75541      60.330794    
     48900  -7162.0751      42.396375     -7119.6787      180.26027      170.68257      60.355043    
     49000  -7159.7969      43.273623     -7116.5233      180.20805      170.6141       60.379292    
     49100  -7153.2896      42.602425     -7110.6872      180.16263      170.54999      60.40354     
     49200  -7150.3026      44.171228     -7106.1314      180.10595      170.47531      60.427789    
     49300  -7146.5603      43.157056     -7103.4032      180.05151      170.40366      60.452038    
     49400  -7144.8455      43.581994     -7101.2635      180.00786      170.33989      60.476286    
     49500  -7141.0966      42.590859     -7098.5057      179.95563      170.26869      60.500535    
     49600  -7137.2289      42.73174      -7094.4972      179.89996      170.19621      60.524784    
     49700  -7133.65        45.580334     -7088.0696      179.85363      170.13002      60.549033    
     49800  -7130.1447      45.656874     -7084.4878      179.80112      170.05736      60.573281    
     49900  -7126.9439      43.59914      -7083.3447      179.74511      169.9853       60.59753     
     50000  -7124.2267      43.319086     -7080.9076      179.69902      169.92069      60.621779    
     50100  -7120.8819      43.240891     -7077.6411      179.64891      169.85067      60.646027    
     50200  -7118.0356      44.203966     -7073.8317      179.5919       169.77775      60.670276    
     50300  -7113.7208      44.172755     -7069.548       179.54269      169.71264      60.694525    
     50400  -7109.9216      44.294063     -7065.6275      179.49209      169.64381      60.718774    
     50500  -7106.4053      42.984315     -7063.421       179.43589      169.57077      60.743022    
     50600  -7104.7861      43.247681     -7061.5384      179.38293      169.50614      60.767271    
     50700  -7100.2377      41.731317     -7058.5064      179.3355       169.44209      60.79152     
     50800  -7096.3448      43.499625     -7052.8452      179.27826      169.36863      60.815768    
     50900  -7091.7239      44.300187     -7047.4237      179.22283      169.30318      60.840017    
     51000  -7088.7103      43.580968     -7045.1293      179.17154      169.23972      60.864266    
     51100  -7085.7072      42.333684     -7043.3735      179.11684      169.16981      60.888515    
     51200  -7084.6572      44.391554     -7040.2657      179.06299      169.10669      60.912763    
     51300  -7078.6552      42.409197     -7036.246       179.01043      169.04364      60.937012    
     51400  -7075.6102      44.16647      -7031.4438      178.95482      168.97684      60.961261    
     51500  -7071.3371      45.852394     -7025.4847      178.90187      168.91358      60.985509    
     51600  -7067.0067      44.158636     -7022.848       178.84216      168.84802      61.009758    
     51700  -7065.221       43.300274     -7021.9207      178.78836      168.7835       61.034007    
     51800  -7062.465       43.310851     -7019.1542      178.7376       168.72355      61.058256    
     51900  -7060.2516      43.869763     -7016.3818      178.67773      168.65909      61.082504    
     52000  -7055.9622      42.797057     -7013.1651      178.62532      168.59889      61.106753    
     52100  -7052.9027      44.401686     -7008.501       178.57162      168.5378       61.131002    
     52200  -7046.7444      43.661388     -7003.083       178.5104       168.47387      61.15525     
     52300  -7044.0191      44.099107     -6999.92        178.45621      168.41268      61.179499    
     52400  -7043.4184      44.217778     -6999.2007      178.4035       168.35337      61.203748    
     52500  -7038.1677      42.206537     -6995.9612      178.3484       168.29556      61.227997    
     52600  -7035.1593      43.285943     -6991.8734      178.29263      168.23343      61.252245    
     52700  -7030.9448      43.552908     -6987.3919      178.23875      168.17384      61.276494    
     52800  -7026.914       44.836331     -6982.0777      178.18392      168.11703      61.300743    
     52900  -7022.3887      44.811245     -6977.5775      178.12483      168.05329      61.324991    
     53000  -7020.5811      43.593235     -6976.9879      178.07363      167.99633      61.34924     
     53100  -7016.3047      41.778607     -6974.5261      178.0214       167.94082      61.373489    
     53200  -7014.3518      43.18336      -6971.1684      177.96329      167.88043      61.397738    
     53300  -7011.2157      43.124919     -6968.0908      177.91282      167.82438      61.421986    
     53400  -7006.5831      41.532725     -6965.0504      177.86013      167.76471      61.446235    
     53500  -7003.9024      43.371993     -6960.5304      177.80213      167.7052       61.470484    
     53600  -7000.0143      44.724092     -6955.2902      177.75383      167.6502       61.494732    
     53700  -6995.4712      44.097546     -6951.3736      177.70269      167.58959      61.518981    
     53800  -6994.2482      43.82859      -6950.4196      177.65009      167.53427      61.54323     
     53900  -6990.2288      42.271888     -6947.957       177.60202      167.4794       61.567478    
     54000  -6986.8687      43.193359     -6943.6754      177.55068      167.41825      61.591727    
     54100  -6981.7307      42.674669     -6939.056       177.49808      167.35893      61.615976    
     54200  -6979.0826      45.164359     -6933.9182      177.45067      167.3045       61.640225    
     54300  -6975.6996      45.913989     -6929.7856      177.4035       167.24715      61.664473    
     54400  -6971.722       43.091983     -6928.63        177.35599      167.18785      61.688722    
     54500  -6969.6295      43.071927     -6926.5575      177.31146      167.13308      61.712971    
     54600  -6965.7053      42.530617     -6923.1747      177.26534      167.07629      61.737219    
     54700  -6961.0308      42.30834      -6918.7225      177.21577      167.01341      61.761468    
     54800  -6957.1384      44.332029     -6912.8064      177.17553      166.95955      61.785717    
     54900  -6953.821       44.888577     -6908.9324      177.12978      166.90171      61.809966    
     55000  -6951.4322      43.074967     -6908.3573      177.08077      166.8401       61.834214    
     55100  -6948.1696      42.713618     -6905.456       177.04438      166.78832      61.858463    
     55200  -6944.9163      42.991947     -6901.9244      177.00182      166.73087      61.882712    
     55300  -6940.3151      42.540675     -6897.7744      176.9516       166.66721      61.90696     
     55400  -6935.943       42.89667      -6893.0463      176.91227      166.61285      61.931209    
     55500  -6932.5616      43.736715     -6888.8248      176.87717      166.55993      61.955458    
     55600  -6930.5257      43.336143     -6887.1895      176.83164      166.50034      61.979707    
     55700  -6929.3073      44.338102     -6884.9692      176.79013      166.44439      62.003955    
     55800  -6923.3515      42.038838     -6881.3127      176.75613      166.39238      62.028204    
     55900  -6919.8297      43.294612     -6876.5351      176.71415      166.33481      62.052453    
     56000  -6915.7183      45.731412     -6869.9869      176.66795      166.27565      62.076701    
     56100  -6910.5059      44.161515     -6866.3444      176.63442      166.22597      62.10095     
     56200  -6909.0799      44.177684     -6864.9022      176.59917      166.17287      62.125199    
     56300  -6905.612       43.323744     -6862.2882      176.55358      166.11515      62.149448    
     56400  -6903.6371      43.867448     -6859.7696      176.51973      166.0658       62.173696    
     56500  -6899.9021      42.816198     -6857.0859      176.48377      166.0135       62.197945    
     56600  -6895.5456      42.617564     -6852.9281      176.44019      165.95636      62.222194    
     56700  -6891.4102      44.586472     -6846.8238      176.40414      165.90769      62.246442    
     56800  -6887.0372      44.627566     -6842.4096      176.36954      165.85814      62.270691    
     56900  -6884.4772      43.633811     -6840.8434      176.3306       165.8064       62.29494     
     57000  -6880.0307      41.770081     -6838.2606      176.29292      165.75842      62.319189    
     57100  -6877.0991      42.246738     -6834.8523      176.25616      165.7103       62.343437    
     57200  -6874.7784      43.448993     -6831.3294      176.21692      165.65901      62.367686    
     57300  -6870.1347      42.495238     -6827.6395      176.18121      165.61333      62.391935    
     57400  -6868.4389      44.359701     -6824.0792      176.14183      165.56667      62.416183    
     57500  -6864.3069      43.618766     -6820.6881      176.10458      165.51869      62.440432    
     57600  -6861.506       44.120252     -6817.3857      176.06994      165.47501      62.464681    
     57700  -6857.0503      42.635146     -6814.4151      176.03144      165.43117      62.48893     
     57800  -6853.5997      42.479541     -6811.1201      175.98948      165.38498      62.513178    
     57900  -6849.835       43.938931     -6805.896       175.95448      165.34294      62.537427    
     58000  -6844.0936      43.675011     -6800.4185      175.91735      165.30202      62.561676    
     58100  -6840.9297      43.93668      -6796.993       175.87425      165.25859      62.585924    
     58200  -6838.9559      42.850466     -6796.1054      175.84072      165.22023      62.610173    
     58300  -6835.5628      42.762259     -6792.8005      175.80579      165.18131      62.634422    
     58400  -6831.8497      43.104641     -6788.7451      175.76076      165.13899      62.658671    
     58500  -6827.4924      43.692642     -6783.7997      175.72372      165.09918      62.682919    
     58600  -6821.8559      43.243971     -6778.6119      175.68998      165.06308      62.707168    
     58700  -6819.6769      44.032522     -6775.6444      175.64833      165.02306      62.731417    
     58800  -6818.0711      43.730191     -6774.3409      175.6114       164.98691      62.755665    
     58900  -6813.5994      42.557702     -6771.0416      175.57739      164.95286      62.779914    
     59000  -6810.9944      43.55656      -6767.4378      175.53671      164.91389      62.804163    
     59100  -6806.6074      43.514852     -6763.0926      175.49464      164.87534      62.828411    
     59200  -6802.524       44.869891     -6757.6541      175.46413      164.84606      62.85266     
     59300  -6798.9316      45.552282     -6753.3793      175.42307      164.80708      62.876909    
     59400  -6795.9473      43.969102     -6751.9782      175.38401      164.77178      62.901158    
     59500  -6791.8743      42.741087     -6749.1332      175.35433      164.74309      62.925406    
     59600  -6788.3262      42.89178      -6745.4344      175.31587      164.70677      62.949655    
     59700  -6785.7804      44.005821     -6741.7746      175.27386      164.66897      62.973904    
     59800  -6781.267       42.765113     -6738.5019      175.2443       164.6428       62.998152    
     59900  -6778.3894      43.074        -6735.3154      175.20795      164.60667      63.022401    
     60000  -6774.8725      43.812362     -6731.0601      175.1684       164.56972      63.04665     
     60100  -6770.498       44.803395     -6725.6946      175.13718      164.5413       63.070899    
     60200  -6763.7358      42.983709     -6720.7521      175.10413      164.50911      63.095147    
     60300  -6762.0685      43.530732     -6718.5377      175.06603      164.47083      63.119396    
     60400  -6759.7378      43.089238     -6716.6485      175.0362       164.44178      63.143645    
     60500  -6755.1473      42.408364     -6712.7389      175.0056       164.41148      63.167893    
     60600  -6751.4427      43.505352     -6707.9374      174.96923      164.37447      63.192142    
     60700  -6745.7935      43.788765     -6702.0047      174.93952      164.34227      63.216391    
     60800  -6743.1131      46.288316     -6696.8248      174.91118      164.31163      63.24064     
     60900  -6739.2798      43.485033     -6695.7947      174.87731      164.27709      63.264888    
     61000  -6736.7136      43.561017     -6693.1525      174.84662      164.24203      63.289137    
     61100  -6732.8123      42.848391     -6689.9639      174.82374      164.21346      63.313386    
     61200  -6729.9499      43.101184     -6686.8487      174.7896       164.17526      63.337634    
     61300  -6726.3186      43.011138     -6683.3074      174.76084      164.14223      63.361883    
     61400  -6722.5111      44.162156     -6678.349       174.73919      164.11316      63.386132    
     61500  -6716.4533      43.826889     -6672.6264      174.70697      164.07178      63.410381    
     61600  -6712.2387      43.950936     -6668.2878      174.67945      164.03786      63.434629    
     61700  -6710.7189      43.778291     -6666.9406      174.65856      164.00959      63.458878    
     61800  -6706.0651      41.948764     -6664.1164      174.63123      163.97017      63.483127    
     61900  -6703.1807      43.407955     -6659.7728      174.6058       163.93485      63.507375    
     62000  -6699.4457      45.087605     -6654.3581      174.58488      163.90572      63.531624    
     62100  -6694.4207      44.495948     -6649.9247      174.55933      163.86956      63.555873    
     62200  -6690.2703      42.220137     -6648.0501      174.53486      163.83226      63.580122    
     62300  -6689.2587      44.120226     -6645.1385      174.51482      163.80107      63.60437     
     62400  -6683.253       42.245756     -6641.0073      174.48959      163.76504      63.628619    
     62500  -6680.8725      44.622342     -6636.2502      174.46398      163.72759      63.652868    
     62600  -6674.4825      44.677445     -6629.8051      174.44788      163.69736      63.677116    
     62700  -6670.2621      45.053953     -6625.2081      174.42445      163.66125      63.701365    
     62800  -6667.8765      44.114668     -6623.7618      174.39888      163.62561      63.725614    
     62900  -6664.5085      44.039602     -6620.4689      174.38122      163.59566      63.749863    
     63000  -6660.0078      42.884557     -6617.1233      174.35794      163.55902      63.774111    
     63100  -6656.8359      42.827296     -6614.0086      174.33355      163.52429      63.79836     
     63200  -6653.5573      43.256661     -6610.3006      174.31565      163.49546      63.822609    
     63300  -6649.2967      42.192625     -6607.1041      174.29119      163.46067      63.846857    
     63400  -6646.2002      42.579554     -6603.6206      174.26879      163.42632      63.871106    
     63500  -6641.6859      44.184023     -6597.5019      174.24888      163.39608      63.895355    
     63600  -6635.4221      44.495082     -6590.927       174.22228      163.3619       63.919604    
     63700  -6632.0608      44.964437     -6587.0964      174.20019      163.33046      63.943852    
     63800  -6628.0227      43.748563     -6584.2741      174.17997      163.30092      63.968101    
     63900  -6624.6015      43.837059     -6580.7645      174.15525      163.26933      63.99235     
     64000  -6618.6422      41.899249     -6576.743       174.13198      163.24154      64.016598    
     64100  -6617.4035      44.729518     -6572.674       174.10693      163.21076      64.040847    
     64200  -6613.628       43.911689     -6569.7163      174.08397      163.18185      64.065096    
     64300  -6608.8791      41.577707     -6567.3014      174.06161      163.15547      64.089344    
     64400  -6605.4845      43.130075     -6562.3544      174.03418      163.12599      64.113593    
     64500  -6600.5079      44.22827      -6556.2797      174.00887      163.09818      64.137842    
     64600  -6595.2433      43.74486      -6551.4985      173.98711      163.07388      64.162091    
     64700  -6590.8356      43.236205     -6547.5994      173.95737      163.04263      64.186339    
     64800  -6587.8503      43.741768     -6544.1085      173.93334      163.01829      64.210588    
     64900  -6583.7665      42.737454     -6541.029       173.90889      162.99427      64.234837    
     65000  -6580.3648      42.27417      -6538.0907      173.87833      162.96448      64.259085    
     65100  -6577.4452      42.68802      -6534.7571      173.8568       162.94248      64.283334    
     65200  -6572.3188      42.865108     -6529.4537      173.83104      162.91884      64.307583    
     65300  -6565.5822      43.382119     -6522.2001      173.79802      162.8899       64.331832    
     65400  -6560.2368      43.455974     -6516.7808      173.77623      162.86957      64.35608     
     65500  -6557.7324      44.187619     -6513.5447      173.74867      162.84455      64.380329    
     65600  -6553.7056      43.235921     -6510.4697      173.71509      162.81574      64.404578    
     65700  -6548.6642      42.952865     -6505.7114      173.69451      162.79956      64.428826    
     65800  -6544.2769      43.208571     -6501.0684      173.66536      162.7743       64.453075    
     65900  -6540.6623      43.546681     -6497.1156      173.63411      162.74525      64.477324    
     66000  -6536.6052      41.587089     -6495.0181      173.61411      162.72889      64.501573    
     66100  -6533.7001      43.085826     -6490.6143      173.58251      162.70415      64.525821    
     66200  -6526.672       42.052016     -6484.62        173.55041      162.67683      64.55007     
     66300  -6522.7185      44.144277     -6478.5742      173.53166      162.65966      64.574319    
     66400  -6515.6969      41.90785      -6473.7891      173.49945      162.63085      64.598567    
     66500  -6514.8176      44.276523     -6470.541       173.47029      162.6071       64.622816    
     66600  -6511.1698      42.45424      -6468.7155      173.45094      162.59184      64.647065    
     66700  -6506.8528      43.357156     -6463.4956      173.41733      162.56123      64.671314    
     66800  -6500.7804      44.116445     -6456.6639      173.39219      162.5366       64.695562    
     66900  -6494.8211      44.185011     -6450.6361      173.37215      162.51916      64.719811    
     67000  -6491.1186      44.786612     -6446.3319      173.33717      162.48836      64.74406     
     67100  -6487.2439      43.638879     -6443.605       173.31574      162.46729      64.768308    
     67200  -6481.6392      42.588889     -6439.0503      173.29485      162.44602      64.792557    
     67300  -6477.7012      43.343167     -6434.3581      173.26198      162.41515      64.816806    
     67400  -6473.5419      43.688075     -6429.8538      173.24003      162.39488      64.841055    
     67500  -6470.816       43.812355     -6427.0037      173.21752      162.37182      64.865303    
     67600  -6464.1552      41.230099     -6422.9251      173.18762      162.34102      64.889552    
     67700  -6459.3443      43.080592     -6416.2637      173.16568      162.31775      64.913801    
     67800  -6453.4608      44.172839     -6409.288       173.14263      162.29402      64.938049    
     67900  -6447.2354      43.253638     -6403.9818      173.11326      162.2631       64.962298    
     68000  -6445.0175      42.37035      -6402.6472      173.0939       162.24103      64.986547    
     68100  -6440.665       43.315034     -6397.35        173.07156      162.21523      65.010796    
     68200  -6436.6864      44.6234       -6392.063       173.04351      162.18473      65.035044    
     68300  -6429.9701      42.833362     -6387.1367      173.02382      162.16135      65.059293    
     68400  -6427.4107      45.015892     -6382.3948      173.00085      162.13297      65.083542    
     68500  -6422.5958      43.982055     -6378.6138      172.97583      162.10367      65.10779     
     68600  -6416.862       42.810276     -6374.0517      172.95481      162.07818      65.132039    
     68700  -6410.365       42.384757     -6367.9802      172.93193      162.04923      65.156288    
     68800  -6404.9966      43.688207     -6361.3084      172.90991      162.02052      65.180537    
     68900  -6400.5451      45.316692     -6355.2284      172.88611      161.99078      65.204785    
     69000  -6394.4989      42.895587     -6351.6033      172.86417      161.96332      65.229034    
     69100  -6388.7451      41.468755     -6347.2764      172.84418      161.93729      65.253283    
     69200  -6386.0047      43.717708     -6342.287       172.81786      161.90462      65.277531    
     69300  -6380.5323      43.107438     -6337.4249      172.79809      161.87785      65.30178     
     69400  -6376.5994      43.767204     -6332.8322      172.77815      161.8526       65.326029    
     69500  -6371.1166      43.704558     -6327.412       172.75006      161.81832      65.350277    
     69600  -6365.798       44.487115     -6321.3109      172.73036      161.79139      65.374526    
     69700  -6360.2422      43.939561     -6316.3026      172.71         161.76471      65.398775    
     69800  -6354.8158      43.018337     -6311.7974      172.68222      161.73096      65.423024    
     69900  -6350.2912      44.600625     -6305.6906      172.66131      161.70424      65.447272    
     70000  -6343.7478      42.894635     -6300.8532      172.64153      161.67751      65.471521    
     70100  -6339.6447      43.931867     -6295.7128      172.61381      161.64409      65.49577     
     70200  -6334.858       44.906366     -6289.9516      172.59089      161.61544      65.520018    
     70300  -6328.7258      43.432407     -6285.2934      172.57052      161.5896       65.544267    
     70400  -6325.3803      45.215844     -6280.1645      172.5416       161.55507      65.568516    
     70500  -6318.5822      43.917726     -6274.6645      172.5202       161.52746      65.592765    
     70600  -6314.5382      45.007116     -6269.5311      172.49818      161.50012      65.617013    
     70700  -6306.6863      42.808033     -6263.8783      172.47008      161.46742      65.641262    
     70800  -6303.3899      45.008098     -6258.3818      172.44748      161.43925      65.665511    
     70900  -6297.8642      44.841497     -6253.0227      172.42339      161.41044      65.689759    
     71000  -6293.7192      45.867649     -6247.8516      172.39602      161.37875      65.714008    
     71100  -6286.2276      43.360209     -6242.8674      172.37098      161.34981      65.738257    
     71200  -6281.9505      44.488513     -6237.462       172.34552      161.32008      65.762506    
     71300  -6275.4272      43.68069      -6231.7466      172.32034      161.29113      65.786754    
     71400  -6270.3743      44.447949     -6225.9263      172.29322      161.26088      65.811003    
     71500  -6265.5558      45.530848     -6220.025       172.26627      161.23049      65.835252    
     71600  -6259.7501      44.852766     -6214.8974      172.24098      161.20118      65.8595      
     71700  -6255.0511      45.960786     -6209.0903      172.21336      161.17082      65.883749    
     71800  -6247.4215      44.333362     -6203.0881      172.18512      161.13976      65.907998    
     71900  -6242.3318      44.999004     -6197.3328      172.15875      161.10996      65.932247    
     72000  -6237.66        45.835854     -6191.8241      172.13296      161.08093      65.956495    
     72100  -6231.163       45.236626     -6185.9264      172.10203      161.04868      65.980744    
     72200  -6225.9863      44.42011      -6181.5662      172.07548      161.01976      66.004993    
     72300  -6219.717       43.283896     -6176.4331      172.04849      160.9901       66.029241    
     72400  -6215.8967      44.565605     -6171.3311      172.01552      160.95567      66.05349     
     72500  -6209.6365      43.822948     -6165.8136      171.98822      160.9276       66.077739    
     72600  -6202.268       43.877186     -6158.3908      171.96018      160.89823      66.101988    
     72700  -6198.2556      45.661366     -6152.5942      171.92696      160.86308      66.126236    
     72800  -6191.5828      44.850513     -6146.7322      171.89964      160.8346       66.150485    
     72900  -6186.3824      45.066637     -6141.3157      171.8699       160.80495      66.174734    
     73000  -6181.2642      44.991301     -6136.2729      171.83592      160.77019      66.198982    
     73100  -6176.6792      45.318416     -6131.3608      171.80647      160.7388       66.223231    
     73200  -6169.4419      44.23259      -6125.2093      171.77693      160.7093       66.24748     
     73300  -6163.2924      44.492557     -6118.7998      171.74117      160.67428      66.271729    
     73400  -6157.0856      44.630811     -6112.4547      171.71014      160.64285      66.295977    
     73500  -6151.8359      45.772653     -6106.0633      171.68145      160.61352      66.320226    
     73600  -6142.3395      43.797784     -6098.5418      171.64388      160.5762       66.344475    
     73700  -6138.8435      46.120075     -6092.7234      171.61199      160.54539      66.368723    
     73800  -6135.3254      47.932256     -6087.3931      171.58085      160.51416      66.392972    
     73900  -6128.2628      46.919965     -6081.3428      171.54331      160.47666      66.417221    
     74000  -6120.7288      45.437376     -6075.2915      171.51155      160.44513      66.44147     
     74100  -6114.5776      45.223551     -6069.354       171.47826      160.41247      66.465718    
     74200  -6109.5739      45.488002     -6064.0859      171.44047      160.37527      66.489967    
     74300  -6103.3846      44.882914     -6058.5017      171.40835      160.34281      66.514216    
     74400  -6096.9551      45.124144     -6051.831       171.37357      160.30871      66.538464    
     74500  -6091.4024      45.592185     -6045.8102      171.33511      160.27148      66.562713    
     74600  -6084.3444      45.897521     -6038.4469      171.3009       160.23736      66.586962    
     74700  -6077.8123      45.317152     -6032.4952      171.26543      160.20197      66.61121     
     74800  -6071.4419      46.780314     -6024.6616      171.22646      160.1639       66.635459    
     74900  -6066.7378      49.300396     -6017.4374      171.19122      160.12895      66.659708    
     75000  -6059.2893      48.161267     -6011.1281      171.154        160.09151      66.683957    
     75100  -6050.6691      46.345547     -6004.3235      171.11453      160.05213      66.708205    
     75200  -6044.6109      46.053755     -5998.5571      171.07883      160.01669      66.732454    
     75300  -6040.7733      49.464014     -5991.3093      171.04         159.97793      66.756703    
     75400  -6034.2414      48.945464     -5985.2959      170.99973      159.93714      66.780951    
     75500  -6027.2365      48.544315     -5978.6922      170.96305      159.90029      66.8052      
     75600  -6019.2549      46.342        -5972.9129      170.92326      159.86007      66.829449    
     75700  -6012.9358      47.862289     -5965.0735      170.88225      159.81859      66.853698    
     75800  -6007.0413      48.569692     -5958.4716      170.84396      159.77939      66.877946    
     75900  -5999.0671      48.647893     -5950.4192      170.80336      159.73808      66.902195    
     76000  -5993.1156      49.033572     -5944.082       170.76098      159.69517      66.926444    
     76100  -5987.9405      48.509264     -5939.4312      170.72169      159.65483      66.950692    
     76200  -5982.2614      47.876274     -5934.3851      170.68012      159.61191      66.974941    
     76300  -5974.1645      45.19289      -5928.9716      170.63656      159.56776      66.99919     
     76400  -5969.7372      49.76277      -5919.9745      170.59511      159.52543      67.023439    
     76500  -5963.9305      51.914162     -5912.0164      170.55191      159.48069      67.047687    
     76600  -5952.3754      49.184896     -5903.1905      170.50819      159.43533      67.071936    
     76700  -5945.5558      47.745379     -5897.8104      170.46502      159.39136      67.096185    
     76800  -5942.5832      51.729575     -5890.8536      170.42074      159.34588      67.120433    
     76900  -5932.0317      48.799463     -5883.2323      170.37553      159.29885      67.144682    
     77000  -5925.4816      50.267076     -5875.2145      170.33077      159.25273      67.168931    
     77100  -5920.3667      50.502733     -5869.864       170.28432      159.20514      67.19318     
     77200  -5913.0718      49.813704     -5863.2581      170.23766      159.15694      67.217428    
     77300  -5908.4506      51.660113     -5856.7905      170.1915       159.1089       67.241677    
     77400  -5898.1691      51.366192     -5846.8029      170.14372      159.05977      67.265926    
     77500  -5892.6308      51.158232     -5841.4725      170.09517      159.00955      67.290174    
     77600  -5885.9692      52.330521     -5833.6386      170.04799      158.96061      67.314423    
     77700  -5877.7202      50.919134     -5826.801       169.99907      158.90952      67.338672    
     77800  -5871.0749      51.270089     -5819.8048      169.94733      158.85635      67.362921    
     77900  -5864.1654      50.46954      -5813.6959      169.89799      158.80526      67.387169    
     78000  -5859.775       51.633624     -5808.1414      169.84782      158.75312      67.411418    
     78100  -5848.0201      47.896779     -5800.1233      169.79484      158.69835      67.435667    
     78200  -5844.9783      54.217445     -5790.7608      169.74323      158.64511      67.459915    
     78300  -5834.0002      52.398351     -5781.6018      169.69113      158.59101      67.484164    
     78400  -5825.9891      52.932406     -5773.0567      169.63671      158.53484      67.508413    
     78500  -5817.7435      54.149401     -5763.5941      169.58336      158.47974      67.532662    
     78600  -5811.953       52.276155     -5759.6768      169.52852      158.42328      67.55691     
     78700  -5802.4962      52.168013     -5750.3282      169.4725       158.36522      67.581159    
     78800  -5803.4563      62.246272     -5741.21        169.41728      158.30811      67.605408    
     78900  -5910.8741      151.13187     -5759.7423      169.36302      158.2504       67.629656    
     79000  -6370.4194      354.66088     -6015.7585      169.33692      158.20634      67.653905    
     79100  -6931.7932      381.93959     -6549.8536      169.32236      158.16809      67.678154    
     79200  -7463.3187      336.00887     -7127.3098      169.29457      158.12448      67.702403    
     79300  -7786.2214      212.12667     -7574.0947      169.3357       158.15725      67.726651    
     79400  -7870.8545      101.06265     -7769.7919      169.40417      158.19024      67.7509      
     79500  -7915.2711      64.931435     -7850.3397      169.40628      158.14586      67.775149    
     79600  -7937.0965      47.098241     -7889.9983      169.39177      158.12296      67.799397    
     79700  -7948.4856      40.008818     -7908.4767      169.40778      158.14098      67.823646    
     79800  -7951.1804      36.159787     -7915.0206      169.42878      158.16091      67.847895    
     79900  -7947.6631      37.328577     -7910.3345      169.44232      158.16622      67.872143    
     80000  -7942.1548      45.301883     -7896.8529      169.45001      158.16157      67.896392    
     80100  -7939.6796      51.70495      -7887.9746      169.44545      158.16334      67.920641    
     80200  -7940.2919      45.597017     -7894.6948      169.44427      158.16536      67.94489     
     80300  -7947.1535      41.611466     -7905.542       169.47186      158.17325      67.969138    
     80400  -7950.5208      39.083516     -7911.4373      169.50677      158.17533      67.993387    
     80500  -7950.0755      40.961254     -7909.1143      169.53547      158.16789      68.017636    
     80600  -7944.5497      42.85193      -7901.6978      169.57762      158.16356      68.041884    
     80700  -7942.1265      47.820522     -7894.306       169.62728      158.1552       68.066133    
     80800  -7944.0987      49.133047     -7894.9656      169.70471      158.15662      68.090382    
     80900  -7945.5509      42.168047     -7903.3829      169.77358      158.14268      68.114631    
     81000  -7949.8168      40.746081     -7909.0707      169.81647      158.12701      68.138879    
     81100  -7948.9212      39.618587     -7909.3026      169.8496       158.11299      68.163128    
     81200  -7944.2519      41.455145     -7902.7968      169.88794      158.10804      68.187377    
     81300  -7932.8585      50.593639     -7882.2649      169.9463       158.11115      68.211625    
     81400  -7934.9794      48.239528     -7886.7398      169.9822       158.10393      68.235874    
     81500  -7938.3389      40.936264     -7897.4027      170.00709      158.09434      68.260123    
     81600  -7943.1021      38.872832     -7904.2293      170.03312      158.08829      68.284372    
     81700  -7943.3514      39.906811     -7903.4446      170.05606      158.07866      68.30862     
     81800  -7939.848       43.176477     -7896.6716      170.07332      158.07275      68.332869    
     81900  -7934.8278      45.757341     -7889.0705      170.08217      158.08005      68.357118    
     82000  -7934.9638      47.538568     -7887.4252      170.0756       158.09199      68.381366    
     82100  -7938.059       43.502224     -7894.5568      170.07208      158.10648      68.405615    
     82200  -7942.4865      41.587157     -7900.8994      170.07185      158.11957      68.429864    
     82300  -7941.6023      39.819821     -7901.7825      170.07225      158.13429      68.454113    
     82400  -7940.1485      43.647346     -7896.5011      170.07339      158.13626      68.478361    
     82500  -7935.3807      45.518949     -7889.8617      170.08422      158.13431      68.50261     
     82600  -7936.291       46.240192     -7890.0508      170.0965       158.12803      68.526859    
     82700  -7939.3744      43.043904     -7896.3305      170.1167       158.12195      68.551107    
     82800  -7945.0339      42.865278     -7902.1686      170.13027      158.10853      68.575356    
     82900  -7945.5617      40.525186     -7905.0365      170.16351      158.10294      68.599605    
     83000  -7944.7335      41.734708     -7902.9988      170.18449      158.08618      68.623854    
     83100  -7942.6286      44.773613     -7897.855       170.20203      158.05705      68.648102    
     83200  -7940.8242      45.905563     -7894.9186      170.23223      158.03721      68.672351    
     83300  -7942.921       45.123527     -7897.7974      170.26779      158.01053      68.6966      
     83400  -7944.1503      41.817353     -7902.3329      170.31473      157.98103      68.720848    
     83500  -7943.9913      41.514663     -7902.4766      170.36008      157.94276      68.745097    
     83600  -7943.8926      44.32376      -7899.5689      170.401        157.90544      68.769346    
     83700  -7939.8652      43.680825     -7896.1844      170.44835      157.87472      68.793595    
     83800  -7942.5106      46.851155     -7895.6594      170.50587      157.84889      68.817843    
     83900  -7942.4407      42.955855     -7899.4849      170.55466      157.81519      68.842092    
     84000  -7942.7276      40.270959     -7902.4567      170.58668      157.77548      68.866341    
     84100  -7942.3913      40.855933     -7901.5354      170.62442      157.7425       68.890589    
     84200  -7940.9239      43.482228     -7897.4417      170.67369      157.70252      68.914838    
     84300  -7939.6131      45.727275     -7893.8858      170.72465      157.65711      68.939087    
     84400  -7937.4215      42.919322     -7894.5022      170.77501      157.61374      68.963336    
     84500  -7939.8541      42.448956     -7897.4051      170.82274      157.57373      68.987584    
     84600  -7941.6583      42.215645     -7899.4427      170.88789      157.54115      69.011833    
     84700  -7941.9788      42.872468     -7899.1064      170.9572       157.50748      69.036082    
     84800  -7940.9156      43.579106     -7897.3365      171.0177       157.48149      69.06033     
     84900  -7939.3929      44.550152     -7894.8428      171.07597      157.46304      69.084579    
     85000  -7937.3158      44.142233     -7893.1735      171.12328      157.44619      69.108828    
     85100  -7937.742       44.833312     -7892.9086      171.17145      157.42876      69.133076    
     85200  -7938.959       43.996686     -7894.9623      171.21576      157.41289      69.157325    
     85300  -7942.6601      44.950799     -7897.7093      171.25374      157.39905      69.181574    
     85400  -7942.7337      43.206144     -7899.5276      171.28962      157.40064      69.205823    
     85500  -7940.287       41.315052     -7898.9719      171.3044       157.4012       69.230071    
     85600  -7939.8087      43.452361     -7896.3564      171.32303      157.4056       69.25432     
     85700  -7938.7697      44.827811     -7893.9419      171.33886      157.40554      69.278569    
     85800  -7938.0684      43.65526      -7894.4132      171.367        157.41554      69.302817    
     85900  -7940.2719      43.276044     -7896.9958      171.39528      157.42241      69.327066    
     86000  -7940.6061      42.268078     -7898.338       171.42494      157.42643      69.351315    
     86100  -7940.5288      42.889086     -7897.6397      171.46744      157.43499      69.375564    
     86200  -7938.4798      43.846563     -7894.6332      171.50099      157.43347      69.399812    
     86300  -7936.8679      45.00369      -7891.8642      171.53618      157.43459      69.424061    
     86400  -7936.0864      43.941833     -7892.1445      171.58485      157.43668      69.44831     
     86500  -7937.8425      42.934852     -7894.9076      171.61911      157.42017      69.472558    
     86600  -7938.9985      42.329869     -7896.6686      171.66419      157.41557      69.496807    
     86700  -7936.5094      41.083294     -7895.4261      171.70617      157.40055      69.521056    
     86800  -7935.5827      43.180739     -7892.402       171.76303      157.37833      69.545305    
     86900  -7935.2337      45.44208      -7889.7917      171.82774      157.35035      69.569553    
     87000  -7933.4442      44.100604     -7889.3436      171.88597      157.3099       69.593802    
     87100  -7935.4651      44.383417     -7891.0817      171.94806      157.28003      69.618051    
     87200  -7936.248       42.597857     -7893.6501      172.00676      157.24469      69.642299    
     87300  -7936.627       41.853208     -7894.7738      172.06534      157.20411      69.666548    
     87400  -7936.2085      42.384702     -7893.8238      172.13438      157.17505      69.690797    
     87500  -7935.1477      44.109731     -7891.038       172.19653      157.1363       69.715046    
     87600  -7934.2246      45.376118     -7888.8485      172.25486      157.08975      69.739294    
     87700  -7934.3305      44.615244     -7889.7153      172.33572      157.04677      69.763543    
     87800  -7936.7702      44.543794     -7892.2264      172.41867      156.99272      69.787792    
     87900  -7937.6207      43.369801     -7894.2509      172.49734      156.93371      69.81204     
     88000  -7936.2623      42.635304     -7893.627       172.58131      156.87651      69.836289    
     88100  -7936.4033      45.333306     -7891.07        172.66461      156.82027      69.860538    
     88200  -7934.0071      44.312691     -7889.6944      172.74104      156.76541      69.884787    
     88300  -7935.2662      44.041383     -7891.2248      172.82372      156.71155      69.909035    
     88400  -7935.7517      41.89198      -7893.8597      172.90587      156.6512       69.933284    
     88500  -7936.4278      42.301218     -7894.1266      172.99632      156.59523      69.957533    
     88600  -7932.8065      41.825911     -7890.9806      173.0763       156.53257      69.981781    
     88700  -7931.9212      44.643222     -7887.2779      173.16112      156.47516      70.00603     
     88800  -7931.053       45.150626     -7885.9024      173.24921      156.42382      70.030279    
     88900  -7932.1486      44.697392     -7887.4512      173.32293      156.36311      70.054528    
     89000  -7932.0131      42.498083     -7889.515       173.40932      156.31043      70.078776    
     89100  -7932.8677      42.400228     -7890.4675      173.49326      156.26609      70.103025    
     89200  -7932.5225      42.246736     -7890.2758      173.56404      156.21452      70.127274    
     89300  -7930.3539      41.98529      -7888.3687      173.64548      156.17534      70.151522    
     89400  -7932.1449      46.22181      -7885.923       173.70784      156.12584      70.175771    
     89500  -7930.5846      44.741869     -7885.8427      173.78094      156.08354      70.20002     
     89600  -7929.5204      41.902533     -7887.6178      173.85393      156.04315      70.224269    
     89700  -7931.6365      43.178225     -7888.4583      173.9238       156.00515      70.248517    
     89800  -7931.3848      43.343563     -7888.0413      174.00317      155.97425      70.272766    
     89900  -7930.6772      43.557299     -7887.1199      174.07578      155.93897      70.297015    
     90000  -7930.3488      43.340749     -7887.0081      174.15308      155.90528      70.321263    
     90100  -7931.0947      43.373043     -7887.7217      174.23759      155.87755      70.345512    
     90200  -7931.9162      43.436        -7888.4802      174.30998      155.83338      70.369761    
     90300  -7931.3742      42.716054     -7888.6581      174.39895      155.80241      70.394009    
     90400  -7930.6306      42.845857     -7887.7848      174.47951      155.76145      70.418258    
     90500  -7930.2133      43.617862     -7886.5955      174.56567      155.7198       70.442507    
     90600  -7928.3793      43.561522     -7884.8177      174.65281      155.68704      70.466756    
     90700  -7929.0501      45.182841     -7883.8672      174.72606      155.63673      70.491004    
     90800  -7932.0553      45.197655     -7886.8576      174.81736      155.59114      70.515253    
     90900  -7933.3112      42.579742     -7890.7314      174.91591      155.54271      70.539502    
     91000  -7934.213       41.404832     -7892.8082      175.00528      155.4757       70.56375     
     91100  -7933.8465      41.804135     -7892.0423      175.10817      155.4198       70.587999    
     91200  -7933.014       44.265112     -7888.7489      175.20329      155.35478      70.612248    
     91300  -7930.2407      45.229171     -7885.0116      175.30569      155.29148      70.636497    
     91400  -7928.5603      45.002891     -7883.5574      175.41292      155.22683      70.660745    
     91500  -7929.3299      44.212914     -7885.1169      175.51574      155.16446      70.684994    
     91600  -7930.8844      43.023953     -7887.8604      175.61739      155.09985      70.709243    
     91700  -7931.5963      41.844075     -7889.7523      175.72974      155.03619      70.733491    
     91800  -7931.6938      42.573372     -7889.1204      175.84876      154.96834      70.75774     
     91900  -7929.5148      43.117231     -7886.3975      175.96245      154.8939       70.781989    
     92000  -7930.4814      46.470316     -7884.0111      176.0856       154.83082      70.806238    
     92100  -7928.3833      44.065196     -7884.3182      176.19278      154.76353      70.830486    
     92200  -7928.8233      42.337649     -7886.4857      176.29469      154.69534      70.854735    
     92300  -7931.0067      42.796786     -7888.2099      176.42216      154.6354       70.878984    
     92400  -7929.2663      41.17403      -7888.0923      176.53409      154.56962      70.903232    
     92500  -7928.3961      43.18917      -7885.207       176.6222       154.49567      70.927481    
     92600  -7927.1499      45.411658     -7881.7382      176.71742      154.43337      70.95173     
     92700  -7926.3783      45.486666     -7880.8917      176.81241      154.36662      70.975979    
     92800  -7927.0554      42.866746     -7884.1887      176.91151      154.30558      71.000227    
     92900  -7930.1327      42.17041      -7887.9623      177.00146      154.24851      71.024476    
     93000  -7930.8014      42.352186     -7888.4492      177.07501      154.18329      71.048725    
     93100  -7928.0587      42.511877     -7885.5468      177.16509      154.12482      71.072973    
     93200  -7925.3228      44.273913     -7881.0489      177.2538       154.06158      71.097222    
     93300  -7923.2824      44.769728     -7878.5127      177.33616      154.0009       71.121471    
     93400  -7923.9837      44.127727     -7879.8559      177.4176       153.95245      71.14572     
     93500  -7924.8128      41.412205     -7883.4006      177.49855      153.9102       71.169968    
     93600  -7927.9496      42.258142     -7885.6914      177.58643      153.8671       71.194217    
     93700  -7926.9978      41.422997     -7885.5748      177.6834       153.82375      71.218466    
     93800  -7926.2072      43.779922     -7882.4273      177.7718       153.77621      71.242714    
     93900  -7922.7751      44.273354     -7878.5017      177.85988      153.73226      71.266963    
     94000  -7923.4661      45.273693     -7878.1925      177.9447       153.67902      71.291212    
     94100  -7926.0216      45.525541     -7880.4961      178.0366       153.62744      71.315461    
     94200  -7925.2784      42.165517     -7883.1129      178.13237      153.57363      71.339709    
     94300  -7925.1861      41.616606     -7883.5695      178.22465      153.51817      71.363958    
     94400  -7924.6382      43.120591     -7881.5176      178.32213      153.46151      71.388207    
     94500  -7922.6823      44.232558     -7878.4498      178.4234       153.39684      71.412455    
     94600  -7923.8193      46.280482     -7877.5388      178.52814      153.33194      71.436704    
     94700  -7924.0304      44.464519     -7879.5659      178.62884      153.26934      71.460953    
     94800  -7924.6012      42.428194     -7882.173       178.72491      153.20648      71.485202    
     94900  -7924.2802      41.014378     -7883.2658      178.82903      153.14604      71.50945     
     95000  -7922.0293      41.251482     -7880.7778      178.92972      153.07971      71.533699    
     95100  -7921.8107      45.3759       -7876.4348      179.03961      153.01153      71.557948    
     95200  -7920.0355      45.825192     -7874.2103      179.14561      152.93993      71.582196    
     95300  -7921.0593      45.012923     -7876.0464      179.24396      152.86467      71.606445    
     95400  -7920.502       41.362298     -7879.1397      179.35178      152.79624      71.630694    
     95500  -7922.4996      41.726136     -7880.7734      179.45341      152.72174      71.654942    
     95600  -7922.643       43.183027     -7879.46        179.55543      152.65648      71.679191    
     95700  -7919.4156      43.561135     -7875.8545      179.65892      152.59765      71.70344     
     95800  -7918.3405      45.605253     -7872.7353      179.74789      152.53362      71.727689    
     95900  -7918.4636      45.850341     -7872.6132      179.83954      152.48098      71.751937    
     96000  -7918.6062      43.192333     -7875.4139      179.92702      152.42732      71.776186    
     96100  -7919.3967      41.505983     -7877.8907      180.00842      152.37754      71.800435    
     96200  -7919.5782      41.183959     -7878.3942      180.08738      152.33039      71.824683    
     96300  -7918.7913      42.788237     -7876.0031      180.15612      152.2757       71.848932    
     96400  -7918.2809      45.438293     -7872.8426      180.23212      152.22477      71.873181    
     96500  -7917.4837      45.116042     -7872.3676      180.30462      152.18023      71.89743     
     96600  -7919.0174      43.891785     -7875.1256      180.35849      152.13181      71.921678    
     96700  -7919.2153      41.405948     -7877.8094      180.41982      152.08875      71.945927    
     96800  -7920.3549      42.18037      -7878.1745      180.47603      152.04282      71.970176    
     96900  -7917.9705      42.228333     -7875.7422      180.53765      151.99991      71.994424    
     97000  -7917.174       45.420908     -7871.7531      180.60632      151.96259      72.018673    
     97100  -7915.3003      45.686304     -7869.614       180.66621      151.91611      72.042922    
     97200  -7916.1376      44.742011     -7871.3956      180.73233      151.87528      72.067171    
     97300  -7918.2983      43.007595     -7875.2907      180.80174      151.83701      72.091419    
     97400  -7918.7051      41.244552     -7877.4605      180.87472      151.79746      72.115668    
     97500  -7918.3624      42.917348     -7875.445       180.945        151.75156      72.139917    
     97600  -7913.8196      43.827631     -7869.992       181.01683      151.70423      72.164165    
     97700  -7914.3673      46.030002     -7868.3373      181.08525      151.65462      72.188414    
     97800  -7915.5462      43.025992     -7872.5202      181.14857      151.59961      72.212663    
     97900  -7920.297       42.801102     -7877.4959      181.2178       151.54863      72.236912    
     98000  -7921.2239      41.909046     -7879.3149      181.2895       151.50219      72.26116     
     98100  -7919.1866      42.656054     -7876.5305      181.35669      151.45332      72.285409    
     98200  -7915.7422      44.204241     -7871.5379      181.42738      151.40388      72.309658    
     98300  -7914.235       44.965768     -7869.2692      181.50272      151.35236      72.333906    
     98400  -7915.4596      44.10736      -7871.3522      181.57561      151.29632      72.358155    
     98500  -7917.4344      41.826069     -7875.6084      181.64313      151.24095      72.382404    
     98600  -7918.0691      40.603692     -7877.4655      181.70835      151.18844      72.406653    
     98700  -7917.2859      41.894613     -7875.3913      181.77831      151.1406       72.430901    
     98800  -7914.703       43.990698     -7870.7123      181.85036      151.09101      72.45515     
     98900  -7912.917       44.979754     -7867.9372      181.91967      151.03933      72.479399    
     99000  -7912.2833      42.845862     -7869.4375      181.99227      150.98796      72.503647    
     99100  -7915.6322      42.365552     -7873.2667      182.07112      150.93983      72.527896    
     99200  -7916.2529      40.426197     -7875.8267      182.14502      150.88988      72.552145    
     99300  -7916.3364      41.571952     -7874.7645      182.2114       150.84334      72.576394    
     99400  -7913.9663      43.84008      -7870.1263      182.27598      150.79944      72.600642    
     99500  -7911.2385      45.045427     -7866.193       182.32705      150.7544       72.624891    
     99600  -7913.134       47.033287     -7866.1007      182.38392      150.71707      72.64914     
     99700  -7913.3377      43.840678     -7869.4971      182.43439      150.6744       72.673388    
     99800  -7915.3635      42.376992     -7872.9865      182.49013      150.63361      72.697637    
     99900  -7914.5351      41.115866     -7873.4193      182.5477       150.59113      72.721886    
    100000  -7912.9758      42.847958     -7870.1278      182.58581      150.53989      72.746134    
Loop time of 1042.68 on 12 procs for 100000 steps with 1120 atoms

Performance: 8.286 ns/day, 2.896 hours/ns, 95.907 timesteps/s, 107.416 katom-step/s
99.0% CPU use with 12 MPI tasks x 1 OpenMP threads

MPI task timing breakdown:
Section |  min time  |  avg time  |  max time  |%varavg| %total
---------------------------------------------------------------
Pair    | 0.22364    | 167.34     | 1005.4     |2888.3 | 16.05
Neigh   | 0.0021001  | 0.34308    | 2.0589     | 130.1 |  0.03
Comm    | 0.089426   | 3.264      | 21.451     | 395.1 |  0.31
Output  | 0.28569    | 0.29887    | 0.31805    |   1.8 |  0.03
Modify  | 17.448     | 869.31     | 1039.7     |1291.8 | 83.37
Other   |            | 2.122      |            |       |  0.20

Nlocal:        93.3333 ave         565 max           0 min
Histogram: 10 0 0 0 0 0 0 0 0 2
Nghost:        172.667 ave        1041 max           0 min
Histogram: 10 0 0 0 0 0 0 0 0 2
Neighs:              0 ave           0 max           0 min
Histogram: 12 0 0 0 0 0 0 0 0 0

Total # of neighbors = 0
Ave neighs/atom = 0
Neighbor list builds = 288
Dangerous builds = 0
Total wall time: 0:17:22
