LAMMPS (2 Aug 2023 - Update 3)
OMP_NUM_THREADS environment is not set. Defaulting to 1 thread. (src/comm.cpp:98)
  using 1 OpenMP thread(s) per MPI task

# 1------general---------------
units                             metal      #单位为lammps 中的metel 类型
dimension                    3          #模拟的维度 三维
boundary                    p p p      #周期边界条件
atom_style                  atomic   #原子类型自动
atom_modify              map array sort 100 2.0
neighbor                    3.0 bin
neigh_modify            every 1 delay 0 check yes
#2 -----global variable-------定义全局变量，方便统一修改；
variable temperature equal 300
variable tstep equal 0.001
variable pressure equal 0
variable thermalstep equal 100
variable dumpstep equal 1000
variable relaxtime equal 0
variable totaltime equal 100000
variable deformrate equal 5e-3
#3 -------model------------
#box tilt large
read_data     1.lmp
Reading data file ...
  orthogonal box = (-100 -100 -2.3312515) to (100 100 46.166171)
  4 by 8 by 1 MPI processor grid
  reading atoms ...
  1480 atoms
  read_data CPU = 0.005 seconds
replicate 1 1 5
Replication is creating a 1x1x5 = 5 times larger system...
  orthogonal box = (-100 -100 -2.3312515) to (100 100 240.15586)
  2 by 4 by 4 MPI processor grid
  7400 atoms
  replicate CPU = 0.001 seconds
write_data z.data
System init for write_data ...
WARNING: Communication cutoff is 0.0. No ghost atoms will be generated. Atoms may get lost. (src/comm_brick.cpp:210)
pair_style hybrid airebo 3.0 airebo 3.0 airebo 3.0 lj/cut 10
pair_coeff * * airebo 1 CH.airebo C NULL NULL
Reading airebo potential file CH.airebo with DATE: 2011-10-25
pair_coeff * * airebo 2 CH.airebo NULL C NULL
Reading airebo potential file CH.airebo with DATE: 2011-10-25
pair_coeff * * airebo 3 CH.airebo NULL NULL C
Reading airebo potential file CH.airebo with DATE: 2011-10-25
pair_coeff 1 2 lj/cut 0.00456 3.431
pair_coeff 1 3 lj/cut 0.00456 3.431
pair_coeff 2 3 lj/cut 0.00456 3.431

# 5------minimize -----------
min_style      sd
minimize       1.0e-4 1.0e-6 100 1000
Neighbor list info ...
  update: every = 1 steps, delay = 0 steps, check = yes
  max neighbors/atom: 2000, page size: 100000
  master list distance cutoff = 13.2
  ghost atom cutoff = 13.2
  binsize = 6.6, bins = 31 31 37
  6 neighbor lists, perpetual/occasional/extra = 6 0 0
  (1) pair airebo, perpetual, skip from (5)
      attributes: full, newton on, ghost
      pair build: skip/ghost
      stencil: none
      bin: none
  (2) pair airebo, perpetual, skip from (5)
      attributes: full, newton on, ghost
      pair build: skip/ghost
      stencil: none
      bin: none
  (3) pair airebo, perpetual, skip from (5)
      attributes: full, newton on, ghost
      pair build: skip/ghost
      stencil: none
      bin: none
  (4) pair lj/cut, perpetual, skip from (6)
      attributes: half, newton on, cut 13
      pair build: skip
      stencil: none
      bin: none
  (5) neighbor class addition, perpetual
      attributes: full, newton on, ghost
      pair build: full/bin/ghost
      stencil: full/ghost/bin/3d
      bin: standard
  (6) neighbor class addition, perpetual
      attributes: half, newton on, cut 13
      pair build: half/bin/atomonly/newton
      stencil: half/bin/3d
      bin: standard
Per MPI rank memory allocation (min/avg/max) = 9.736 | 10.45 | 11.17 Mbytes
   Step          Temp          E_pair         E_mol          TotEng         Press     
         0   0             -53705.079      0             -53705.079      378.42796    
         4   0             -53837.937      0             -53837.937      50.287364    
Loop time of 0.0614766 on 32 procs for 4 steps with 7400 atoms

96.9% CPU use with 32 MPI tasks x 1 OpenMP threads

Minimization stats:
  Stopping criterion = energy tolerance
  Energy initial, next-to-last, final = 
     -53705.0792109276  -53834.6532177693  -53837.9374209127
  Force two-norm initial, final = 119.24751 19.106013
  Force max component initial, final = 3.434546 0.53009031
  Final line search alpha, max atom move = 0.13584282 0.072008965
  Iterations, force evaluations = 4 8

MPI task timing breakdown:
Section |  min time  |  avg time  |  max time  |%varavg| %total
---------------------------------------------------------------
Pair    | 5.184e-06  | 0.02622    | 0.060605   |  16.3 | 42.65
Neigh   | 0          | 0          | 0          |   0.0 |  0.00
Comm    | 2.323e-06  | 0.0041603  | 0.01297    |   7.8 |  6.77
Output  | 0          | 0          | 0          |   0.0 |  0.00
Modify  | 0          | 0          | 0          |   0.0 |  0.00
Other   |            | 0.0311     |            |       | 50.58

Nlocal:         231.25 ave         492 max           0 min
Histogram: 16 0 0 0 0 0 0 0 4 12
Nghost:        1086.88 ave        2212 max           0 min
Histogram: 16 0 0 0 0 0 0 0 0 16
Neighs:              0 ave           0 max           0 min
Histogram: 32 0 0 0 0 0 0 0 0 0

Total # of neighbors = 0
Ave neighs/atom = 0
Neighbor list builds = 0
Dangerous builds = 0
#6----define computes------
variable nums equal count(all) #计算原子数目
variable toval equal 18.7166*18.7166*lz #计算系统总体积，单层石墨烯厚度为0.335nm
variable vol equal ${toval} #体系的初始体积
variable vol equal 84945.931764576 
variable vatom equal v_vol/v_nums #单个原子体积
compute 1 all stress/atom NULL #计算体系中单原子应力
compute xalls all reduce sum c_1[1]
variable xstress equal (c_xalls)/(v_toval*10000)
compute yalls all reduce sum c_1[2]
variable ystress equal (c_yalls)/(v_toval*10000)
compute zalls all reduce sum c_1[3]
variable zstress equal (c_zalls)/(v_toval*10000)
#7---------relaxation-------------------------
timestep ${tstep}
timestep 0.001
velocity all create ${temperature} 231743 units box dist gaussian
velocity all create 300 231743 units box dist gaussian
dump   1 all atom 100 all-cy.lammpstrj
#fix    1 all npt temp 300 300  0.1 aniso 0 0 10 drag 1  #三个方向独立控压
fix  1 all npt temp ${temperature} ${temperature} 0.1 x ${pressure} ${pressure} 10 y ${pressure} ${pressure} 10
fix  1 all npt temp 300 ${temperature} 0.1 x ${pressure} ${pressure} 10 y ${pressure} ${pressure} 10
fix  1 all npt temp 300 300 0.1 x ${pressure} ${pressure} 10 y ${pressure} ${pressure} 10
fix  1 all npt temp 300 300 0.1 x 0 ${pressure} 10 y ${pressure} ${pressure} 10
fix  1 all npt temp 300 300 0.1 x 0 0 10 y ${pressure} ${pressure} 10
fix  1 all npt temp 300 300 0.1 x 0 0 10 y 0 ${pressure} 10
fix  1 all npt temp 300 300 0.1 x 0 0 10 y 0 0 10
compute  2 all pe/atom
compute  pe all reduce sum c_2
variable PE equal "c_pe"
fix    pe all print 100 "${PE} " file PE.txt screen no
thermo  ${thermalstep}
thermo  100
#thermo_style  custom step pe ke etotal lx ly lz
run   ${relaxtime}
run   0
Per MPI rank memory allocation (min/avg/max) = 10.36 | 11.13 | 12.18 Mbytes
   Step          Temp          E_pair         E_mol          TotEng         Press          Volume    
         4   300           -53837.937      0             -53551.019      81.883164      9699484.6    
Loop time of 3.70529e-05 on 32 procs for 0 steps with 7400 atoms

90.2% CPU use with 32 MPI tasks x 1 OpenMP threads

MPI task timing breakdown:
Section |  min time  |  avg time  |  max time  |%varavg| %total
---------------------------------------------------------------
Pair    | 0          | 0          | 0          |   0.0 |  0.00
Neigh   | 0          | 0          | 0          |   0.0 |  0.00
Comm    | 0          | 0          | 0          |   0.0 |  0.00
Output  | 0          | 0          | 0          |   0.0 |  0.00
Modify  | 0          | 0          | 0          |   0.0 |  0.00
Other   |            | 3.705e-05  |            |       |100.00

Nlocal:         231.25 ave         472 max           0 min
Histogram: 16 0 0 0 0 0 0 0 0 16
Nghost:        1086.88 ave        2191 max           0 min
Histogram: 16 0 0 0 0 0 0 0 0 16
Neighs:              0 ave           0 max           0 min
Histogram: 32 0 0 0 0 0 0 0 0 0

Total # of neighbors = 0
Ave neighs/atom = 0
Neighbor list builds = 0
Dangerous builds = 0
#8 -------tension-----------------------------
unfix  1
undump  1
unfix  pe
reset_timestep 0
fix avestress all ave/atom 1 ${dumpstep} ${dumpstep} c_1[1] c_1[2] c_1[3] c_1[4] c_1[5] c_1[6]
fix avestress all ave/atom 1 1000 ${dumpstep} c_1[1] c_1[2] c_1[3] c_1[4] c_1[5] c_1[6]
fix avestress all ave/atom 1 1000 1000 c_1[1] c_1[2] c_1[3] c_1[4] c_1[5] c_1[6]

#-----calculation of strain and Cumulative compression--------
variable                tmp equal "lz"
variable                L0 equal ${tmp}
variable                L0 equal 242.487115
variable                strain equal "(lz - v_L0)/v_L0"
variable                Cumulativels equal "(lz - v_L0)/10"
fix Step all print 100 "${strain} ${Cumulativels} ${zstress}" file grapoten.txt screen no

dump 2 all custom ${dumpstep} tension.xyz type x y z f_avestress[1] f_avestress[2] f_avestress[3] f_avestress[4] f_avestress[5] f_avestress[6]
dump 2 all custom 1000 tension.xyz type x y z f_avestress[1] f_avestress[2] f_avestress[3] f_avestress[4] f_avestress[5] f_avestress[6]

fix  1 all npt temp ${temperature} ${temperature} 0.1 y ${pressure} ${pressure} 10 x ${pressure} ${pressure} 10
fix  1 all npt temp 300 ${temperature} 0.1 y ${pressure} ${pressure} 10 x ${pressure} ${pressure} 10
fix  1 all npt temp 300 300 0.1 y ${pressure} ${pressure} 10 x ${pressure} ${pressure} 10
fix  1 all npt temp 300 300 0.1 y 0 ${pressure} 10 x ${pressure} ${pressure} 10
fix  1 all npt temp 300 300 0.1 y 0 0 10 x ${pressure} ${pressure} 10
fix  1 all npt temp 300 300 0.1 y 0 0 10 x 0 ${pressure} 10
fix  1 all npt temp 300 300 0.1 y 0 0 10 x 0 0 10

thermo_style custom step pe ke etotal lx ly lz
fix   2 all deform 1 z erate ${deformrate} remap x units box
fix   2 all deform 1 z erate 0.005 remap x units box
fix   3 all ave/time 2 500 1000 v_xstress v_ystress v_zstress file pressure.out
run   ${totaltime}
run   100000
WARNING: Dump 2 includes no atom IDs and is not sorted by ID. This may complicate post-processing tasks or visualization (src/dump.cpp:221)
Per MPI rank memory allocation (min/avg/max) = 11.86 | 12.63 | 13.68 Mbytes
   Step         PotEng         KinEng         TotEng           Lx             Ly             Lz      
         0  -53837.937      286.91874     -53551.019      200            200            242.48711    
       100  -53674.468      145.9114      -53528.557      200.00413      199.98886      242.60836    
       200  -53686.514      189.14529     -53497.368      200.01295      199.97068      242.7296     
       300  -53657.017      196.54747     -53460.469      200.04307      199.96055      242.85085    
       400  -53644.318      223.73423     -53420.584      200.05993      199.93205      242.97209    
       500  -53626.708      246.97471     -53379.733      200.09909      199.92092      243.09333    
       600  -53615.775      275.30513     -53340.47       200.14461      199.90708      243.21458    
       700  -53594.895      287.21198     -53307.683      200.16566      199.86754      243.33582    
       800  -53580.196      294.22988     -53285.966      200.22154      199.84037      243.45706    
       900  -53578.826      295.92456     -53282.901      200.25393      199.78876      243.57831    
      1000  -53580.444      281.49728     -53298.947      200.28647      199.74013      243.69955    
      1100  -53594.447      281.82761     -53312.619      200.33488      199.70444      243.82079    
      1200  -53591.768      278.80235     -53312.966      200.35156      199.66585      243.94204    
      1300  -53596.79       294.80266     -53301.987      200.37483      199.64415      244.06328    
      1400  -53586.344      294.81745     -53291.526      200.39063      199.63318      244.18452    
      1500  -53580.901      290.88366     -53290.017      200.37693      199.62266      244.30577    
      1600  -53582.755      290.56394     -53292.191      200.37235      199.63186      244.42701    
      1700  -53569.934      280.84803     -53289.086      200.35033      199.65136      244.54826    
      1800  -53576.837      290.01207     -53286.825      200.32944      199.68283      244.6695     
      1900  -53572.174      281.96495     -53290.209      200.30914      199.72743      244.79074    
      2000  -53577.797      283.53389     -53294.263      200.25521      199.76612      244.91199    
      2100  -53573.259      279.14819     -53294.111      200.21669      199.8186       245.03323    
      2200  -53570.073      284.39509     -53285.678      200.16839      199.8632       245.15447    
      2300  -53563.54       288.47461     -53275.066      200.12417      199.90469      245.27572    
      2400  -53565.986      297.96447     -53268.022      200.08969      199.94081      245.39696    
      2500  -53562.387      291.38446     -53271.002      200.05383      199.96474      245.5182     
      2600  -53565.762      286.06265     -53279.7        200.02597      199.98316      245.63945    
      2700  -53565.531      279.86217     -53285.669      200.00463      199.99994      245.76069    
      2800  -53560.081      279.9864      -53280.095      199.98162      200.01328      245.88193    
      2900  -53555.124      289.69172     -53265.432      199.96394      200.02447      246.00318    
      3000  -53542.524      289.20913     -53253.315      199.95369      200.03493      246.12442    
      3100  -53544.847      292.69834     -53252.148      199.93812      200.0356       246.24567    
      3200  -53543.484      285.35692     -53258.127      199.93397      200.03591      246.36691    
      3300  -53551.076      286.68163     -53264.395      199.9297       200.03012      246.48815    
      3400  -53543.485      278.56773     -53264.917      199.92767      200.02375      246.6094     
      3500  -53545.954      289.14616     -53256.808      199.92557      200.01574      246.73064    
      3600  -53542.891      293.19886     -53249.693      199.92857      200.00883      246.85188    
      3700  -53541.581      291.93394     -53249.647      199.92484      200.00146      246.97313    
      3800  -53540.399      286.67425     -53253.725      199.91669      199.99563      247.09437    
      3900  -53535.263      281.33978     -53253.924      199.90577      199.99311      247.21561    
      4000  -53532.668      284.71416     -53247.954      199.88724      199.99194      247.33686    
      4100  -53527.101      288.19078     -53238.911      199.87478      199.99982      247.4581     
      4200  -53518.681      288.04093     -53230.64       199.85677      200.00922      247.57934    
      4300  -53515.887      287.58231     -53228.305      199.83335      200.02513      247.70059    
      4400  -53519.201      287.01128     -53232.19       199.81128      200.04538      247.82183    
      4500  -53518.622      282.5805      -53236.041      199.78342      200.06596      247.94308    
      4600  -53520.231      286.52608     -53233.705      199.75354      200.08781      248.06432    
      4700  -53511.502      285.29185     -53226.21       199.72705      200.1129       248.18556    
      4800  -53505.756      287.97513     -53217.781      199.69451      200.13329      248.30681    
      4900  -53501.199      289.11967     -53212.08       199.66944      200.15101      248.42805    
      5000  -53499.423      289.68156     -53209.742      199.64786      200.16389      248.54929    
      5100  -53495.639      284.50223     -53211.137      199.62269      200.1676       248.67054    
      5200  -53492.302      282.48726     -53209.814      199.61304      200.17553      248.79178    
      5300  -53490.995      288.92684     -53202.068      199.59561      200.17701      248.91302    
      5400  -53483.472      289.88639     -53193.585      199.57528      200.17732      249.03427    
      5500  -53479.582      288.25163     -53191.33       199.56214      200.17994      249.15551    
      5600  -53479.722      288.50514     -53191.217      199.53933      200.17698      249.27675    
      5700  -53476.991      285.90234     -53191.089      199.52473      200.17473      249.398      
      5800  -53476.291      287.94989     -53188.341      199.51668      200.17474      249.51924    
      5900  -53469.22       287.74807     -53181.472      199.49828      200.17141      249.64048    
      6000  -53463.571      289.47717     -53174.094      199.48863      200.17546      249.76173    
      6100  -53456.365      286.94954     -53169.416      199.47226      200.18006      249.88297    
      6200  -53458.499      290.36716     -53168.132      199.44649      200.18292      250.00422    
      6300  -53450.758      282.48169     -53168.276      199.42616      200.19247      250.12546    
      6400  -53450.499      285.18441     -53165.314      199.39797      200.19813      250.2467     
      6500  -53441.615      284.06122     -53157.553      199.37302      200.20658      250.36795    
      6600  -53436.406      288.67343     -53147.733      199.35151      200.2173       250.48919    
      6700  -53430.018      288.8938      -53141.124      199.32118      200.22612      250.61043    
      6800  -53428.616      289.13658     -53139.48       199.29671      200.2386       250.73168    
      6900  -53428.083      288.16632     -53139.917      199.26996      200.24926      250.85292    
      7000  -53426.7        286.19494     -53140.505      199.24198      200.25669      250.97416    
      7100  -53421.643      285.0179      -53136.625      199.22249      200.2661       251.09541    
      7200  -53412.446      286.20881     -53126.237      199.19859      200.27069      251.21665    
      7300  -53407.374      291.76092     -53115.613      199.17292      200.27262      251.33789    
      7400  -53399.985      290.64091     -53109.344      199.15052      200.2767       251.45914    
      7500  -53398.338      290.02284     -53108.315      199.12635      200.27832      251.58038    
      7600  -53396.642      288.47448     -53108.167      199.10534      200.27965      251.70163    
      7700  -53388.996      284.57391     -53104.422      199.08631      200.27969      251.82287    
      7800  -53386.832      289.76886     -53097.063      199.06336      200.27881      251.94411    
      7900  -53376.332      286.82766     -53089.505      199.04152      200.28122      252.06536    
      8000  -53371.715      288.98071     -53082.734      199.02266      200.28489      252.1866     
      8100  -53366.53       289.49746     -53077.032      199.00268      200.28792      252.30784    
      8200  -53360.644      285.697       -53074.947      198.984        200.29139      252.42909    
      8300  -53353.785      282.22492     -53071.56       198.96241      200.29202      252.55033    
      8400  -53352.235      288.09718     -53064.138      198.94011      200.29108      252.67157    
      8500  -53345.709      291.38351     -53054.325      198.91377      200.29         252.79282    
      8600  -53337.613      288.98857     -53048.625      198.88653      200.2885       252.91406    
      8700  -53336.678      285.81745     -53050.861      198.86605      200.2919       253.0353     
      8800  -53325.89       280.07346     -53045.816      198.83466      200.29068      253.15655    
      8900  -53323.615      287.50069     -53036.114      198.81117      200.29419      253.27779    
      9000  -53314.333      286.8466      -53027.486      198.78833      200.2991       253.39904    
      9100  -53314.273      291.44993     -53022.823      198.75607      200.30062      253.52028    
      9200  -53308.446      283.06729     -53025.379      198.7311       200.30736      253.64152    
      9300  -53302.325      282.45965     -53019.866      198.70261      200.31487      253.76277    
      9400  -53294.786      285.36337     -53009.422      198.66769      200.32051      253.88401    
      9500  -53285.249      285.65643     -52999.592      198.64089      200.32936      254.00525    
      9600  -53277.836      286.69        -52991.146      198.60645      200.33146      254.1265     
      9700  -53278.47       292.79328     -52985.676      198.57936      200.33409      254.24774    
      9800  -53272.744      285.03925     -52987.705      198.55812      200.3375       254.36898    
      9900  -53268.446      285.40889     -52983.037      198.5276       200.33423      254.49023    
     10000  -53256.655      283.8373      -52972.817      198.50454      200.33418      254.61147    
     10100  -53248.492      287.26412     -52961.228      198.47749      200.33169      254.73271    
     10200  -53245.656      291.03512     -52954.621      198.44888      200.32701      254.85396    
     10300  -53238.413      286.90595     -52951.507      198.42776      200.32497      254.9752     
     10400  -53231.58       283.62111     -52947.959      198.40042      200.31866      255.09644    
     10500  -53223.71       282.41914     -52941.291      198.37527      200.31227      255.21769    
     10600  -53218.974      288.46759     -52930.506      198.35609      200.31004      255.33893    
     10700  -53210.71       290.31812     -52920.391      198.32786      200.30763      255.46018    
     10800  -53204.284      289.71935     -52914.564      198.29955      200.30788      255.58142    
     10900  -53197.684      284.33597     -52913.348      198.27381      200.3115       255.70266    
     11000  -53195.248      286.85323     -52908.394      198.23802      200.3128       255.82391    
     11100  -53183.091      283.62041     -52899.47       198.20694      200.31744      255.94515    
     11200  -53177.153      287.62666     -52889.526      198.17329      200.31914      256.06639    
     11300  -53166.178      284.69559     -52881.482      198.14234      200.32107      256.18764    
     11400  -53160.504      287.43497     -52873.069      198.11602      200.32425      256.30888    
     11500  -53155.822      290.26251     -52865.559      198.08539      200.32402      256.43012    
     11600  -53146.741      283.62584     -52863.115      198.05667      200.32432      256.55137    
     11700  -53143.44       284.0236      -52859.416      198.02752      200.32058      256.67261    
     11800  -53135.793      286.61797     -52849.175      197.99641      200.31276      256.79385    
     11900  -53125.484      289.20004     -52836.284      197.96779      200.30498      256.9151     
     12000  -53118.741      289.02932     -52829.712      197.93808      200.29644      257.03634    
     12100  -53113.12       287.87539     -52825.244      197.90963      200.29103      257.15759    
     12200  -53104.462      284.55665     -52819.905      197.87933      200.28538      257.27883    
     12300  -53100.576      287.6443      -52812.931      197.84965      200.28095      257.40007    
     12400  -53091.537      288.34019     -52803.197      197.81892      200.27783      257.52132    
     12500  -53080.97       290.21083     -52790.759      197.78411      200.27531      257.64256    
     12600  -53073.561      291.32911     -52782.232      197.7497       200.27433      257.7638     
     12700  -53067.601      287.37875     -52780.222      197.71705      200.27425      257.88505    
     12800  -53060.103      284.79752     -52775.305      197.68462      200.27249      258.00629    
     12900  -53054.564      287.50818     -52767.055      197.65448      200.27229      258.12753    
     13000  -53046.801      289.27976     -52757.521      197.62119      200.27097      258.24878    
     13100  -53032.845      288.94068     -52743.904      197.58321      200.26624      258.37002    
     13200  -53023.54       290.86172     -52732.678      197.54662      200.26167      258.49126    
     13300  -53019.009      289.02084     -52729.988      197.51062      200.25741      258.61251    
     13400  -53014.051      289.11269     -52724.939      197.47911      200.25524      258.73375    
     13500  -53004.19       286.94663     -52717.244      197.45074      200.25364      258.855      
     13600  -52997.819      289.99541     -52707.824      197.41497      200.24989      258.97624    
     13700  -52986.226      288.47641     -52697.75       197.37779      200.24724      259.09748    
     13800  -52974.799      285.99244     -52688.806      197.33693      200.24204      259.21873    
     13900  -52967.273      282.96754     -52684.305      197.30323      200.23935      259.33997    
     14000  -52962.355      282.91119     -52679.444      197.2726       200.23511      259.46121    
     14100  -52959.691      287.11042     -52672.581      197.23541      200.22563      259.58246    
     14200  -52943.301      283.68311     -52659.618      197.20372      200.21677      259.7037     
     14300  -52932.71       287.13913     -52645.571      197.16823      200.20526      259.82494    
     14400  -52928.7        291.06521     -52637.635      197.12979      200.19479      259.94619    
     14500  -52921.81       287.46252     -52634.347      197.0984       200.18987      260.06743    
     14600  -52913.848      285.56597     -52628.282      197.05785      200.18146      260.18867    
     14700  -52904.872      285.98395     -52618.888      197.02256      200.17553      260.30992    
     14800  -52895.371      286.07968     -52609.291      196.98849      200.1728       260.43116    
     14900  -52887.14       288.00031     -52599.139      196.94421      200.16752      260.55241    
     15000  -52871.362      288.87366     -52582.488      196.90469      200.16571      260.67365    
     15100  -52863.543      290.90157     -52572.642      196.86276      200.16353      260.79489    
     15200  -52859.396      289.96073     -52569.436      196.81916      200.16106      260.91614    
     15300  -52850.313      286.39201     -52563.921      196.78066      200.15961      261.03738    
     15400  -52843.951      286.72847     -52557.223      196.74134      200.15457      261.15862    
     15500  -52834.789      285.18736     -52549.602      196.70426      200.14687      261.27987    
     15600  -52823.825      288.48714     -52535.338      196.66203      200.13438      261.40111    
     15700  -52811.434      289.84081     -52521.593      196.62221      200.12276      261.52235    
     15800  -52804.666      289.85537     -52514.81       196.58435      200.11016      261.6436     
     15900  -52798.694      288.6487      -52510.045      196.5477       200.0969       261.76484    
     16000  -52786.582      284.9712      -52501.611      196.5141       200.08404      261.88608    
     16100  -52776.958      285.54084     -52491.417      196.47669      200.07077      262.00733    
     16200  -52772.599      292.20315     -52480.396      196.43702      200.06036      262.12857    
     16300  -52754.865      287.8217      -52467.043      196.39657      200.05417      262.24981    
     16400  -52749.401      295.25874     -52454.142      196.35156      200.04798      262.37106    
     16500  -52734.242      285.14036     -52449.102      196.30836      200.04441      262.4923     
     16600  -52728.299      283.73377     -52444.566      196.26364      200.03964      262.61355    
     16700  -52721.759      286.10943     -52435.649      196.21388      200.03318      262.73479    
     16800  -52711.952      286.5455      -52425.407      196.17021      200.03124      262.85603    
     16900  -52700.278      287.58911     -52412.689      196.12507      200.02848      262.97728    
     17000  -52688.731      291.42666     -52397.305      196.08155      200.02412      263.09852    
     17100  -52678.909      288.9593      -52389.95       196.03936      200.02026      263.21976    
     17200  -52672.163      286.34437     -52385.818      195.99219      200.01065      263.34101    
     17300  -52661.086      284.40476     -52376.681      195.95038      200.00096      263.46225    
     17400  -52655.915      289.84447     -52366.071      195.90972      199.98782      263.58349    
     17500  -52643.029      290.01531     -52353.014      195.86798      199.97086      263.70474    
     17600  -52627.959      290.95794     -52337.002      195.83319      199.95561      263.82598    
     17700  -52620.4        292.82396     -52327.576      195.79702      199.93835      263.94722    
     17800  -52610.685      285.56778     -52325.118      195.75637      199.92002      264.06847    
     17900  -52604.123      287.7136      -52316.41       195.71945      199.90684      264.18971    
     18000  -52590.029      284.61313     -52305.416      195.67764      199.89217      264.31096    
     18100  -52583.042      289.94168     -52293.1        195.63668      199.87594      264.4322     
     18200  -52569.833      287.85154     -52281.981      195.60221      199.86163      264.55344    
     18300  -52558.707      285.49176     -52273.215      195.55908      199.84494      264.67469    
     18400  -52553.375      285.50519     -52267.87       195.51284      199.83151      264.79593    
     18500  -52545.281      286.34139     -52258.94       195.46577      199.82256      264.91717    
     18600  -52529.58       286.98337     -52242.596      195.41635      199.8156       265.03842    
     18700  -52518.414      290.17379     -52228.241      195.36892      199.81231      265.15966    
     18800  -52504.48       285.83431     -52218.645      195.32118      199.80855      265.2809     
     18900  -52498.48       288.61332     -52209.867      195.27643      199.80404      265.40215    
     19000  -52488.5        287.13853     -52201.361      195.23433      199.79893      265.52339    
     19100  -52479.648      283.08905     -52196.559      195.18725      199.7904       265.64463    
     19200  -52471.47       286.08438     -52185.386      195.1398       199.78075      265.76588    
     19300  -52453.301      285.68945     -52167.612      195.09433      199.77031      265.88712    
     19400  -52438.279      283.41801     -52154.861      195.05079      199.75782      266.00837    
     19500  -52431.8        289.29081     -52142.509      195.01254      199.74409      266.12961    
     19600  -52418.616      286.56901     -52132.047      194.97338      199.72623      266.25085    
     19700  -52415.245      287.33067     -52127.914      194.93437      199.70741      266.3721     
     19800  -52404.282      284.71199     -52119.57       194.89292      199.68952      266.49334    
     19900  -52391.925      284.97616     -52106.949      194.85099      199.67388      266.61458    
     20000  -52378.538      287.17678     -52091.361      194.81196      199.65971      266.73583    
     20100  -52366.888      288.47554     -52078.412      194.77347      199.64334      266.85707    
     20200  -52357.222      289.44037     -52067.782      194.73634      199.62642      266.97831    
     20300  -52347.628      289.19147     -52058.436      194.69958      199.61009      267.09956    
     20400  -52335.369      285.17759     -52050.191      194.65858      199.59448      267.2208     
     20500  -52323.285      280.70861     -52042.577      194.61931      199.5833       267.34204    
     20600  -52315.407      284.8979      -52030.509      194.57896      199.57307      267.46329    
     20700  -52296.826      284.44766     -52012.378      194.53567      199.56286      267.58453    
     20800  -52288.834      289.87832     -51998.956      194.49402      199.55374      267.70577    
     20900  -52274.403      283.86798     -51990.535      194.45152      199.54374      267.82702    
     21000  -52264.926      281.19217     -51983.734      194.40806      199.53314      267.94826    
     21100  -52259.616      286.47861     -51973.137      194.36983      199.52495      268.06951    
     21200  -52248.427      288.63801     -51959.789      194.32892      199.51466      268.19075    
     21300  -52233.893      286.40555     -51947.487      194.28731      199.50213      268.31199    
     21400  -52224.101      289.80979     -51934.291      194.25001      199.49002      268.43324    
     21500  -52205.525      285.77237     -51919.753      194.20906      199.47507      268.55448    
     21600  -52197.938      292.15801     -51905.78       194.17122      199.45986      268.67572    
     21700  -52180.859      286.45693     -51894.402      194.13906      199.44764      268.79697    
     21800  -52173.243      285.15474     -51888.088      194.10292      199.43552      268.91821    
     21900  -52163.654      283.41222     -51880.242      194.0684       199.42496      269.03945    
     22000  -52152.083      285.46956     -51866.614      194.03488      199.41214      269.1607     
     22100  -52141.305      291.24902     -51850.056      193.99716      199.39445      269.28194    
     22200  -52123.377      285.09342     -51838.284      193.96273      199.3777       269.40318    
     22300  -52116.078      288.82247     -51827.255      193.92966      199.36309      269.52443    
     22400  -52104.844      288.79533     -51816.048      193.89504      199.34946      269.64567    
     22500  -52089.971      284.08232     -51805.889      193.86249      199.33907      269.76692    
     22600  -52081.545      282.43008     -51799.115      193.82575      199.32741      269.88816    
     22700  -52074.453      285.54307     -51788.91       193.78686      199.31487      270.0094     
     22800  -52056.758      285.97333     -51770.784      193.75279      199.30442      270.13065    
     22900  -52045.044      289.84678     -51755.197      193.71959      199.29303      270.25189    
     23000  -52027.047      284.20977     -51742.837      193.68937      199.28284      270.37313    
     23100  -52018.788      285.94942     -51732.839      193.65824      199.27363      270.49438    
     23200  -52003.828      279.50974     -51724.319      193.62036      199.26127      270.61562    
     23300  -52003.82       288.44464     -51715.376      193.58543      199.25139      270.73686    
     23400  -51983.979      284.65609     -51699.323      193.54832      199.24013      270.85811    
     23500  -51970.486      289.08072     -51681.405      193.51532      199.23096      270.97935    
     23600  -51953.757      285.28925     -51668.468      193.48787      199.22207      271.10059    
     23700  -51943.691      285.66544     -51658.025      193.45744      199.20863      271.22184    
     23800  -51937.328      286.15838     -51651.169      193.43397      199.19598      271.34308    
     23900  -51923.109      281.8852      -51641.224      193.40504      199.18078      271.46433    
     24000  -51909.241      288.13396     -51621.107      193.3721       199.16447      271.58557    
     24100  -51893.538      287.96263     -51605.575      193.34766      199.15312      271.70681    
     24200  -51879.177      284.29136     -51594.885      193.31988      199.13992      271.82806    
     24300  -51870.266      284.47178     -51585.794      193.28675      199.12544      271.9493     
     24400  -51861.263      285.7274      -51575.536      193.26327      199.11833      272.07054    
     24500  -51845.91       286.11298     -51559.797      193.23322      199.1086       272.19179    
     24600  -51827.718      286.53867     -51541.179      193.20102      199.09742      272.31303    
     24700  -51819.002      290.10267     -51528.899      193.17678      199.08985      272.43427    
     24800  -51812.434      292.09839     -51520.335      193.14603      199.07839      272.55552    
     24900  -51797.569      285.74134     -51511.827      193.11942      199.07086      272.67676    
     25000  -51784.151      285.94196     -51498.209      193.09355      199.06489      272.798      
     25100  -51771.512      287.5138      -51483.999      193.06052      199.05546      272.91925    
     25200  -51757.13       289.05391     -51468.076      193.03086      199.04753      273.04049    
     25300  -51739.772      287.08348     -51452.689      193.0026       199.03889      273.16174    
     25400  -51727.1        288.1482      -51438.952      192.9748       199.0274       273.28298    
     25500  -51715.73       287.50436     -51428.226      192.95422      199.01737      273.40422    
     25600  -51707.151      286.84521     -51420.306      192.93461      199.00689      273.52547    
     25700  -51694.982      286.54154     -51408.441      192.91343      198.9956       273.64671    
     25800  -51677.552      287.3447      -51390.208      192.89178      198.98384      273.76795    
     25900  -51661.226      287.93522     -51373.291      192.86577      198.96818      273.8892     
     26000  -51651.342      289.5938      -51361.748      192.84168      198.95301      274.01044    
     26100  -51634.811      282.78864     -51352.023      192.82057      198.94007      274.13168    
     26200  -51622.283      282.02522     -51340.258      192.79803      198.92885      274.25293    
     26300  -51614.585      287.45788     -51327.127      192.7775       198.91875      274.37417    
     26400  -51594.292      284.8878      -51309.404      192.75705      198.90848      274.49541    
     26500  -51583.426      290.35891     -51293.067      192.73352      198.89805      274.61666    
     26600  -51569.948      288.35123     -51281.597      192.71261      198.89008      274.7379     
     26700  -51559.932      285.82725     -51274.105      192.6911       198.8841       274.85914    
     26800  -51550.546      288.05553     -51262.49       192.66543      198.87699      274.98039    
     26900  -51532.858      286.22365     -51246.634      192.64042      198.87034      275.10163    
     27000  -51517          286.17351     -51230.826      192.61374      198.86224      275.22288    
     27100  -51506.644      290.03554     -51216.608      192.59196      198.85336      275.34412    
     27200  -51493.025      288.37895     -51204.646      192.57535      198.84423      275.46536    
     27300  -51480.661      286.93315     -51193.728      192.55539      198.83162      275.58661    
     27400  -51465.176      283.73518     -51181.441      192.53501      198.82055      275.70785    
     27500  -51448.111      284.34557     -51163.766      192.51409      198.81208      275.82909    
     27600  -51433.766      288.6114      -51145.154      192.49172      198.80278      275.95034    
     27700  -51420.03       288.00799     -51132.022      192.47094      198.79238      276.07158    
     27800  -51410.811      288.56538     -51122.246      192.44931      198.77853      276.19282    
     27900  -51397.675      282.21534     -51115.46       192.42983      198.76473      276.31407    
     28000  -51384.684      283.12334     -51101.561      192.41318      198.75277      276.43531    
     28100  -51371.374      286.95736     -51084.416      192.39825      198.74338      276.55655    
     28200  -51355.181      288.4227      -51066.759      192.38058      198.73487      276.6778     
     28300  -51336.866      285.79193     -51051.074      192.35819      198.72777      276.79904    
     28400  -51326.022      288.65417     -51037.368      192.33664      198.72095      276.92029    
     28500  -51310.894      281.82886     -51029.065      192.31433      198.71275      277.04153    
     28600  -51300.207      280.69221     -51019.515      192.29147      198.70486      277.16277    
     28700  -51283.183      281.48274     -51001.7        192.27336      198.70003      277.28402    
     28800  -51270.119      286.65374     -50983.465      192.25503      198.69455      277.40526    
     28900  -51255.584      286.76939     -50968.814      192.23394      198.68555      277.5265     
     29000  -51244.531      287.68542     -50956.846      192.21447      198.67648      277.64775    
     29100  -51227.716      281.33072     -50946.385      192.19116      198.66461      277.76899    
     29200  -51217.932      284.7533      -50933.179      192.17117      198.65471      277.89023    
     29300  -51197.94       285.04839     -50912.892      192.15431      198.64581      278.01148    
     29400  -51186.375      290.66342     -50895.712      192.13704      198.63592      278.13272    
     29500  -51169.786      287.01828     -50882.767      192.12184      198.62674      278.25396    
     29600  -51158.47       285.16695     -50873.303      192.10306      198.6155       278.37521    
     29700  -51149.278      284.97526     -50864.303      192.08563      198.6041       278.49645    
     29800  -51131.407      282.60657     -50848.8        192.06924      198.5923       278.6177     
     29900  -51115.493      289.54518     -50825.948      192.05056      198.57904      278.73894    
     30000  -51100.316      289.43864     -50810.877      192.03608      198.5701       278.86018    
     30100  -51085.59       286.98323     -50798.607      192.01717      198.56081      278.98143    
     30200  -51075.01       287.34085     -50787.67       191.99382      198.54962      279.10267    
     30300  -51059.01       282.63123     -50776.379      191.97737      198.54465      279.22391    
     30400  -51045.391      287.00086     -50758.39       191.95459      198.53672      279.34516    
     30500  -51025.618      287.64667     -50737.971      191.93478      198.52826      279.4664     
     30600  -51013.196      289.32413     -50723.872      191.92206      198.52195      279.58764    
     30700  -50998.806      285.97607     -50712.83       191.89915      198.50888      279.70889    
     30800  -50988.37       285.04143     -50703.328      191.88138      198.4998       279.83013    
     30900  -50973.85       283.11684     -50690.734      191.86718      198.49467      279.95137    
     31000  -50956.419      287.28854     -50669.131      191.84349      198.48389      280.07262    
     31100  -50938.345      287.74139     -50650.603      191.82823      198.47715      280.19386    
     31200  -50922.378      285.97056     -50636.407      191.81505      198.46957      280.3151     
     31300  -50916.421      289.89282     -50626.528      191.79301      198.45464      280.43635    
     31400  -50896.793      280.86962     -50615.924      191.77881      198.4438       280.55759    
     31500  -50881.076      281.36728     -50599.708      191.76258      198.43155      280.67884    
     31600  -50866.334      285.94999     -50580.384      191.74208      198.41815      280.80008    
     31700  -50847.674      282.44552     -50565.229      191.72753      198.40891      280.92132    
     31800  -50838.329      286.97016     -50551.359      191.71044      198.39655      281.04257    
     31900  -50826.897      287.77832     -50539.119      191.69221      198.38347      281.16381    
     32000  -50813.624      285.99881     -50527.625      191.67809      198.37392      281.28505    
     32100  -50797.921      283.41785     -50514.503      191.66011      198.36352      281.4063     
     32200  -50781.1        287.72069     -50493.379      191.64256      198.35514      281.52754    
     32300  -50763.203      288.52347     -50474.679      191.6248       198.34825      281.64878    
     32400  -50747.638      288.22698     -50459.411      191.60498      198.34033      281.77003    
     32500  -50735.052      286.59215     -50448.46       191.58912      198.33407      281.89127    
     32600  -50723.354      284.11649     -50439.237      191.56899      198.3225       282.01251    
     32700  -50705.058      280.84476     -50424.213      191.5524       198.31214      282.13376    
     32800  -50691.314      286.31772     -50404.996      191.53946      198.30402      282.255      
     32900  -50675.727      286.91998     -50388.807      191.51884      198.29113      282.37625    
     33000  -50661.883      288.82624     -50373.057      191.50078      198.27987      282.49749    
     33100  -50645.419      288.09795     -50357.321      191.48272      198.26827      282.61873    
     33200  -50631.839      289.30585     -50342.533      191.45748      198.25274      282.73998    
     33300  -50617.059      287.78342     -50329.275      191.44271      198.24299      282.86122    
     33400  -50603.096      285.22874     -50317.868      191.4305       198.23366      282.98246    
     33500  -50589.464      285.07839     -50304.386      191.41196      198.221        283.10371    
     33600  -50570.447      285.71899     -50284.728      191.39893      198.21375      283.22495    
     33700  -50550.995      286.24065     -50264.754      191.38201      198.20431      283.34619    
     33800  -50537.489      286.29867     -50251.19       191.36199      198.19238      283.46744    
     33900  -50525.315      285.78518     -50239.53       191.34593      198.18291      283.58868    
     34000  -50509.521      281.30544     -50228.216      191.32428      198.17027      283.70992    
     34100  -50498.425      281.35954     -50217.065      191.30002      198.15649      283.83117    
     34200  -50484.531      283.65032     -50200.881      191.285        198.14743      283.95241    
     34300  -50466.385      287.62984     -50178.755      191.26761      198.13678      284.07366    
     34400  -50450.421      289.347       -50161.074      191.24953      198.12542      284.1949     
     34500  -50434.436      289.09728     -50145.339      191.23661      198.11796      284.31614    
     34600  -50418.089      287.29154     -50130.798      191.21641      198.10493      284.43739    
     34700  -50406.467      288.35127     -50118.116      191.1934       198.09006      284.55863    
     34800  -50388.696      282.53578     -50106.16       191.17474      198.07839      284.67987    
     34900  -50376.076      287.25093     -50088.825      191.15481      198.06561      284.80112    
     35000  -50357.042      289.44214     -50067.6        191.1393       198.05589      284.92236    
     35100  -50338.613      287.11613     -50051.497      191.12346      198.04695      285.0436     
     35200  -50325.329      286.82615     -50038.503      191.10119      198.03635      285.16485    
     35300  -50310.603      285.27048     -50025.333      191.08041      198.02823      285.28609    
     35400  -50298.062      287.12131     -50010.941      191.05791      198.01779      285.40733    
     35500  -50277.383      287.72981     -49989.653      191.03881      198.00601      285.52858    
     35600  -50257.773      287.9777      -49969.795      191.02319      197.99379      285.64982    
     35700  -50244.489      287.48786     -49957.001      191.0044       197.97961      285.77107    
     35800  -50232.952      285.63195     -49947.32       190.98762      197.96681      285.89231    
     35900  -50219.06       285.70348     -49933.357      190.96983      197.95479      286.01355    
     36000  -50202.334      286.99164     -49915.342      190.94648      197.94102      286.1348     
     36100  -50182.621      289.07366     -49893.547      190.92666      197.92869      286.25604    
     36200  -50169.46       290.7315      -49878.728      190.9091       197.91548      286.37728    
     36300  -50154.187      287.96561     -49866.221      190.88864      197.89724      286.49853    
     36400  -50140.138      287.2418      -49852.896      190.87522      197.88413      286.61977    
     36500  -50126.604      287.77772     -49838.826      190.8603       197.87004      286.74101    
     36600  -50108.59       284.45426     -49824.136      190.83984      197.85306      286.86226    
     36700  -50093.521      286.78609     -49806.735      190.82242      197.84171      286.9835     
     36800  -50071.278      284.69341     -49786.585      190.79907      197.82901      287.10474    
     36900  -50056.027      286.17501     -49769.852      190.77464      197.81582      287.22599    
     37000  -50044.525      285.5251      -49759          190.75676      197.80693      287.34723    
     37100  -50032.206      284.05961     -49748.146      190.7345       197.79461      287.46847    
     37200  -50017.082      285.04687     -49732.035      190.71194      197.78146      287.58972    
     37300  -50000.704      286.96104     -49713.743      190.69672      197.77277      287.71096    
     37400  -49986.572      290.18503     -49696.387      190.67411      197.75857      287.83221    
     37500  -49967.342      287.98009     -49679.362      190.64963      197.74593      287.95345    
     37600  -49951.539      288.55851     -49662.98       190.6323       197.73981      288.07469    
     37700  -49935.507      288.74564     -49646.761      190.60779      197.7272       288.19594    
     37800  -49922.374      290.1307      -49632.243      190.58247      197.71484      288.31718    
     37900  -49905.064      285.46294     -49619.601      190.56219      197.70727      288.43842    
     38000  -49887.895      282.8923      -49605.002      190.53361      197.69148      288.55967    
     38100  -49869.952      285.89776     -49584.054      190.50855      197.67424      288.68091    
     38200  -49852.373      288.24525     -49564.128      190.49371      197.66319      288.80215    
     38300  -49837.489      287.4824      -49550.007      190.46978      197.64624      288.9234     
     38400  -49823.955      285.58564     -49538.37       190.44871      197.63301      289.04464    
     38500  -49808.246      284.90135     -49523.345      190.4336       197.62375      289.16588    
     38600  -49794.884      288.93888     -49505.945      190.40704      197.60537      289.28713    
     38700  -49772.136      283.46777     -49488.668      190.38233      197.59009      289.40837    
     38800  -49758.795      289.05047     -49469.744      190.35969      197.57878      289.52962    
     38900  -49739.739      291.1592      -49448.58       190.33066      197.5625       289.65086    
     39000  -49722.406      287.52997     -49434.876      190.30883      197.55185      289.7721     
     39100  -49716.542      290.94245     -49425.6        190.29148      197.54384      289.89335    
     39200  -49696.088      285.47719     -49410.611      190.26353      197.52682      290.01459    
     39300  -49679.49       286.47558     -49393.014      190.24036      197.51535      290.13583    
     39400  -49661.896      288.49408     -49373.402      190.21845      197.50631      290.25708    
     39500  -49644.419      291.43227     -49352.987      190.1878       197.49063      290.37832    
     39600  -49632.246      294.59261     -49337.653      190.16448      197.48024      290.49956    
     39700  -49615.907      286.43696     -49329.47       190.14108      197.46878      290.62081    
     39800  -49602.622      287.2129      -49315.409      190.11147      197.45105      290.74205    
     39900  -49580.083      282.33018     -49297.752      190.09014      197.43837      290.86329    
     40000  -49563.465      287.0191      -49276.446      190.06804      197.42429      290.98454    
     40100  -49547.568      288.78104     -49258.787      190.04294      197.40713      291.10578    
     40200  -49532.165      286.21231     -49245.953      190.02332      197.39417      291.22703    
     40300  -49519.168      287.30854     -49231.86       189.99906      197.37933      291.34827    
     40400  -49502.452      286.8849      -49215.567      189.9722       197.36363      291.46951    
     40500  -49484.286      284.96511     -49199.321      189.94731      197.34891      291.59076    
     40600  -49469.38       287.68671     -49181.693      189.91984      197.33008      291.712      
     40700  -49451.081      288.94512     -49162.136      189.89547      197.31348      291.83324    
     40800  -49435.055      291.40923     -49143.646      189.87382      197.29906      291.95449    
     40900  -49420.218      287.55697     -49132.661      189.85129      197.28276      292.07573    
     41000  -49404.594      283.22082     -49121.373      189.82938      197.26648      292.19697    
     41100  -49388.707      284.15469     -49104.552      189.80396      197.24947      292.31822    
     41200  -49369.444      284.72526     -49084.719      189.77538      197.23203      292.43946    
     41300  -49355.712      292.02299     -49063.689      189.74897      197.21754      292.5607     
     41400  -49332.22       287.11024     -49045.11       189.72235      197.20329      292.68195    
     41500  -49319.927      283.83985     -49036.087      189.69642      197.18854      292.80319    
     41600  -49307.646      283.29813     -49024.347      189.671        197.17343      292.92443    
     41700  -49293.768      286.82344     -49006.944      189.64638      197.15791      293.04568    
     41800  -49269.278      283.32743     -48985.951      189.62082      197.14133      293.16692    
     41900  -49258.673      292.06408     -48966.609      189.59338      197.12427      293.28817    
     42000  -49239.411      287.35758     -48952.054      189.56864      197.11144      293.40941    
     42100  -49226.571      283.64814     -48942.923      189.54162      197.09808      293.53065    
     42200  -49213.268      285.0574      -48928.211      189.51209      197.08324      293.6519     
     42300  -49193.234      284.50314     -48908.731      189.48382      197.07001      293.77314    
     42400  -49177.054      288.87331     -48888.18       189.45462      197.05421      293.89438    
     42500  -49159.515      289.69073     -48869.824      189.42372      197.03457      294.01563    
     42600  -49140.777      285.94557     -48854.831      189.39803      197.01746      294.13687    
     42700  -49128.697      282.76109     -48845.936      189.3727       197.00163      294.25811    
     42800  -49111.93       281.67349     -48830.257      189.34215      196.98282      294.37936    
     42900  -49095.36       285.65705     -48809.703      189.3145       196.96905      294.5006     
     43000  -49077.35       287.3519      -48789.998      189.28663      196.95237      294.62184    
     43100  -49059.089      286.27488     -48772.814      189.25881      196.93265      294.74309    
     43200  -49044.958      287.73207     -48757.226      189.23585      196.91635      294.86433    
     43300  -49029.484      283.76747     -48745.716      189.21105      196.89794      294.98558    
     43400  -49015.295      281.77825     -48733.516      189.18294      196.87823      295.10682    
     43500  -48994.554      282.64877     -48711.905      189.15578      196.86243      295.22806    
     43600  -48979.46       288.09094     -48691.369      189.12523      196.84417      295.34931    
     43700  -48959.701      286.53946     -48673.162      189.09406      196.82493      295.47055    
     43800  -48946.76       289.80271     -48656.957      189.06801      196.81071      295.59179    
     43900  -48927.643      284.45597     -48643.187      189.03925      196.79389      295.71304    
     44000  -48912.529      282.63246     -48629.896      189.01046      196.77611      295.83428    
     44100  -48896.862      284.46647     -48612.396      188.98416      196.76025      295.95552    
     44200  -48875.616      287.19774     -48588.418      188.95459      196.74059      296.07677    
     44300  -48858.919      288.28888     -48570.63       188.92579      196.72326      296.19801    
     44400  -48844.639      287.141       -48557.498      188.89994      196.70961      296.31925    
     44500  -48826.447      281.79745     -48544.65       188.87044      196.68991      296.4405     
     44600  -48813.817      285.98315     -48527.834      188.84024      196.66977      296.56174    
     44700  -48794.718      291.88401     -48502.834      188.81377      196.65217      296.68299    
     44800  -48772.975      288.13013     -48484.845      188.78351      196.62943      296.80423    
     44900  -48763.212      289.73328     -48473.479      188.75336      196.60813      296.92547    
     45000  -48739.795      279.18769     -48460.607      188.72669      196.59152      297.04672    
     45100  -48734.062      289.71695     -48444.345      188.69668      196.57195      297.16796    
     45200  -48711.356      285.57142     -48425.785      188.66792      196.55215      297.2892     
     45300  -48692.147      290.27781     -48401.869      188.64299      196.53317      297.41045    
     45400  -48673.456      289.75111     -48383.705      188.61379      196.50803      297.53169    
     45500  -48658.539      286.87483     -48371.664      188.58613      196.48512      297.65293    
     45600  -48646.696      288.48852     -48358.208      188.56114      196.4659       297.77418    
     45700  -48631.12       288.1831      -48342.937      188.53085      196.44267      297.89542    
     45800  -48613.123      285.96225     -48327.161      188.50156      196.42419      298.01666    
     45900  -48598.298      288.08725     -48310.21       188.47438      196.40794      298.13791    
     46000  -48578.103      288.92979     -48289.173      188.44298      196.38332      298.25915    
     46100  -48560.658      291.34746     -48269.311      188.41469      196.36302      298.3804     
     46200  -48544.639      289.1609      -48255.478      188.38791      196.34704      298.50164    
     46300  -48532.292      287.75937     -48244.533      188.35606      196.32572      298.62288    
     46400  -48511.878      284.42491     -48227.453      188.32705      196.30789      298.74413    
     46500  -48493.998      285.56623     -48208.432      188.29965      196.29232      298.86537    
     46600  -48474.297      285.55869     -48188.738      188.26734      196.2708       298.98661    
     46700  -48456.113      288.23961     -48167.874      188.23872      196.25226      299.10786    
     46800  -48438.09       292.48298     -48145.607      188.21026      196.23285      299.2291     
     46900  -48420.828      286.19148     -48134.637      188.17779      196.2085       299.35034    
     47000  -48410.24       287.57156     -48122.669      188.14969      196.18864      299.47159    
     47100  -48396.964      287.87314     -48109.091      188.12194      196.16927      299.59283    
     47200  -48379.506      286.22906     -48093.277      188.08896      196.14456      299.71407    
     47300  -48359.994      285.10209     -48074.891      188.06113      196.12637      299.83532    
     47400  -48345.42       292.17272     -48053.247      188.0324       196.10571      299.95656    
     47500  -48325.13       291.76016     -48033.369      188.0019       196.0815       300.0778     
     47600  -48309.218      287.02619     -48022.192      187.97627      196.06238      300.19905    
     47700  -48293.754      284.24916     -48009.505      187.94624      196.0375       300.32029    
     47800  -48278.514      286.68354     -47991.83       187.91374      196.01361      300.44154    
     47900  -48257.067      285.86053     -47971.207      187.88533      195.99743      300.56278    
     48000  -48241.425      290.32922     -47951.096      187.85608      195.97632      300.68402    
     48100  -48224.79       289.16637     -47935.624      187.82819      195.9538       300.80527    
     48200  -48211.494      285.76716     -47925.727      187.80425      195.93678      300.92651    
     48300  -48192.161      282.75662     -47909.405      187.7756       195.91403      301.04775    
     48400  -48174.025      286.76166     -47887.263      187.7469       195.89044      301.169      
     48500  -48156.978      289.7665      -47867.212      187.72125      195.86997      301.29024    
     48600  -48140.014      288.74184     -47851.272      187.68975      195.8428       301.41148    
     48700  -48125.093      288.53053     -47836.562      187.65984      195.81959      301.53273    
     48800  -48106.72       286.42446     -47820.295      187.6354       195.8033       301.65397    
     48900  -48088.516      285.47635     -47803.04       187.60767      195.78085      301.77521    
     49000  -48077.716      291.8445      -47785.872      187.58126      195.75916      301.89646    
     49100  -48056.452      286.81801     -47769.634      187.55664      195.73988      302.0177     
     49200  -48039.541      284.07848     -47755.462      187.52775      195.71449      302.13895    
     49300  -48029.258      286.17694     -47743.081      187.49878      195.69044      302.26019    
     49400  -48009.547      286.48929     -47723.057      187.47077      195.67031      302.38143    
     49500  -47987.216      287.02588     -47700.19       187.44366      195.64937      302.50268    
     49600  -47970.659      288.44305     -47682.216      187.41597      195.6242       302.62392    
     49700  -47953.769      286.92723     -47666.842      187.38824      195.59769      302.74516    
     49800  -47939.515      285.72434     -47653.791      187.3644       195.57348      302.86641    
     49900  -47922.467      281.13843     -47641.329      187.33946      195.54517      302.98765    
     50000  -47904.388      280.00909     -47624.379      187.31716      195.52048      303.10889    
     50100  -47887.753      289.02119     -47598.732      187.29767      195.50041      303.23014    
     50200  -47867.366      288.93112     -47578.435      187.27251      195.47092      303.35138    
     50300  -47852.632      289.7821      -47562.849      187.25097      195.44516      303.47262    
     50400  -47833.736      283.55129     -47550.184      187.23244      195.42573      303.59387    
     50500  -47820.036      285.942       -47534.094      187.20672      195.40005      303.71511    
     50600  -47798.384      285.40976     -47512.975      187.1822       195.379        303.83636    
     50700  -47781.336      292.60619     -47488.73       187.15707      195.35721      303.9576     
     50800  -47765.836      292.52458     -47473.311      187.12709      195.32661      304.07884    
     50900  -47745.749      286.03969     -47459.709      187.10213      195.30201      304.20009    
     51000  -47732.655      287.59087     -47445.064      187.07725      195.28197      304.32133    
     51100  -47719.547      289.17973     -47430.367      187.04805      195.26114      304.44257    
     51200  -47700.129      284.09378     -47416.035      187.02173      195.24479      304.56382    
     51300  -47685.55       283.2079      -47402.342      186.996        195.22657      304.68506    
     51400  -47668.273      281.98598     -47386.288      186.97068      195.20484      304.8063     
     51500  -47645.886      284.37821     -47361.508      186.94821      195.18404      304.92755    
     51600  -47627.125      286.60576     -47340.52       186.9237       195.15895      305.04879    
     51700  -47612.445      289.54627     -47322.899      186.90012      195.13691      305.17003    
     51800  -47595.033      285.76699     -47309.266      186.87765      195.11628      305.29128    
     51900  -47576.296      280.14821     -47296.147      186.85184      195.09136      305.41252    
     52000  -47563.639      285.22826     -47278.411      186.83025      195.07573      305.53376    
     52100  -47547.391      289.78527     -47257.605      186.80717      195.05721      305.65501    
     52200  -47527.651      288.23519     -47239.416      186.77897      195.02998      305.77625    
     52300  -47507.771      285.22902     -47222.542      186.75732      195.01042      305.8975     
     52400  -47495.387      288.19421     -47207.193      186.73686      194.98943      306.01874    
     52500  -47478.997      286.28898     -47192.708      186.71231      194.96184      306.13998    
     52600  -47461.996      286.04539     -47175.95       186.69267      194.94353      306.26123    
     52700  -47440.842      286.00519     -47154.837      186.67141      194.92472      306.38247    
     52800  -47423.038      292.0179      -47131.02       186.64652      194.90089      306.50371    
     52900  -47404.266      290.17257     -47114.094      186.6265       194.88541      306.62496    
     53000  -47390.171      288.18731     -47101.984      186.60367      194.86662      306.7462     
     53100  -47371.598      286.15083     -47085.447      186.57781      194.84354      306.86744    
     53200  -47356.364      289.05603     -47067.308      186.55632      194.82699      306.98869    
     53300  -47336.493      287.11012     -47049.383      186.53527      194.80746      307.10993    
     53400  -47319.983      285.35241     -47034.631      186.51417      194.78501      307.23117    
     53500  -47306.561      285.3137      -47021.247      186.49561      194.76644      307.35242    
     53600  -47289.589      286.98681     -47002.602      186.47449      194.74429      307.47366    
     53700  -47262.919      284.34968     -46978.57       186.45281      194.72316      307.59491    
     53800  -47250.156      293.40691     -46956.749      186.43348      194.70892      307.71615    
     53900  -47232.624      291.54526     -46941.079      186.41172      194.69071      307.83739    
     54000  -47213.988      287.39019     -46926.598      186.38953      194.67175      307.95864    
     54100  -47197.431      284.90649     -46912.525      186.36837      194.65538      308.07988    
     54200  -47184.395      287.9151      -46896.48       186.34526      194.63499      308.20112    
     54300  -47164.275      286.48746     -46877.787      186.325        194.61604      308.32237    
     54400  -47143.445      288.29887     -46855.146      186.30792      194.60015      308.44361    
     54500  -47120.633      286.97354     -46833.659      186.28648      194.57648      308.56485    
     54600  -47109.7        288.94825     -46820.752      186.267        194.55552      308.6861     
     54700  -47095.096      288.26893     -46806.827      186.2507       194.53684      308.80734    
     54800  -47075.718      284.92375     -46790.794      186.23291      194.5138       308.92858    
     54900  -47060.397      285.8867      -46774.511      186.21837      194.49651      309.04983    
     55000  -47045.838      287.05775     -46758.78       186.20317      194.47833      309.17107    
     55100  -47027.08       283.49489     -46743.585      186.187        194.45597      309.29232    
     55200  -47009.278      284.6808      -46724.597      186.17339      194.43598      309.41356    
     55300  -46985.407      285.42261     -46699.985      186.16004      194.41755      309.5348     
     55400  -46970.808      290.86646     -46679.941      186.14537      194.40035      309.65605    
     55500  -46956.353      291.05899     -46665.294      186.1284       194.3832       309.77729    
     55600  -46935.734      285.7278      -46650.006      186.1088       194.36228      309.89853    
     55700  -46920.712      288.50197     -46632.21       186.09013      194.34203      310.01978    
     55800  -46902.864      287.98253     -46614.882      186.07405      194.32453      310.14102    
     55900  -46884.181      284.1939      -46599.987      186.05727      194.30811      310.26226    
     56000  -46870.728      283.59974     -46587.128      186.04054      194.29359      310.38351    
     56100  -46849.635      281.21181     -46568.424      186.0223       194.27701      310.50475    
     56200  -46834.363      287.90456     -46546.458      186.00368      194.26099      310.62599    
     56300  -46814.288      287.61556     -46526.672      185.9867       194.24682      310.74724    
     56400  -46794.416      285.72299     -46508.693      185.97042      194.2296       310.86848    
     56500  -46778.308      284.7107      -46493.597      185.95584      194.21137      310.98972    
     56600  -46762.302      282.82495     -46479.477      185.94274      194.19539      311.11097    
     56700  -46745.553      281.63556     -46463.917      185.92869      194.17803      311.23221    
     56800  -46728.935      284.22391     -46444.711      185.91393      194.16096      311.35346    
     56900  -46709.18       289.16999     -46420.01       185.9          194.14539      311.4747     
     57000  -46691.537      293.549       -46397.988      185.88517      194.12647      311.59594    
     57100  -46671.891      289.69366     -46382.198      185.8712       194.1078       311.71719    
     57200  -46656.824      287.72896     -46369.095      185.85835      194.09175      311.83843    
     57300  -46638.436      286.83889     -46351.597      185.84555      194.07666      311.95967    
     57400  -46619.506      286.78621     -46332.72       185.83185      194.05919      312.08092    
     57500  -46599.15       285.34717     -46313.803      185.81853      194.04173      312.20216    
     57600  -46586.836      288.60425     -46298.232      185.8044       194.02426      312.3234     
     57700  -46567.457      284.23722     -46283.22       185.79001      194.00726      312.44465    
     57800  -46547.874      283.8081      -46264.066      185.77902      193.99451      312.56589    
     57900  -46529.694      288.41586     -46241.279      185.76591      193.97682      312.68713    
     58000  -46506.206      288.65405     -46217.552      185.75328      193.95685      312.80838    
     58100  -46493.138      291.40309     -46201.735      185.7444       193.94096      312.92962    
     58200  -46477.995      288.66598     -46189.33       185.73417      193.92281      313.05087    
     58300  -46457.508      284.97634     -46172.532      185.72246      193.90475      313.17211    
     58400  -46443.838      287.78355     -46156.054      185.71327      193.8934       313.29335    
     58500  -46426.037      287.2318      -46138.805      185.70145      193.87992      313.4146     
     58600  -46403.346      283.29846     -46120.048      185.68803      193.86376      313.53584    
     58700  -46388.32       286.88723     -46101.433      185.67724      193.85025      313.65708    
     58800  -46370.784      287.45798     -46083.326      185.66483      193.83244      313.77833    
     58900  -46349.293      282.57375     -46066.719      185.65171      193.8157       313.89957    
     59000  -46337.538      287.72959     -46049.809      185.63846      193.80241      314.02081    
     59100  -46317.617      284.99908     -46032.618      185.62299      193.78736      314.14206    
     59200  -46298.779      284.61336     -46014.166      185.60834      193.77384      314.2633     
     59300  -46279.503      288.41771     -45991.085      185.59544      193.76021      314.38454    
     59400  -46257.428      290.25525     -45967.173      185.58322      193.7457       314.50579    
     59500  -46237.851      288.21037     -45949.64       185.57237      193.73257      314.62703    
     59600  -46223.34       286.67905     -45936.661      185.56234      193.72022      314.74828    
     59700  -46206.24       287.94327     -45918.297      185.55154      193.70469      314.86952    
     59800  -46187.466      287.3419      -45900.125      185.54095      193.68781      314.99076    
     59900  -46173.175      289.39781     -45883.778      185.53194      193.67264      315.11201    
     60000  -46152.825      284.67745     -45868.147      185.52272      193.65691      315.23325    
     60100  -46136.056      285.8061      -45850.25       185.51285      193.63985      315.35449    
     60200  -46114.561      287.14761     -45827.414      185.503        193.62422      315.47574    
     60300  -46093.384      291.61974     -45801.764      185.49238      193.61031      315.59698    
     60400  -46072.244      288.96292     -45783.281      185.47903      193.59367      315.71822    
     60500  -46059.031      290.01425     -45769.017      185.46678      193.57967      315.83947    
     60600  -46038.404      286.07145     -45752.332      185.45671      193.56929      315.96071    
     60700  -46019.721      284.68101     -45735.04       185.44339      193.55189      316.08195    
     60800  -46004.109      287.33205     -45716.777      185.4334       193.53659      316.2032     
     60900  -45987.722      288.24748     -45699.474      185.42541      193.52215      316.32444    
     61000  -45965.637      279.30534     -45686.332      185.4149       193.50534      316.44569    
     61100  -45948.353      283.17842     -45665.175      185.40757      193.4954       316.56693    
     61200  -45929.52       288.44699     -45641.073      185.39824      193.48293      316.68817    
     61300  -45907.187      287.90968     -45619.277      185.38571      193.46616      316.80942    
     61400  -45888.521      288.91662     -45599.604      185.37515      193.45344      316.93066    
     61500  -45871.219      289.09748     -45582.122      185.36379      193.43966      317.0519     
     61600  -45852.073      288.40423     -45563.669      185.35161      193.42515      317.17315    
     61700  -45829.864      286.04467     -45543.819      185.34021      193.41152      317.29439    
     61800  -45813.428      287.89678     -45525.531      185.32912      193.39794      317.41563    
     61900  -45798.352      289.57404     -45508.778      185.31772      193.38336      317.53688    
     62000  -45776.076      286.33116     -45489.745      185.30691      193.37106      317.65812    
     62100  -45758.894      289.64935     -45469.244      185.29393      193.35744      317.77936    
     62200  -45737.776      288.44097     -45449.335      185.27983      193.34387      317.90061    
     62300  -45717.581      286.23732     -45431.344      185.2686       193.33427      318.02185    
     62400  -45701.431      285.90943     -45415.522      185.25582      193.32222      318.14309    
     62500  -45683.348      287.04275     -45396.305      185.24242      193.30884      318.26434    
     62600  -45658.203      284.65103     -45373.552      185.23265      193.298        318.38558    
     62700  -45643.557      292.75169     -45350.805      185.22277      193.2832       318.50683    
     62800  -45621.604      289.31501     -45332.289      185.21291      193.26757      318.62807    
     62900  -45600.902      284.96067     -45315.942      185.20405      193.25389      318.74931    
     63000  -45581.566      285.48511     -45296.081      185.19307      193.23792      318.87056    
     63100  -45562.497      288.0412      -45274.456      185.18085      193.22218      318.9918     
     63200  -45545.137      289.30094     -45255.837      185.16941      193.21012      319.11304    
     63300  -45524.404      283.5359      -45240.868      185.15691      193.19649      319.23429    
     63400  -45505.961      286.5462      -45219.415      185.14639      193.18324      319.35553    
     63500  -45481.62       286.46623     -45195.154      185.13733      193.17033      319.47677    
     63600  -45464.489      292.27798     -45172.211      185.12624      193.15439      319.59802    
     63700  -45443.293      286.16793     -45157.125      185.11609      193.13873      319.71926    
     63800  -45428.471      289.88632     -45138.584      185.10662      193.12136      319.8405     
     63900  -45403.528      287.13417     -45116.394      185.09693      193.10304      319.96175    
     64000  -45379.526      286.49606     -45093.03       185.08661      193.08659      320.08299    
     64100  -45362.095      288.71803     -45073.377      185.07688      193.07497      320.20424    
     64200  -45343.27       286.48445     -45056.785      185.06431      193.06147      320.32548    
     64300  -45323.261      287.83762     -45035.423      185.05166      193.04846      320.44672    
     64400  -45295.308      282.20722     -45013.1        185.03975      193.03551      320.56797    
     64500  -45280.216      285.89817     -44994.317      185.02896      193.01938      320.68921    
     64600  -45256.887      279.9786      -44976.908      185.01998      193.00159      320.81045    
     64700  -45239.305      285.86793     -44953.437      185.01169      192.9843       320.9317     
     64800  -45217.468      289.45681     -44928.011      185.0016       192.96851      321.05294    
     64900  -45195.108      292.5939      -44902.514      184.9887       192.95528      321.17418    
     65000  -45174.242      292.18243     -44882.059      184.97424      192.94385      321.29543    
     65100  -45154.371      289.7341      -44864.637      184.95953      192.92991      321.41667    
     65200  -45130.983      286.47247     -44844.51       184.94788      192.91579      321.53791    
     65300  -45106.956      282.6411      -44824.315      184.93657      192.89888      321.65916    
     65400  -45091.221      287.6932      -44803.528      184.9255       192.88163      321.7804     
     65500  -45070.194      287.13205     -44783.062      184.91659      192.86748      321.90165    
     65600  -45046.086      281.40481     -44764.681      184.9051       192.84993      322.02289    
     65700  -45025.318      283.92374     -44741.395      184.89404      192.83358      322.14413    
     65800  -45006.957      290.23939     -44716.718      184.88327      192.8179       322.26538    
     65900  -44978.145      285.51926     -44692.626      184.86997      192.79875      322.38662    
     66000  -44956.228      285.21818     -44671.01       184.85836      192.78383      322.50786    
     66100  -44940.271      288.83109     -44651.44       184.84614      192.76936      322.62911    
     66200  -44914.342      286.63056     -44627.712      184.83441      192.75363      322.75035    
     66300  -44892.365      287.98233     -44604.383      184.82523      192.73785      322.87159    
     66400  -44871.211      288.04483     -44583.166      184.81571      192.72051      322.99284    
     66500  -44847.732      285.99023     -44561.741      184.8046       192.70382      323.11408    
     66600  -44826.072      289.20859     -44536.864      184.79106      192.68777      323.23532    
     66700  -44801.529      287.8319      -44513.697      184.77614      192.6704       323.35657    
     66800  -44781.442      288.45494     -44492.987      184.76281      192.65476      323.47781    
     66900  -44756.061      285.35318     -44470.708      184.74899      192.63776      323.59905    
     67000  -44732.537      287.21931     -44445.317      184.73515      192.6205       323.7203     
     67100  -44711.514      288.84351     -44422.671      184.72297      192.60487      323.84154    
     67200  -44687.547      287.58902     -44399.958      184.71154      192.58886      323.96279    
     67300  -44661.162      285.60706     -44375.555      184.69982      192.57143      324.08403    
     67400  -44642.203      289.23522     -44352.968      184.68914      192.55428      324.20527    
     67500  -44615.022      285.42418     -44329.598      184.67751      192.53517      324.32652    
     67600  -44597.406      291.27668     -44306.13       184.66646      192.51646      324.44776    
     67700  -44573.003      289.08785     -44283.915      184.65418      192.49727      324.569      
     67800  -44548.861      288.03103     -44260.83       184.64011      192.47839      324.69025    
     67900  -44522.069      285.60525     -44236.464      184.62705      192.46201      324.81149    
     68000  -44502.067      289.47056     -44212.597      184.61275      192.44432      324.93273    
     68100  -44476.221      287.93914     -44188.282      184.59938      192.42866      325.05398    
     68200  -44451.268      287.64041     -44163.628      184.58637      192.41236      325.17522    
     68300  -44428.818      288.79063     -44140.027      184.57264      192.39291      325.29646    
     68400  -44402.078      286.06935     -44116.009      184.5608       192.37479      325.41771    
     68500  -44379.532      287.33321     -44092.199      184.54691      192.35434      325.53895    
     68600  -44359.84       291.70982     -44068.13       184.53244      192.33402      325.6602     
     68700  -44334.693      291.29021     -44043.403      184.51943      192.31649      325.78144    
     68800  -44306.391      288.87514     -44017.516      184.50521      192.297        325.90268    
     68900  -44280.319      287.64601     -43992.673      184.49259      192.27913      326.02393    
     69000  -44260.832      293.25332     -43967.579      184.48056      192.26134      326.14517    
     69100  -44231.774      289.82918     -43941.945      184.4667       192.24225      326.26641    
     69200  -44203.251      287.37652     -43915.874      184.45246      192.22365      326.38766    
     69300  -44184.98       292.96242     -43892.018      184.43655      192.2025       326.5089     
     69400  -44158.161      290.08566     -43868.076      184.42182      192.18179      326.63014    
     69500  -44128.576      286.86976     -43841.706      184.407        192.16064      326.75139    
     69600  -44108.091      291.85216     -43816.239      184.39124      192.13879      326.87263    
     69700  -44080.925      289.88615     -43791.039      184.37771      192.12129      326.99387    
     69800  -44061.085      295.40428     -43765.681      184.36259      192.10335      327.11512    
     69900  -44027.423      287.21454     -43740.208      184.34602      192.08345      327.23636    
     70000  -44005.661      290.91263     -43714.748      184.33264      192.06545      327.35761    
     70100  -43976.705      289.3294      -43687.375      184.31944      192.04429      327.47885    
     70200  -43951.699      291.675       -43660.024      184.30581      192.02193      327.60009    
     70300  -43925.725      292.07106     -43633.654      184.29252      192.00153      327.72134    
     70400  -43897.786      290.56251     -43607.223      184.2767       191.97943      327.84258    
     70500  -43873.774      293.42926     -43580.345      184.26089      191.95879      327.96382    
     70600  -43843.835      290.2537      -43553.582      184.24453      191.93844      328.08507    
     70700  -43819.133      291.25256     -43527.88       184.22759      191.91766      328.20631    
     70800  -43792.657      292.14448     -43500.513      184.21108      191.89632      328.32755    
     70900  -43771.537      296.28446     -43475.252      184.1947       191.87405      328.4488     
     71000  -43742.848      294.51216     -43448.336      184.17971      191.85292      328.57004    
     71100  -43710.982      291.17496     -43419.807      184.16433      191.83148      328.69128    
     71200  -43690.599      297.32419     -43393.275      184.14855      191.80931      328.81253    
     71300  -43659.558      292.66786     -43366.89       184.13355      191.78921      328.93377    
     71400  -43630.465      292.80973     -43337.655      184.11677      191.76731      329.05502    
     71500  -43606.366      296.12996     -43310.236      184.09924      191.74523      329.17626    
     71600  -43579.756      298.0549      -43281.701      184.08313      191.72514      329.2975     
     71700  -43550.137      296.48297     -43253.654      184.06433      191.70084      329.41875    
     71800  -43520.943      296.83324     -43224.109      184.04795      191.67807      329.53999    
     71900  -43490.236      294.08775     -43196.148      184.03237      191.65509      329.66123    
     72000  -43465.689      297.08874     -43168.6        184.01481      191.63007      329.78248    
     72100  -43440.4        299.14675     -43141.253      183.99954      191.60952      329.90372    
     72200  -43407.551      292.97449     -43114.576      183.98139      191.58529      330.02496    
     72300  -43379.764      295.26492     -43084.499      183.96391      191.56171      330.14621    
     72400  -43354.915      299.4295      -43055.485      183.94727      191.53977      330.26745    
     72500  -43324.695      298.27454     -43026.42       183.92803      191.51506      330.38869    
     72600  -43291.784      295.70601     -42996.078      183.9111       191.49396      330.50994    
     72700  -43264.944      299.1184      -42965.826      183.89334      191.47146      330.63118    
     72800  -43235.501      297.36434     -42938.137      183.87507      191.4476       330.75242    
     72900  -43205.685      294.12052     -42911.565      183.85841      191.42475      330.87367    
     73000  -43179.625      298.30615     -42881.319      183.84037      191.39904      330.99491    
     73100  -43150.635      300.16201     -42850.473      183.82184      191.37353      331.11616    
     73200  -43119.379      297.15918     -42822.22       183.80291      191.35008      331.2374     
     73300  -43090.278      297.81858     -42792.46       183.78354      191.32668      331.35864    
     73400  -43065.441      301.57329     -42763.868      183.76409      191.30264      331.47989    
     73500  -43030.913      300.9198      -42729.993      183.74477      191.27863      331.60113    
     73600  -43006.306      307.95489     -42698.351      183.72609      191.25425      331.72237    
     73700  -42971.25       303.79406     -42667.456      183.70708      191.22874      331.84362    
     73800  -42936.66       300.44933     -42636.211      183.68877      191.20406      331.96486    
     73900  -42908.028      303.86916     -42604.159      183.66967      191.17935      332.0861     
     74000  -42877.488      301.87236     -42575.616      183.64914      191.15393      332.20735    
     74100  -42851.546      308.00739     -42543.538      183.62905      191.13018      332.32859    
     74200  -42815.034      305.30491     -42509.729      183.60828      191.10561      332.44983    
     74300  -42783.861      305.89872     -42477.962      183.5877       191.07981      332.57108    
     74400  -42750.027      305.15326     -42444.874      183.56877      191.05417      332.69232    
     74500  -42720.03       307.58263     -42412.447      183.54922      191.02682      332.81357    
     74600  -42690.623      309.23903     -42381.384      183.52916      190.99825      332.93481    
     74700  -42661.015      311.44501     -42349.57       183.51059      190.97158      333.05605    
     74800  -42635.296      316.89564     -42318.4        183.49069      190.94354      333.1773     
     74900  -42598.914      310.90697     -42288.007      183.47044      190.91574      333.29854    
     75000  -42566.53       313.25986     -42253.27       183.45115      190.88945      333.41978    
     75100  -42533.159      314.66167     -42218.497      183.43118      190.86229      333.54103    
     75200  -42497.259      311.29698     -42185.962      183.41076      190.83507      333.66227    
     75300  -42474.014      321.80402     -42152.21       183.39041      190.80803      333.78351    
     75400  -42435.307      317.60754     -42117.7        183.36956      190.77962      333.90476    
     75500  -42404.291      320.53068     -42083.761      183.3491       190.75064      334.026      
     75600  -42368.104      317.19342     -42050.91       183.32901      190.7219       334.14724    
     75700  -42334.7        318.53812     -42016.162      183.3085       190.69311      334.26849    
     75800  -42305.303      325.83073     -41979.472      183.28793      190.66525      334.38973    
     75900  -42266.211      319.26701     -41946.944      183.26662      190.63768      334.51098    
     76000  -42242.591      324.41302     -41918.178      183.2448       190.60939      334.63222    
     76100  -42204.425      323.19529     -41881.23       183.22341      190.58119      334.75346    
     76200  -42174.932      332.35917     -41842.573      183.2014       190.55202      334.87471    
     76300  -42134.698      330.8172      -41803.881      183.17944      190.52312      334.99595    
     76400  -42105.396      332.46792     -41772.928      183.15713      190.49331      335.11719    
     76500  -42068.669      330.66552     -41738.004      183.13566      190.46452      335.23844    
     76600  -42035.911      334.18301     -41701.728      183.11327      190.43592      335.35968    
     76700  -41992.948      334.01675     -41658.931      183.09038      190.40716      335.48092    
     76800  -41951.441      330.77623     -41620.665      183.06813      190.37929      335.60217    
     76900  -41921.46       338.22471     -41583.236      183.0454       190.35023      335.72341    
     77000  -41890.889      342.46518     -41548.424      183.02281      190.32088      335.84465    
     77100  -41849.618      342.22823     -41507.389      183.00076      190.29165      335.9659     
     77200  -41812.942      340.09965     -41472.842      182.9778       190.26095      336.08714    
     77300  -41786.713      347.41062     -41439.303      182.95534      190.23058      336.20838    
     77400  -41829.089      424.14384     -41404.946      182.9328       190.20042      336.32963    
     77500  -42160.896      688.61604     -41472.28       182.91028      190.17071      336.45087    
     77600  -43133.694      1302.5107     -41831.184      182.88734      190.14121      336.57212    
     77700  -44722.181      1819.7074     -42902.474      182.87341      190.11936      336.69336    
     77800  -46662.557      2045.8265     -44616.73       182.88316      190.11934      336.8146     
     77900  -48469.331      1824.8986     -46644.432      182.91412      190.1359       336.93585    
     78000  -49896.167      1518.4836     -48377.683      182.93764      190.14938      337.05709    
     78100  -51034.51       1253.507      -49781.003      182.95757      190.1649       337.17833    
     78200  -51896.028      1008.435      -50887.593      182.98326      190.19068      337.29958    
     78300  -52387.987      738.39141     -51649.595      183.02054      190.22894      337.42082    
     78400  -52605.98       503.44747     -52102.533      183.06793      190.28524      337.54206    
     78500  -52646.643      324.85524     -52321.787      183.11585      190.3446       337.66331    
     78600  -52685.422      263.81813     -52421.604      183.15214      190.39486      337.78455    
     78700  -52683.707      235.54494     -52448.162      183.19041      190.4496       337.90579    
     78800  -52660.813      261.57157     -52399.242      183.22544      190.49732      338.02704    
     78900  -52653.219      323.33503     -52329.884      183.25722      190.5338       338.14828    
     79000  -52640.951      317.69018     -52323.261      183.29513      190.57302      338.26953    
     79100  -52649.549      278.15404     -52371.395      183.32805      190.60791      338.39077    
     79200  -52660.736      262.78644     -52397.95       183.36614      190.64954      338.51201    
     79300  -52658.008      272.45982     -52385.549      183.40341      190.6938       338.63326    
     79400  -52657.518      301.05732     -52356.461      183.4377       190.73358      338.7545     
     79500  -52661.684      304.74876     -52356.935      183.47455      190.77807      338.87574    
     79600  -52669.62       280.71651     -52388.904      183.51231      190.82728      338.99699    
     79700  -52662.545      259.17658     -52403.368      183.5427       190.86418      339.11823    
     79800  -52660.13       278.87492     -52381.255      183.58108      190.90593      339.23947    
     79900  -52645.931      296.30987     -52349.621      183.62013      190.94658      339.36072    
     80000  -52644.805      302.04869     -52342.756      183.6536       190.97767      339.48196    
     80100  -52656.629      291.99888     -52364.63       183.69521      191.01676      339.6032     
     80200  -52672.395      281.56291     -52390.833      183.72667      191.05502      339.72445    
     80300  -52683.035      277.46178     -52405.573      183.75427      191.0909       339.84569    
     80400  -52695.551      287.49721     -52408.054      183.79608      191.14189      339.96694    
     80500  -52689.394      284.46976     -52404.924      183.82736      191.17218      340.08818    
     80600  -52687.6        285.29584     -52402.304      183.85973      191.19562      340.20942    
     80700  -52679.412      283.22471     -52396.187      183.89772      191.21882      340.33067    
     80800  -52683.1        296.65563     -52386.445      183.93046      191.23976      340.45191    
     80900  -52686.82       293.22814     -52393.592      183.9574       191.27201      340.57315    
     81000  -52694.68       280.22999     -52414.45       183.97122      191.2915       340.6944     
     81100  -52695.707      272.26467     -52423.442      183.99897      191.32383      340.81564    
     81200  -52687.738      283.3716      -52404.366      184.0215       191.34579      340.93688    
     81300  -52674.718      299.10748     -52375.611      184.04578      191.36978      341.05813    
     81400  -52669.392      301.59525     -52367.797      184.07136      191.39534      341.17937    
     81500  -52687.716      295.07597     -52392.64       184.08774      191.40904      341.30061    
     81600  -52694.665      272.64031     -52422.024      184.10493      191.43525      341.42186    
     81700  -52692.77       270.2418      -52422.529      184.12255      191.46516      341.5431     
     81800  -52682.986      288.29091     -52394.695      184.13095      191.48658      341.66435    
     81900  -52671.282      300.15757     -52371.125      184.14539      191.5149       341.78559    
     82000  -52679.395      299.15662     -52380.238      184.15605      191.54197      341.90683    
     82100  -52690.021      279.5551      -52410.466      184.1648       191.55886      342.02808    
     82200  -52698.392      275.28862     -52423.104      184.18383      191.58632      342.14932    
     82300  -52687.123      277.87113     -52409.251      184.19917      191.61631      342.27056    
     82400  -52681.979      296.31571     -52385.664      184.20945      191.63667      342.39181    
     82500  -52677.596      299.74659     -52377.849      184.22704      191.66617      342.51305    
     82600  -52682.58       289.65549     -52392.924      184.23757      191.68986      342.63429    
     82700  -52691.241      277.91634     -52413.325      184.2542       191.72054      342.75554    
     82800  -52697.465      276.42884     -52421.037      184.26657      191.74964      342.87678    
     82900  -52698.118      286.36743     -52411.751      184.27289      191.77417      342.99802    
     83000  -52691.592      295.2623      -52396.33       184.28451      191.79795      343.11927    
     83100  -52683.771      294.13391     -52389.637      184.29553      191.82123      343.24051    
     83200  -52690.01       293.00611     -52397.004      184.30296      191.83956      343.36175    
     83300  -52693.441      283.23485     -52410.206      184.3135       191.86127      343.483      
     83400  -52698.662      282.36256     -52416.3        184.32376      191.88479      343.60424    
     83500  -52687.447      277.22675     -52410.22       184.33396      191.91192      343.72549    
     83600  -52685.84       290.69575     -52395.144      184.34286      191.93661      343.84673    
     83700  -52680.556      292.88965     -52387.666      184.35501      191.9612       343.96797    
     83800  -52686.511      292.13439     -52394.377      184.36186      191.97545      344.08922    
     83900  -52697.598      286.46295     -52411.135      184.37172      191.98643      344.21046    
     84000  -52700.33       275.78959     -52424.54       184.38368      191.99718      344.3317     
     84100  -52704.475      281.52072     -52422.954      184.39639      192.00785      344.45295    
     84200  -52695.126      286.42981     -52408.697      184.41172      192.02308      344.57419    
     84300  -52690.19       296.65544     -52393.534      184.42446      192.03065      344.69543    
     84400  -52688.005      296.17234     -52391.833      184.43361      192.0331       344.81668    
     84500  -52688.352      285.96444     -52402.388      184.44756      192.04582      344.93792    
     84600  -52700.237      288.1684      -52412.068      184.45956      192.06025      345.05916    
     84700  -52699.907      282.31555     -52417.592      184.46993      192.07098      345.18041    
     84800  -52704.748      288.87535     -52415.872      184.47766      192.07565      345.30165    
     84900  -52695.68       285.56711     -52410.113      184.48015      192.07778      345.4229     
     85000  -52694.903      289.48702     -52405.416      184.48328      192.08199      345.54414    
     85100  -52690.732      287.77127     -52402.961      184.49019      192.0897       345.66538    
     85200  -52687.822      284.2932      -52403.529      184.49975      192.10155      345.78663    
     85300  -52694.428      290.09276     -52404.335      184.50991      192.1151       345.90787    
     85400  -52691.947      285.69471     -52406.253      184.52073      192.12737      346.02911    
     85500  -52695.652      287.64177     -52408.011      184.53009      192.13596      346.15036    
     85600  -52692.243      284.12537     -52408.117      184.54292      192.14666      346.2716     
     85700  -52692.795      288.56316     -52404.232      184.55357      192.1539       346.39284    
     85800  -52691.294      287.21034     -52404.083      184.56159      192.16132      346.51409    
     85900  -52693.668      285.9016      -52407.766      184.56883      192.16988      346.63533    
     86000  -52697.314      284.79133     -52412.522      184.57668      192.18081      346.75657    
     86100  -52699.636      285.05932     -52414.577      184.5841       192.1891       346.87782    
     86200  -52700.903      288.66043     -52412.243      184.59348      192.19232      346.99906    
     86300  -52694.089      285.83649     -52408.253      184.60746      192.19607      347.12031    
     86400  -52695.131      288.48244     -52406.648      184.62226      192.19558      347.24155    
     86500  -52699.362      290.55637     -52408.805      184.6414       192.2001       347.36279    
     86600  -52697.692      285.31788     -52412.375      184.66311      192.20325      347.48404    
     86700  -52703.495      290.00601     -52413.489      184.67839      192.19718      347.60528    
     86800  -52702.421      287.59455     -52414.827      184.69719      192.19776      347.72652    
     86900  -52697.595      282.21054     -52415.385      184.71215      192.19323      347.84777    
     87000  -52699.475      286.09273     -52413.382      184.72704      192.19278      347.96901    
     87100  -52698.409      289.89491     -52408.514      184.74063      192.19639      348.09025    
     87200  -52699.759      293.39504     -52406.364      184.75033      192.1932       348.2115     
     87300  -52697.204      285.03751     -52412.167      184.76038      192.19789      348.33274    
     87400  -52695.814      276.70772     -52419.107      184.77105      192.20327      348.45398    
     87500  -52705.408      286.02498     -52419.383      184.78071      192.20034      348.57523    
     87600  -52700.547      286.52002     -52414.027      184.79349      192.19923      348.69647    
     87700  -52698.483      291.2528      -52407.23       184.80374      192.19891      348.81771    
     87800  -52698.632      291.70409     -52406.928      184.8108       192.20171      348.93896    
     87900  -52702.899      288.92129     -52413.978      184.81812      192.20601      349.0602     
     88000  -52703.566      283.09563     -52420.471      184.82573      192.21189      349.18145    
     88100  -52703.165      282.19008     -52420.975      184.83807      192.22281      349.30269    
     88200  -52701.418      287.57828     -52413.84       184.84888      192.22969      349.42393    
     88300  -52696.307      290.72486     -52405.582      184.85695      192.23255      349.54518    
     88400  -52699.128      292.8019      -52406.326      184.86516      192.23887      349.66642    
     88500  -52703.047      287.18487     -52415.862      184.86996      192.24406      349.78766    
     88600  -52705.406      283.28194     -52422.124      184.87702      192.25139      349.90891    
     88700  -52707.542      284.00449     -52423.538      184.88371      192.25659      350.03015    
     88800  -52704.461      287.05274     -52417.408      184.89227      192.26005      350.15139    
     88900  -52698.887      290.01239     -52408.875      184.90445      192.26392      350.27264    
     89000  -52695.917      290.61906     -52405.298      184.91479      192.26429      350.39388    
     89100  -52695.068      285.55943     -52409.508      184.9298       192.26958      350.51512    
     89200  -52703.624      286.37823     -52417.245      184.9424       192.27149      350.63637    
     89300  -52706.478      284.68805     -52421.79       184.95722      192.27714      350.75761    
     89400  -52705.112      285.40486     -52419.707      184.97019      192.27823      350.87886    
     89500  -52704.346      290.36199     -52413.984      184.98239      192.27449      351.0001     
     89600  -52701.897      291.31248     -52410.585      184.99666      192.27329      351.12134    
     89700  -52702.282      290.41361     -52411.869      185.00967      192.2688       351.24259    
     89800  -52704.57       289.70626     -52414.863      185.02489      192.27145      351.36383    
     89900  -52703.058      287.45408     -52415.604      185.0428       192.27454      351.48507    
     90000  -52700.392      285.77653     -52414.615      185.06         192.27005      351.60632    
     90100  -52700.864      287.35447     -52413.509      185.07937      192.26629      351.72756    
     90200  -52702.121      288.10558     -52414.015      185.09699      192.25883      351.8488     
     90300  -52699.324      283.35784     -52415.966      185.11652      192.25478      351.97005    
     90400  -52701.022      283.20225     -52417.82       185.1335       192.25304      352.09129    
     90500  -52701.19       282.85964     -52418.33       185.15078      192.25289      352.21253    
     90600  -52702.742      287.61573     -52415.126      185.16917      192.2516       352.33378    
     90700  -52694.543      284.28154     -52410.261      185.18554      192.24874      352.45502    
     90800  -52699.653      289.58514     -52410.068      185.20019      192.2485       352.57627    
     90900  -52707.844      291.68638     -52416.158      185.21127      192.24937      352.69751    
     91000  -52711.041      284.26185     -52426.779      185.21905      192.25129      352.81875    
     91100  -52710.39       278.486       -52431.904      185.22979      192.2578       352.94       
     91200  -52711.181      285.20165     -52425.979      185.24246      192.2616       353.06124    
     91300  -52704.11       288.87558     -52415.235      185.25516      192.26409      353.18248    
     91400  -52703.284      294.04685     -52409.237      185.26749      192.26583      353.30373    
     91500  -52704.949      290.6733      -52414.275      185.27761      192.26124      353.42497    
     91600  -52707.709      284.02336     -52423.685      185.29121      192.26057      353.54621    
     91700  -52711.061      282.41118     -52428.649      185.30711      192.26332      353.66746    
     91800  -52711.946      286.8309      -52425.115      185.32365      192.2644       353.7887     
     91900  -52705.1        288.26113     -52416.838      185.34011      192.26756      353.90994    
     92000  -52702.829      291.20989     -52411.619      185.35293      192.25852      354.03119    
     92100  -52701.141      287.39117     -52413.75       185.37067      192.25257      354.15243    
     92200  -52708.593      287.09339     -52421.5        185.39401      192.25364      354.27368    
     92300  -52707.44       279.83218     -52427.608      185.41194      192.24541      354.39492    
     92400  -52707.676      281.99598     -52425.68       185.43139      192.24264      354.51616    
     92500  -52701.906      283.31805     -52418.588      185.45123      192.24219      354.63741    
     92600  -52704.422      291.21415     -52413.208      185.46733      192.23745      354.75865    
     92700  -52706.355      290.6158      -52415.739      185.48735      192.23937      354.87989    
     92800  -52710.047      286.84649     -52423.201      185.50259      192.2351       355.00114    
     92900  -52710.85       283.28229     -52427.568      185.52047      192.23612      355.12238    
     93000  -52705.053      281.18045     -52423.873      185.53814      192.24266      355.24362    
     93100  -52705.866      290.54456     -52415.321      185.55044      192.2426       355.36487    
     93200  -52700.262      289.95207     -52410.31       185.56336      192.24472      355.48611    
     93300  -52702.684      289.17852     -52413.506      185.57529      192.24099      355.60735    
     93400  -52710.437      288.00809     -52422.429      185.58992      192.2402       355.7286     
     93500  -52710.274      281.68491     -52428.589      185.60788      192.24133      355.84984    
     93600  -52708.917      282.19625     -52426.721      185.62377      192.24144      355.97108    
     93700  -52706.858      289.49143     -52417.366      185.64305      192.24682      356.09233    
     93800  -52701.568      292.90652     -52408.661      185.65901      192.24965      356.21357    
     93900  -52701.995      292.51119     -52409.484      185.67448      192.2495       356.33482    
     94000  -52707.047      287.58691     -52419.46       185.69129      192.24724      356.45606    
     94100  -52715.774      286.57675     -52429.198      185.70768      192.24388      356.5773     
     94200  -52711.712      281.9815      -52429.73       185.72511      192.24014      356.69855    
     94300  -52710.497      289.56362     -52420.933      185.74766      192.23773      356.81979    
     94400  -52706.573      294.22888     -52412.344      185.76686      192.23192      356.94103    
     94500  -52701.516      290.28884     -52411.227      185.78678      192.22851      357.06228    
     94600  -52706.424      287.24061     -52419.183      185.80758      192.22447      357.18352    
     94700  -52711.395      282.9987      -52428.396      185.82633      192.21734      357.30476    
     94800  -52713.135      283.347       -52429.788      185.84939      192.21452      357.42601    
     94900  -52709.96       287.85761     -52422.102      185.86827      192.21035      357.54725    
     95000  -52703.457      290.06363     -52413.394      185.88843      192.21166      357.66849    
     95100  -52703.994      293.62449     -52410.369      185.90992      192.21038      357.78974    
     95200  -52706.598      290.87287     -52415.725      185.92693      192.20409      357.91098    
     95300  -52710.083      285.44428     -52424.639      185.94976      192.19896      358.03223    
     95400  -52709.84       281.53641     -52428.304      185.97374      192.18977      358.15347    
     95500  -52710.894      286.99212     -52423.902      185.99816      192.18151      358.27471    
     95600  -52703.93       287.81972     -52416.11       186.02521      192.17126      358.39596    
     95700  -52704.658      291.93493     -52412.723      186.04913      192.15346      358.5172     
     95800  -52705.672      288.31636     -52417.355      186.07668      192.1419       358.63844    
     95900  -52712.251      287.37192     -52424.879      186.10085      192.12643      358.75969    
     96000  -52711.243      281.41722     -52429.825      186.12408      192.11487      358.88093    
     96100  -52712.202      284.65957     -52427.543      186.14584      192.10475      359.00217    
     96200  -52705.254      285.3387      -52419.915      186.16703      192.09695      359.12342    
     96300  -52706.412      293.41426     -52412.997      186.19401      192.09292      359.24466    
     96400  -52708.009      294.07366     -52413.935      186.22207      192.08879      359.3659     
     96500  -52708.057      286.05596     -52422.001      186.24239      192.08206      359.48715    
     96600  -52711.792      283.09896     -52428.693      186.26401      192.07753      359.60839    
     96700  -52712.599      284.99151     -52427.608      186.28513      192.07215      359.72964    
     96800  -52708.32       288.87092     -52419.449      186.31009      192.06519      359.85088    
     96900  -52701.71       290.03098     -52411.679      186.33675      192.05904      359.97212    
     97000  -52707.472      293.41165     -52414.061      186.3587       192.05007      360.09337    
     97100  -52712.692      288.77889     -52423.913      186.38463      192.0452       360.21461    
     97200  -52717.212      286.41631     -52430.795      186.407        192.04233      360.33585    
     97300  -52713.049      283.76948     -52429.279      186.42273      192.038        360.4571     
     97400  -52710.95       289.18949     -52421.761      186.44486      192.03932      360.57834    
     97500  -52705.783      290.29625     -52415.487      186.4651       192.03978      360.69958    
     97600  -52708.084      291.27892     -52416.805      186.48665      192.04155      360.82083    
     97700  -52709.44       286.5231      -52422.917      186.50959      192.04201      360.94207    
     97800  -52712.3        284.84734     -52427.453      186.52896      192.0384       361.06331    
     97900  -52708.908      282.49872     -52426.409      186.549        192.03795      361.18456    
     98000  -52710.293      289.23569     -52421.057      186.56714      192.03569      361.3058     
     98100  -52706.652      289.03253     -52417.619      186.58929      192.0347       361.42704    
     98200  -52705.663      287.17074     -52418.492      186.61255      192.03008      361.54829    
     98300  -52705.805      282.93858     -52422.867      186.63572      192.0246       361.66953    
     98400  -52710.176      283.4459      -52426.73       186.65937      192.01911      361.79078    
     98500  -52713.372      287.22838     -52426.143      186.68214      192.01112      361.91202    
     98600  -52710.076      288.07099     -52422.005      186.70378      192.00421      362.03326    
     98700  -52710.626      293.19995     -52417.426      186.72713      192.00127      362.15451    
     98800  -52709.245      291.608       -52417.637      186.75033      192.00092      362.27575    
     98900  -52708.649      286.28009     -52422.369      186.77086      191.99681      362.39699    
     99000  -52711.124      285.04081     -52426.083      186.7998       191.99524      362.51824    
     99100  -52709.221      284.22468     -52424.996      186.82295      191.99082      362.63948    
     99200  -52709.993      289.90207     -52420.091      186.84187      191.98838      362.76072    
     99300  -52705.5        289.80099     -52415.699      186.86154      191.98935      362.88197    
     99400  -52706.529      289.75208     -52416.776      186.87593      191.98898      363.00321    
     99500  -52711.576      288.32184     -52423.254      186.89363      191.99364      363.12445    
     99600  -52715.494      285.31979     -52430.174      186.9098       192.00092      363.2457     
     99700  -52713.294      282.04893     -52431.245      186.92424      192.00635      363.36694    
     99800  -52710.701      285.10239     -52425.599      186.93909      192.01204      363.48819    
     99900  -52709.585      291.22149     -52418.364      186.95457      192.02334      363.60943    
    100000  -52709.693      293.36191     -52416.331      186.96668      192.031        363.73067    
Loop time of 1121.09 on 32 procs for 100000 steps with 7400 atoms

Performance: 7.707 ns/day, 3.114 hours/ns, 89.199 timesteps/s, 660.074 katom-step/s
94.7% CPU use with 32 MPI tasks x 1 OpenMP threads

MPI task timing breakdown:
Section |  min time  |  avg time  |  max time  |%varavg| %total
---------------------------------------------------------------
Pair    | 0.054356   | 376.44     | 998.79     |2006.7 | 33.58
Neigh   | 0.0056304  | 3.7098     | 9.4876     | 195.8 |  0.33
Comm    | 0.1517     | 163.69     | 490.51     |1446.4 | 14.60
Output  | 0.31849    | 0.35755    | 0.45088    |   4.8 |  0.03
Modify  | 31.556     | 575.07     | 1118.2     |2226.6 | 51.30
Other   |            | 1.821      |            |       |  0.16

Nlocal:         231.25 ave         911 max           0 min
Histogram: 15 2 0 7 3 0 1 2 0 2
Nghost:        868.125 ave        2115 max           0 min
Histogram: 16 0 0 0 0 0 2 5 5 4
Neighs:              0 ave           0 max           0 min
Histogram: 32 0 0 0 0 0 0 0 0 0

Total # of neighbors = 0
Ave neighs/atom = 0
Neighbor list builds = 670
Dangerous builds = 0
Total wall time: 0:18:41
