LAMMPS (2 Aug 2023 - Update 3)
OMP_NUM_THREADS environment is not set. Defaulting to 1 thread. (src/comm.cpp:98)
  using 1 OpenMP thread(s) per MPI task

# 1------general---------------
units                             metal      #单位为lammps 中的metel 类型
dimension                    3          #模拟的维度 三维
boundary                    p p p      #周期边界条件
atom_style                  atomic   #原子类型自动
atom_modify              map array sort 100 2.0
neighbor                    3.0 bin
neigh_modify            every 1 delay 0 check yes
#2 -----global variable-------定义全局变量，方便统一修改；
variable temperature equal 300
variable tstep equal 0.001
variable pressure equal 0
variable thermalstep equal 100
variable dumpstep equal 1000
variable relaxtime equal 0
variable totaltime equal 100000
variable deformrate equal 5e-3
#3 -------model------------
#box tilt large
read_data     1.lmp
Reading data file ...
  orthogonal box = (-100 -100 -2.3312512) to (100 100 41.316429)
  3 by 4 by 1 MPI processor grid
  reading atoms ...
  1824 atoms
  read_data CPU = 0.144 seconds
replicate 1 1 1
Replication is creating a 1x1x1 = 1 times larger system...
  orthogonal box = (-100 -100 -2.3312512) to (100 100 41.316429)
  3 by 4 by 1 MPI processor grid
  1824 atoms
  replicate CPU = 0.033 seconds
group SR type 2 3
600 atoms in group SR
delete_atoms group SR
Deleted 600 atoms, new total = 1224
write_data h.data
System init for write_data ...
WARNING: Communication cutoff is 0.0. No ghost atoms will be generated. Atoms may get lost. (src/comm_brick.cpp:210)
pair_style hybrid airebo 3.0 airebo 3.0 airebo 3.0 lj/cut 10
pair_coeff * * airebo 1 CH.airebo C NULL NULL
Reading airebo potential file CH.airebo with DATE: 2011-10-25
pair_coeff * * airebo 2 CH.airebo NULL C NULL
Reading airebo potential file CH.airebo with DATE: 2011-10-25
pair_coeff * * airebo 3 CH.airebo NULL NULL C
Reading airebo potential file CH.airebo with DATE: 2011-10-25
pair_coeff 1 2 lj/cut 0.00456 3.431
pair_coeff 1 3 lj/cut 0.00456 3.431
pair_coeff 2 3 lj/cut 0.00456 3.431

# 5------minimize -----------
min_style      sd
minimize       1.0e-4 1.0e-6 100 1000
Neighbor list info ...
  update: every = 1 steps, delay = 0 steps, check = yes
  max neighbors/atom: 2000, page size: 100000
  master list distance cutoff = 13.2
  ghost atom cutoff = 13.2
  binsize = 6.6, bins = 31 31 7
  6 neighbor lists, perpetual/occasional/extra = 6 0 0
  (1) pair airebo, perpetual, skip from (5)
      attributes: full, newton on, ghost
      pair build: skip/ghost
      stencil: none
      bin: none
  (2) pair airebo, perpetual, skip from (5)
      attributes: full, newton on, ghost
      pair build: skip/ghost
      stencil: none
      bin: none
  (3) pair airebo, perpetual, skip from (5)
      attributes: full, newton on, ghost
      pair build: skip/ghost
      stencil: none
      bin: none
  (4) pair lj/cut, perpetual, skip from (6)
      attributes: half, newton on, cut 13
      pair build: skip
      stencil: none
      bin: none
  (5) neighbor class addition, perpetual
      attributes: full, newton on, ghost
      pair build: full/bin/ghost
      stencil: full/ghost/bin/3d
      bin: standard
  (6) neighbor class addition, perpetual
      attributes: half, newton on, cut 13
      pair build: half/bin/atomonly/newton
      stencil: half/bin/3d
      bin: standard
Per MPI rank memory allocation (min/avg/max) = 9.701 | 9.867 | 10.7 Mbytes
   Step          Temp          E_pair         E_mol          TotEng         Press     
         0   0             -9078.3608      0             -9078.3608     -77.843168    
         1   0             -9078.3675      0             -9078.3675     -77.708063    
Loop time of 0.0969536 on 12 procs for 1 steps with 1224 atoms

80.7% CPU use with 12 MPI tasks x 1 OpenMP threads

Minimization stats:
  Stopping criterion = energy tolerance
  Energy initial, next-to-last, final = 
     -9078.36084145832  -9078.36084145832  -9078.36751280455
  Force two-norm initial, final = 1.2851822 0.33132331
  Force max component initial, final = 0.036762983 0.0094736875
  Final line search alpha, max atom move = 1 0.0094736875
  Iterations, force evaluations = 1 2

MPI task timing breakdown:
Section |  min time  |  avg time  |  max time  |%varavg| %total
---------------------------------------------------------------
Pair    | 7.555e-06  | 0.0040676  | 0.024375   |  14.2 |  4.20
Neigh   | 0          | 0          | 0          |   0.0 |  0.00
Comm    | 2.225e-06  | 0.00015447 | 0.00094468 |   0.0 |  0.16
Output  | 0          | 0          | 0          |   0.0 |  0.00
Modify  | 0          | 0          | 0          |   0.0 |  0.00
Other   |            | 0.09273    |            |       | 95.65

Nlocal:            102 ave         630 max           0 min
Histogram: 10 0 0 0 0 0 0 0 0 2
Nghost:            221 ave        1344 max           0 min
Histogram: 10 0 0 0 0 0 0 0 0 2
Neighs:              0 ave           0 max           0 min
Histogram: 12 0 0 0 0 0 0 0 0 0

Total # of neighbors = 0
Ave neighs/atom = 0
Neighbor list builds = 0
Dangerous builds = 0
#6----define computes------
variable nums equal count(all) #计算原子数目
variable toval equal 22.7273*22.7165*lz #计算系统总体积，单层石墨烯厚度为0.335nm
variable vol equal ${toval} #体系的初始体积
variable vol equal 22534.6300117269 
variable vatom equal v_vol/v_nums #单个原子体积
compute 1 all stress/atom NULL #计算体系中单原子应力
compute xalls all reduce sum c_1[1]
variable xstress equal (c_xalls)/(v_toval*10000)
compute yalls all reduce sum c_1[2]
variable ystress equal (c_yalls)/(v_toval*10000)
compute zalls all reduce sum c_1[3]
variable zstress equal (c_zalls)/(v_toval*10000)
#7---------relaxation-------------------------
timestep ${tstep}
timestep 0.001
velocity all create ${temperature} 231743 units box dist gaussian
velocity all create 300 231743 units box dist gaussian
dump   1 all atom 100 all-cy.lammpstrj
#fix    1 all npt temp 300 300  0.1 aniso 0 0 10 drag 1  #三个方向独立控压
fix  1 all npt temp ${temperature} ${temperature} 0.1 x ${pressure} ${pressure} 10 y ${pressure} ${pressure} 10
fix  1 all npt temp 300 ${temperature} 0.1 x ${pressure} ${pressure} 10 y ${pressure} ${pressure} 10
fix  1 all npt temp 300 300 0.1 x ${pressure} ${pressure} 10 y ${pressure} ${pressure} 10
fix  1 all npt temp 300 300 0.1 x 0 ${pressure} 10 y ${pressure} ${pressure} 10
fix  1 all npt temp 300 300 0.1 x 0 0 10 y ${pressure} ${pressure} 10
fix  1 all npt temp 300 300 0.1 x 0 0 10 y 0 ${pressure} 10
fix  1 all npt temp 300 300 0.1 x 0 0 10 y 0 0 10
compute  2 all pe/atom
compute  pe all reduce sum c_2
variable PE equal "c_pe"
fix    pe all print 100 "${PE} " file PE.txt screen no
thermo  ${thermalstep}
thermo  100
#thermo_style  custom step pe ke etotal lx ly lz
run   ${relaxtime}
run   0
Per MPI rank memory allocation (min/avg/max) = 10.33 | 10.49 | 11.32 Mbytes
   Step          Temp          E_pair         E_mol          TotEng         Press          Volume    
         1   300           -9078.3675      0             -9030.942      -48.693884      1745907.2    
Loop time of 0.00203497 on 12 procs for 0 steps with 1224 atoms

79.6% CPU use with 12 MPI tasks x 1 OpenMP threads

MPI task timing breakdown:
Section |  min time  |  avg time  |  max time  |%varavg| %total
---------------------------------------------------------------
Pair    | 0          | 0          | 0          |   0.0 |  0.00
Neigh   | 0          | 0          | 0          |   0.0 |  0.00
Comm    | 0          | 0          | 0          |   0.0 |  0.00
Output  | 0          | 0          | 0          |   0.0 |  0.00
Modify  | 0          | 0          | 0          |   0.0 |  0.00
Other   |            | 0.002035   |            |       |100.00

Nlocal:            102 ave         612 max           0 min
Histogram: 10 0 0 0 0 0 0 0 0 2
Nghost:            221 ave        1326 max           0 min
Histogram: 10 0 0 0 0 0 0 0 0 2
Neighs:              0 ave           0 max           0 min
Histogram: 12 0 0 0 0 0 0 0 0 0

Total # of neighbors = 0
Ave neighs/atom = 0
Neighbor list builds = 0
Dangerous builds = 0
#8 -------tension-----------------------------
unfix  1
undump  1
unfix  pe
reset_timestep 0
fix avestress all ave/atom 1 ${dumpstep} ${dumpstep} c_1[1] c_1[2] c_1[3] c_1[4] c_1[5] c_1[6]
fix avestress all ave/atom 1 1000 ${dumpstep} c_1[1] c_1[2] c_1[3] c_1[4] c_1[5] c_1[6]
fix avestress all ave/atom 1 1000 1000 c_1[1] c_1[2] c_1[3] c_1[4] c_1[5] c_1[6]

#-----calculation of strain and Cumulative compression--------
variable                tmp equal "lz"
variable                L0 equal ${tmp}
variable                L0 equal 43.6476803508
variable                strain equal "(lz - v_L0)/v_L0"
variable                Cumulativels equal "(lz - v_L0)/10"
fix Step all print 100 "${strain} ${Cumulativels} ${zstress}" file grapoten.txt screen no

dump 2 all custom ${dumpstep} tension.xyz type x y z f_avestress[1] f_avestress[2] f_avestress[3] f_avestress[4] f_avestress[5] f_avestress[6]
dump 2 all custom 1000 tension.xyz type x y z f_avestress[1] f_avestress[2] f_avestress[3] f_avestress[4] f_avestress[5] f_avestress[6]

fix  1 all npt temp ${temperature} ${temperature} 0.1 y ${pressure} ${pressure} 10 x ${pressure} ${pressure} 10
fix  1 all npt temp 300 ${temperature} 0.1 y ${pressure} ${pressure} 10 x ${pressure} ${pressure} 10
fix  1 all npt temp 300 300 0.1 y ${pressure} ${pressure} 10 x ${pressure} ${pressure} 10
fix  1 all npt temp 300 300 0.1 y 0 ${pressure} 10 x ${pressure} ${pressure} 10
fix  1 all npt temp 300 300 0.1 y 0 0 10 x ${pressure} ${pressure} 10
fix  1 all npt temp 300 300 0.1 y 0 0 10 x 0 ${pressure} 10
fix  1 all npt temp 300 300 0.1 y 0 0 10 x 0 0 10

thermo_style custom step pe ke etotal lx ly lz
fix   2 all deform 1 z erate ${deformrate} remap x units box
fix   2 all deform 1 z erate 0.005 remap x units box
fix   3 all ave/time 2 500 1000 v_xstress v_ystress v_zstress file pressure.out
run   ${totaltime}
run   100000
WARNING: Dump 2 includes no atom IDs and is not sorted by ID. This may complicate post-processing tasks or visualization (src/dump.cpp:221)
Per MPI rank memory allocation (min/avg/max) = 11.83 | 11.99 | 12.82 Mbytes
   Step         PotEng         KinEng         TotEng           Lx             Ly             Lz      
         0  -9078.3675      47.425547     -9030.942       200            200            43.64768     
       100  -9050.3072      24.226753     -9026.0805      199.98945      199.99216      43.669504    
       200  -9049.7589      30.922682     -9018.8362      199.98853      199.99166      43.691328    
       300  -9045.1284      35.009095     -9010.1193      200.0068       200.01248      43.713152    
       400  -9041.2281      40.432849     -9000.7952      200.00413      200.0102       43.734976    
       500  -9035.2395      43.632039     -8991.6074      199.99277      199.99729      43.7568      
       600  -9031.502       47.43558      -8984.0664      200.01082      200.01484      43.778623    
       700  -9030.2309      50.960262     -8979.2706      200.02214      200.02324      43.800447    
       800  -9030.3098      50.973733     -8979.3361      200.00716      200.0011       43.822271    
       900  -9030.7341      47.086627     -8983.6475      200.01488      200.00207      43.844095    
      1000  -9031.5077      44.815254     -8986.6925      200.03427      200.01229      43.865919    
      1100  -9032.103       45.538641     -8986.5644      200.03382      199.99964      43.887743    
      1200  -9028.9936      45.28145      -8983.7121      200.03664      199.98622      43.909566    
      1300  -9029.5358      49.203589     -8980.3322      200.05656      199.99037      43.93139     
      1400  -9028.2374      48.824073     -8979.4134      200.06752      199.98417      43.953214    
      1500  -9028.5099      47.15121      -8981.3587      200.0713       199.96227      43.975038    
      1600  -9030.0229      46.356393     -8983.6666      200.08803      199.95337      43.996862    
      1700  -9031.7131      47.516909     -8984.1962      200.10756      199.94925      44.018686    
      1800  -9028.3678      46.019857     -8982.348       200.12014      199.9267       44.040509    
      1900  -9029.4161      49.617354     -8979.7988      200.13428      199.90679      44.062333    
      2000  -9026.7458      48.471897     -8978.2739      200.15658      199.89617      44.084157    
      2100  -9027.4187      48.849559     -8978.5691      200.1782       199.87431      44.105981    
      2200  -9027.2234      46.705517     -8980.5179      200.19756      199.85172      44.127805    
      2300  -9027.1035      45.311629     -8981.7919      200.21982      199.83211      44.149629    
      2400  -9026.8275      45.93564      -8980.8919      200.24643      199.80572      44.171453    
      2500  -9028.4267      49.983999     -8978.4427      200.27033      199.78186      44.193276    
      2600  -9024.0258      47.548739     -8976.477       200.29684      199.75773      44.2151      
      2700  -9022.7586      46.620211     -8976.1383      200.32333      199.72415      44.236924    
      2800  -9024.6119      47.089661     -8977.5222      200.3506       199.69892      44.258748    
      2900  -9025.4906      46.603376     -8978.8873      200.38273      199.67285      44.280572    
      3000  -9024.6061      46.089277     -8978.5169      200.41031      199.6357       44.302396    
      3100  -9022.6445      46.370781     -8976.2738      200.43512      199.60357      44.324219    
      3200  -9022.1644      48.209835     -8973.9546      200.47259      199.5774       44.346043    
      3300  -9022.0283      48.997612     -8973.0307      200.50386      199.54195      44.367867    
      3400  -9021.0173      46.891641     -8974.1257      200.52679      199.50405      44.389691    
      3500  -9021.6548      46.285447     -8975.3694      200.56217      199.47263      44.411515    
      3600  -9021.3536      46.062794     -8975.2908      200.59711      199.44099      44.433339    
      3700  -9019.5734      46.462818     -8973.1106      200.61876      199.40053      44.455162    
      3800  -9019.8364      49.122818     -8970.7136      200.6511       199.36527      44.476986    
      3900  -9018.0564      47.647608     -8970.4087      200.68929      199.33933      44.49881     
      4000  -9019.2293      47.324294     -8971.905       200.71051      199.29878      44.520634    
      4100  -9018.84        45.632031     -8973.208       200.73346      199.25808      44.542458    
      4200  -9016.2774      44.477009     -8971.8004      200.76964      199.23287      44.564282    
      4300  -9017.0387      47.152214     -8969.8865      200.79802      199.20141      44.586105    
      4400  -9014.8984      46.889833     -8968.0086      200.8112       199.15738      44.607929    
      4500  -9014.9224      48.135456     -8966.787       200.83915      199.13006      44.629753    
      4600  -9014.3049      48.050903     -8966.254       200.87206      199.10648      44.651577    
      4700  -9013.0352      45.707731     -8967.3275      200.8843       199.06818      44.673401    
      4800  -9013.4985      45.611729     -8967.8867      200.90009      199.03636      44.695225    
      4900  -9011.1076      45.019424     -8966.0882      200.93116      199.01543      44.717049    
      5000  -9010.3419      47.474643     -8962.8673      200.94518      198.988        44.738872    
      5100  -9010.4387      48.609148     -8961.8295      200.95321      198.95272      44.760696    
      5200  -9009.6358      47.531021     -8962.1048      200.97627      198.93256      44.78252     
      5300  -9009.8441      47.499887     -8962.3442      200.99319      198.91311      44.804344    
      5400  -9009.2224      46.290205     -8962.9322      200.99835      198.87847      44.826168    
      5500  -9010.4447      46.208737     -8964.236       201.00968      198.85429      44.847992    
      5600  -9007.5641      45.814553     -8961.7495      201.0295       198.83968      44.869815    
      5700  -9005.9461      47.332013     -8958.6141      201.03831      198.81278      44.891639    
      5800  -9003.2149      46.156235     -8957.0586      201.0419       198.78729      44.913463    
      5900  -9001.1434      45.26289      -8955.8805      201.05345      198.76863      44.935287    
      6000  -9002.6724      47.332237     -8955.3402      201.0648       198.74858      44.957111    
      6100  -9003.4976      47.254304     -8956.2433      201.06741      198.72481      44.978935    
      6200  -9003.6491      46.990723     -8956.6584      201.07267      198.70291      45.000758    
      6300  -9001.2275      46.705336     -8954.5222      201.08257      198.68484      45.022582    
      6400  -8998.155       47.354859     -8950.8001      201.08821      198.66623      45.044406    
      6500  -8998.3089      48.457587     -8949.8513      201.08814      198.63992      45.06623     
      6600  -8997.5215      47.234624     -8950.2868      201.09419      198.61903      45.088054    
      6700  -8996.8744      46.263229     -8950.6112      201.10173      198.60122      45.109878    
      6800  -8995.7575      45.78103      -8949.9765      201.10341      198.57484      45.131701    
      6900  -8994.0763      48.37713      -8945.6992      201.1045       198.54818      45.153525    
      7000  -8992.793       48.991148     -8943.8019      201.11726      198.5334       45.175349    
      7100  -8992.317       47.74033      -8944.5767      201.12238      198.50847      45.197173    
      7200  -8992.4177      47.213735     -8945.204       201.11826      198.47338      45.218997    
      7300  -8991.3886      46.97694      -8944.4117      201.12729      198.45039      45.240821    
      7400  -8989.705       47.049957     -8942.6551      201.14125      198.43034      45.262645    
      7500  -8987.7435      49.207173     -8938.5364      201.14031      198.39311      45.284468    
      7600  -8985.0111      48.499367     -8936.5117      201.14556      198.35852      45.306292    
      7700  -8984.4987      47.27634      -8937.2224      201.16351      198.33768      45.328116    
      7800  -8984.7767      46.981829     -8937.7949      201.17086      198.30134      45.34994     
      7900  -8985.8129      48.309636     -8937.5033      201.17289      198.25702      45.371764    
      8000  -8982.8903      46.083472     -8936.8068      201.18933      198.22811      45.393588    
      8100  -8982.4657      48.000179     -8934.4656      201.20595      198.19446      45.415411    
      8200  -8979.0837      48.202307     -8930.8814      201.21233      198.14779      45.437235    
      8300  -8977.5628      47.416621     -8930.1462      201.22588      198.10932      45.459059    
      8400  -8979.0018      47.770057     -8931.2318      201.24837      198.07339      45.480883    
      8500  -8978.605       47.827428     -8930.7776      201.26027      198.02655      45.502707    
      8600  -8976.12        46.983935     -8929.1361      201.27192      197.97627      45.524531    
      8700  -8974.3581      47.298012     -8927.0601      201.29732      197.9359       45.546354    
      8800  -8973.5219      49.395663     -8924.1263      201.31928      197.89309      45.568178    
      8900  -8970.77        50.246657     -8920.5234      201.33267      197.83564      45.590002    
      9000  -8970.6047      49.741562     -8920.8632      201.35368      197.78383      45.611826    
      9100  -8968.1688      46.338558     -8921.8302      201.38179      197.7398       45.63365     
      9200  -8968.6495      47.124069     -8921.5254      201.40034      197.68224      45.655474    
      9300  -8967.4963      46.688462     -8920.8078      201.41788      197.62053      45.677297    
      9400  -8965.5085      46.071757     -8919.4367      201.44701      197.57256      45.699121    
      9500  -8964.6116      48.170282     -8916.4413      201.47519      197.51891      45.720945    
      9600  -8961.5739      48.015283     -8913.5586      201.49274      197.45239      45.742769    
      9700  -8961.9103      48.479355     -8913.4309      201.51731      197.39376      45.764593    
      9800  -8960.9055      46.151263     -8914.7542      201.55013      197.33755      45.786417    
      9900  -8959.2485      45.877681     -8913.3708      201.57148      197.27153      45.808241    
     10000  -8959.2653      48.226827     -8911.0385      201.59424      197.20404      45.830064    
     10100  -8956.8432      48.469713     -8908.3735      201.62727      197.14538      45.851888    
     10200  -8952.2308      46.902994     -8905.3278      201.65444      197.08025      45.873712    
     10300  -8951.2048      49.057251     -8902.1476      201.67604      197.00734      45.895536    
     10400  -8952.8278      49.747725     -8903.0801      201.70545      196.94076      45.91736     
     10500  -8950.6704      46.856244     -8903.8141      201.73537      196.87438      45.939184    
     10600  -8949.3688      46.345398     -8903.0234      201.75817      196.79711      45.961007    
     10700  -8948.8909      47.380453     -8901.5105      201.78511      196.72628      45.982831    
     10800  -8946.2994      47.633        -8898.6664      201.81797      196.65878      46.004655    
     10900  -8943.9529      48.684854     -8895.268       201.84404      196.58201      46.026479    
     11000  -8942.4234      48.477248     -8893.9461      201.86552      196.50485      46.048303    
     11100  -8942.923       47.124928     -8895.7981      201.89798      196.43007      46.070127    
     11200  -8941.4162      46.731591     -8894.6846      201.92633      196.35444      46.09195     
     11300  -8939.7643      47.514451     -8892.2499      201.94973      196.27388      46.113774    
     11400  -8936.5894      47.713594     -8888.8758      201.9792       196.19261      46.135598    
     11500  -8935.9591      49.69633      -8886.2628      202.00827      196.11637      46.157422    
     11600  -8932.7181      46.113487     -8886.6046      202.03377      196.03361      46.179246    
     11700  -8933.7478      46.270148     -8887.4777      202.05818      195.94527      46.20107     
     11800  -8931.242       45.549138     -8885.6929      202.08654      195.86507      46.222893    
     11900  -8929.0548      47.118855     -8881.9359      202.11607      195.78128      46.244717    
     12000  -8926.9042      47.61294      -8879.2913      202.14094      195.6914       46.266541    
     12100  -8924.7315      46.589417     -8878.1421      202.16599      195.60473      46.288365    
     12200  -8924.2983      46.600502     -8877.6978      202.19879      195.51963      46.310189    
     12300  -8924.1645      47.712975     -8876.4515      202.2227       195.42594      46.332013    
     12400  -8921.8046      47.113809     -8874.6908      202.24667      195.33349      46.353837    
     12500  -8919.6718      47.025461     -8872.6463      202.28         195.24416      46.37566     
     12600  -8917.2728      46.94982      -8870.323       202.30755      195.15101      46.397484    
     12700  -8916.1836      48.618812     -8867.5648      202.32996      195.05155      46.419308    
     12800  -8913.7088      48.009992     -8865.6988      202.36153      194.95674      46.441132    
     12900  -8914.9206      48.844155     -8866.0764      202.3919       194.86289      46.462956    
     13000  -8913.1022      47.217692     -8865.8845      202.41536      194.75789      46.48478     
     13100  -8910.8218      47.057322     -8863.7645      202.4421       194.65633      46.506603    
     13200  -8907.7515      48.188195     -8859.5633      202.47495      194.55871      46.528427    
     13300  -8905.5728      48.945863     -8856.6269      202.5045       194.45515      46.550251    
     13400  -8903.6349      47.929461     -8855.7054      202.52796      194.34621      46.572075    
     13500  -8901.8185      46.424759     -8855.3937      202.55861      194.24104      46.593899    
     13600  -8901.1402      46.630189     -8854.51        202.59195      194.13592      46.615723    
     13700  -8899.1346      46.04641      -8853.0882      202.61746      194.02409      46.637546    
     13800  -8896.9809      47.59418      -8849.3868      202.64409      193.90849      46.65937     
     13900  -8895.4031      49.544407     -8845.8587      202.68083      193.80151      46.681194    
     14000  -8893.0343      48.324165     -8844.7102      202.71031      193.68835      46.703018    
     14100  -8892.7834      47.428497     -8845.3549      202.73545      193.56479      46.724842    
     14200  -8889.8193      45.642167     -8844.1771      202.76775      193.45019      46.746666    
     14300  -8889.4271      47.746692     -8841.6804      202.80333      193.3358       46.768489    
     14400  -8884.5872      45.910819     -8838.6764      202.82986      193.20855      46.790313    
     14500  -8884.6256      48.447636     -8836.178       202.85774      193.08553      46.812137    
     14600  -8881.2926      47.978338     -8833.3143      202.89513      192.96741      46.833961    
     14700  -8877.8772      47.295707     -8830.5815      202.92796      192.84088      46.855785    
     14800  -8878.2317      47.660578     -8830.5711      202.95622      192.71315      46.877609    
     14900  -8877.4875      46.987319     -8830.5002      202.98831      192.58506      46.899433    
     15000  -8875.9359      46.788358     -8829.1475      203.02516      192.45922      46.921256    
     15100  -8873.9366      48.128545     -8825.8081      203.05692      192.32946      46.94308     
     15200  -8869.6172      48.367593     -8821.2496      203.0886       192.19565      46.964904    
     15300  -8868.9926      49.635244     -8819.3574      203.12418      192.06641      46.986728    
     15400  -8866.1641      47.639789     -8818.5243      203.15995      191.9367       47.008552    
     15500  -8866.1442      48.473412     -8817.6708      203.19056      191.79882      47.030376    
     15600  -8863.6223      47.108891     -8816.5134      203.22482      191.66476      47.052199    
     15700  -8861.5664      46.681314     -8814.8851      203.2625       191.53474      47.074023    
     15800  -8860.0413      48.949397     -8811.0919      203.29461      191.39476      47.095847    
     15900  -8855.6575      48.259982     -8807.3976      203.32749      191.2587       47.117671    
     16000  -8853.9532      47.918221     -8806.0349      203.36652      191.12766      47.139495    
     16100  -8853.0423      46.675715     -8806.3666      203.40056      190.98994      47.161319    
     16200  -8852.5369      47.415618     -8805.1213      203.43041      190.85089      47.183142    
     16300  -8850.1133      47.552091     -8802.5612      203.46754      190.71837      47.204966    
     16400  -8846.2496      46.595046     -8799.6545      203.50247      190.58342      47.22679     
     16500  -8845.3977      48.170385     -8797.2273      203.53172      190.44512      47.248614    
     16600  -8842.1132      46.976541     -8795.1367      203.56377      190.3088       47.270438    
     16700  -8840.3814      47.034814     -8793.3466      203.60032      190.1772       47.292262    
     16800  -8838.6357      46.858297     -8791.7774      203.63159      190.04126      47.314086    
     16900  -8837.5853      46.354539     -8791.2308      203.65841      189.90329      47.335909    
     17000  -8835.4431      46.049077     -8789.394       203.69263      189.77022      47.357733    
     17100  -8833.6119      48.514549     -8785.0973      203.72543      189.63884      47.379557    
     17200  -8828.8751      47.521366     -8781.3537      203.75109      189.50171      47.401381    
     17300  -8828.6407      49.3002       -8779.3405      203.78132      189.36821      47.423205    
     17400  -8826.2734      47.524908     -8778.7484      203.81586      189.24119      47.445029    
     17500  -8824.4371      45.500291     -8778.9368      203.8411       189.10587      47.466852    
     17600  -8823.7046      45.338022     -8778.3666      203.86574      188.97219      47.488676    
     17700  -8822.2283      46.587822     -8775.6405      203.89795      188.84557      47.5105      
     17800  -8817.3561      47.059087     -8770.2971      203.92558      188.71747      47.532324    
     17900  -8813.2735      46.810191     -8766.4633      203.94858      188.58388      47.554148    
     18000  -8812.1976      48.656889     -8763.5407      203.97315      188.45453      47.575972    
     18100  -8810.1634      48.168478     -8761.9949      204.00241      188.33036      47.597795    
     18200  -8808.5281      46.329605     -8762.1985      204.02976      188.2043       47.619619    
     18300  -8807.2607      46.79653      -8760.4641      204.04925      188.07284      47.641443    
     18400  -8804.1213      47.171494     -8756.9498      204.07358      187.94679      47.663267    
     18500  -8801.7705      47.970236     -8753.8002      204.10506      187.82865      47.685091    
     18600  -8798.9937      47.773262     -8751.2205      204.12603      187.70227      47.706915    
     18700  -8796.3158      47.406281     -8748.9095      204.14541      187.57386      47.728738    
     18800  -8793.1034      46.10308      -8747.0003      204.17435      187.45808      47.750562    
     18900  -8792.7248      46.676107     -8746.0487      204.20056      187.33821      47.772386    
     19000  -8790.4073      45.680368     -8744.727       204.21889      187.21217      47.79421     
     19100  -8787.9979      47.231763     -8740.7661      204.24226      187.09234      47.816034    
     19200  -8784.6543      48.330066     -8736.3243      204.27255      186.97779      47.837858    
     19300  -8782.0213      47.934845     -8734.0864      204.29486      186.85743      47.859682    
     19400  -8780.3513      47.694553     -8732.6567      204.3129       186.73229      47.881505    
     19500  -8779.7073      47.802597     -8731.9047      204.34018      186.61728      47.903329    
     19600  -8778.5462      46.082419     -8732.4638      204.36996      186.50502      47.925153    
     19700  -8773.6036      44.026404     -8729.5772      204.38896      186.38216      47.946977    
     19800  -8771.1082      45.872037     -8725.2362      204.41003      186.26346      47.968801    
     19900  -8768.6497      47.243182     -8721.4065      204.4444       186.15712      47.990625    
     20000  -8766.2564      48.659766     -8717.5966      204.47025      186.04329      48.012448    
     20100  -8762.7437      48.150288     -8714.5934      204.48629      185.92061      48.034272    
     20200  -8760.1817      46.86413      -8713.3176      204.51402      185.80987      48.056096    
     20300  -8760.0543      46.48989      -8713.5644      204.54876      185.70452      48.07792     
     20400  -8758.0189      46.829418     -8711.1894      204.57046      185.5887       48.099744    
     20500  -8755.3676      48.318882     -8707.0487      204.59149      185.47224      48.121568    
     20600  -8750.8554      47.256085     -8703.5993      204.62575      185.36706      48.143391    
     20700  -8748.5952      47.327522     -8701.2677      204.65507      185.26087      48.165215    
     20800  -8747.022       48.014893     -8699.0071      204.67421      185.14231      48.187039    
     20900  -8743.4924      46.249375     -8697.243       204.70003      185.03284      48.208863    
     21000  -8742.4688      46.011182     -8696.4576      204.73558      184.93308      48.230687    
     21100  -8740.7519      46.665584     -8694.0864      204.75922      184.8227       48.252511    
     21200  -8735.6928      46.582922     -8689.1099      204.77932      184.7106       48.274334    
     21300  -8734.2306      48.828741     -8685.4018      204.81392      184.61218      48.296158    
     21400  -8731.552       48.223755     -8683.3283      204.84422      184.51163      48.317982    
     21500  -8727.564       45.661885     -8681.9021      204.86032      184.39952      48.339806    
     21600  -8727.4365      45.482882     -8681.9537      204.8858       184.2969       48.36163     
     21700  -8724.6342      44.103956     -8680.5303      204.92135      184.20317      48.383454    
     21800  -8720.6267      45.417151     -8675.2095      204.94175      184.10033      48.405278    
     21900  -8719.2988      47.650958     -8671.6479      204.9605       183.99413      48.427101    
     22000  -8716.3766      48.170896     -8668.2057      204.98885      183.90091      48.448925    
     22100  -8711.9524      47.041714     -8664.9107      205.01736      183.80785      48.470749    
     22200  -8712.1287      49.656697     -8662.472       205.03444      183.70526      48.492573    
     22300  -8707.3527      45.7621       -8661.5906      205.05212      183.61025      48.514397    
     22400  -8707.4811      46.865251     -8660.6158      205.08166      183.52087      48.536221    
     22500  -8702.9066      45.700044     -8657.2066      205.10093      183.43033      48.558044    
     22600  -8698.6938      47.062533     -8651.6313      205.11646      183.33561      48.579868    
     22700  -8697.5858      48.553617     -8649.0321      205.13853      183.24883      48.601692    
     22800  -8694.1678      46.563206     -8647.6046      205.15985      183.16598      48.623516    
     22900  -8693.9953      47.622899     -8646.3724      205.17228      183.07394      48.64534     
     23000  -8690.1153      45.548258     -8644.5671      205.18626      182.98808      48.667164    
     23100  -8687.9371      46.844432     -8641.0927      205.20897      182.91008      48.688987    
     23200  -8683.7185      47.762106     -8635.9564      205.22386      182.82833      48.710811    
     23300  -8680.7404      48.136352     -8632.604       205.23066      182.74184      48.732635    
     23400  -8678.8842      47.715833     -8631.1684      205.24434      182.6637       48.754459    
     23500  -8676.2397      45.43845      -8630.8012      205.26222      182.5911       48.776283    
     23600  -8673.3078      45.063264     -8628.2445      205.26659      182.51158      48.798107    
     23700  -8671.95        47.324835     -8624.6252      205.27367      182.43345      48.81993     
     23800  -8669.4199      48.229508     -8621.1904      205.28832      182.36679      48.841754    
     23900  -8664.7497      46.885571     -8617.8641      205.29812      182.29596      48.863578    
     24000  -8661.6249      46.793697     -8614.8312      205.29894      182.22003      48.885402    
     24100  -8658.5227      46.949239     -8611.5734      205.30298      182.15088      48.907226    
     24200  -8657.3909      48.465838     -8608.9251      205.31667      182.08528      48.92905     
     24300  -8654.3366      46.778529     -8607.5581      205.31699      182.01836      48.950874    
     24400  -8652.3722      45.989288     -8606.3829      205.31742      181.9468       48.972697    
     24500  -8650.211       46.615771     -8603.5952      205.32309      181.88422      48.994521    
     24600  -8644.7833      46.916775     -8597.8666      205.32761      181.82353      49.016345    
     24700  -8643.1388      48.862789     -8594.276       205.32517      181.75418      49.038169    
     24800  -8640.6373      48.057696     -8592.5796      205.32195      181.69053      49.059993    
     24900  -8639.3104      47.910237     -8591.4002      205.32613      181.63142      49.081817    
     25000  -8635.8508      46.56287      -8589.288       205.3261       181.56868      49.10364     
     25100  -8632.8718      47.663338     -8585.2084      205.31949      181.50372      49.125464    
     25200  -8627.9665      48.91542      -8579.0511      205.32139      181.44417      49.147288    
     25300  -8625.8768      48.411974     -8577.4649      205.32692      181.38973      49.169112    
     25400  -8623.6903      46.830612     -8576.8596      205.32061      181.3254       49.190936    
     25500  -8621.7097      46.729297     -8574.9804      205.3152       181.25941      49.21276     
     25600  -8618.7112      47.002698     -8571.7085      205.31806      181.20587      49.234583    
     25700  -8613.846       47.610814     -8566.2352      205.31986      181.14814      49.256407    
     25800  -8611.3683      49.200989     -8562.1673      205.3127       181.08201      49.278231    
     25900  -8608.5303      47.865914     -8560.6643      205.30954      181.02238      49.300055    
     26000  -8606.063       46.706869     -8559.3561      205.31593      180.96697      49.321879    
     26100  -8605.0222      48.01929      -8557.0029      205.31268      180.90576      49.343703    
     26200  -8601.2436      47.212194     -8554.0314      205.30686      180.84044      49.365526    
     26300  -8597.5997      48.01399      -8549.5857      205.31169      180.78107      49.38735     
     26400  -8591.8609      47.729428     -8544.1315      205.31611      180.72469      49.409174    
     26500  -8590.6553      48.341298     -8542.314       205.31386      180.65687      49.430998    
     26600  -8589.2675      47.729736     -8541.5378      205.31376      180.59016      49.452822    
     26700  -8586.2131      46.822158     -8539.3909      205.32476      180.53384      49.474646    
     26800  -8583.4234      46.772168     -8536.6513      205.33181      180.46962      49.49647     
     26900  -8580.0363      47.296646     -8532.7396      205.32843      180.39616      49.518293    
     27000  -8575.6641      48.272693     -8527.3914      205.33805      180.33349      49.540117    
     27100  -8574.301       50.12017      -8524.1809      205.35402      180.27441      49.561941    
     27200  -8572.3032      47.938992     -8524.3642      205.35468      180.2009       49.583765    
     27300  -8568.2883      45.90017      -8522.3882      205.35757      180.12548      49.605589    
     27400  -8565.7768      46.778571     -8518.9983      205.37501      180.06586      49.627413    
     27500  -8561.5591      46.827502     -8514.7316      205.38879      180.00021      49.649236    
     27600  -8559.6586      49.478501     -8510.1801      205.39142      179.91962      49.67106     
     27700  -8556.9088      49.5269       -8507.3819      205.40276      179.85048      49.692884    
     27800  -8553.887       46.165372     -8507.7216      205.42543      179.78549      49.714708    
     27900  -8552.2207      46.998541     -8505.2221      205.4343       179.70933      49.736532    
     28000  -8549.2627      48.262247     -8501.0005      205.44485      179.63112      49.758356    
     28100  -8545.7832      49.680163     -8496.1031      205.46911      179.56443      49.780179    
     28200  -8541.6142      48.918856     -8492.6953      205.48782      179.49455      49.802003    
     28300  -8539.7124      47.933359     -8491.779       205.49668      179.41065      49.823827    
     28400  -8536.862       45.499411     -8491.3626      205.51262      179.33534      49.845651    
     28500  -8533.5646      46.450654     -8487.1139      205.5363       179.26667      49.867475    
     28600  -8531.497       49.436271     -8482.0607      205.55328      179.18964      49.889299    
     28700  -8526.5402      48.453722     -8478.0864      205.56203      179.1077       49.911122    
     28800  -8522.7233      47.352292     -8475.371       205.58202      179.03393      49.932946    
     28900  -8519.9662      44.797411     -8475.1688      205.60805      178.96474      49.95477     
     29000  -8517.9073      44.90419      -8473.0031      205.61851      178.88502      49.976594    
     29100  -8514.3874      45.729238     -8468.6582      205.62936      178.80249      49.998418    
     29200  -8512.3804      48.096131     -8464.2843      205.65382      178.7341       50.020242    
     29300  -8508.5033      47.96386      -8460.5394      205.67401      178.66266      50.042066    
     29400  -8504.3437      47.008029     -8457.3357      205.68098      178.58071      50.063889    
     29500  -8501.3264      46.367446     -8454.959       205.69523      178.50739      50.085713    
     29600  -8501.4128      46.865571     -8454.5472      205.71869      178.44086      50.107537    
     29700  -8495.6107      44.084567     -8451.5261      205.7278       178.36584      50.129361    
     29800  -8493.5429      47.563523     -8445.9794      205.73299      178.28889      50.151185    
     29900  -8490.15        48.192631     -8441.9574      205.75254      178.22413      50.173009    
     30000  -8486.8002      48.236413     -8438.5638      205.76693      178.15723      50.194832    
     30100  -8483.5731      47.983596     -8435.5895      205.7678       178.08138      50.216656    
     30200  -8480.1664      46.361341     -8433.8051      205.77548      178.0129       50.23848     
     30300  -8479.2921      47.116255     -8432.1758      205.79302      177.9525       50.260304    
     30400  -8475.4881      47.30219      -8428.1859      205.79735      177.88454      50.282128    
     30500  -8468.2817      45.696235     -8422.5854      205.7951       177.8149       50.303952    
     30600  -8467.6234      48.582838     -8419.0406      205.80505      177.75376      50.325775    
     30700  -8465.1131      48.497295     -8416.6158      205.8123       177.6961       50.347599    
     30800  -8460.7445      45.88721      -8414.8573      205.81005      177.63122      50.369423    
     30900  -8459.4461      45.350439     -8414.0956      205.80533      177.5684       50.391247    
     31000  -8458.0076      45.288784     -8412.7188      205.80916      177.51448      50.413071    
     31100  -8452.9634      46.090678     -8406.8728      205.81017      177.45835      50.434895    
     31200  -8447.8844      45.661311     -8402.2231      205.801        177.39995      50.456718    
     31300  -8443.1689      45.544112     -8397.6248      205.79446      177.34292      50.478542    
     31400  -8440.7874      47.435602     -8393.3518      205.79274      177.29216      50.500366    
     31500  -8436.3815      45.85504      -8390.5264      205.78642      177.24031      50.52219     
     31600  -8435.4967      45.833475     -8389.6633      205.77204      177.18196      50.544014    
     31700  -8434.2203      46.520872     -8387.6995      205.76177      177.13067      50.565838    
     31800  -8430.1033      46.593758     -8383.5095      205.75883      177.08568      50.587662    
     31900  -8425.9328      47.721988     -8378.2108      205.74663      177.03353      50.609485    
     32000  -8424.0591      49.276934     -8374.7822      205.72519      176.97805      50.631309    
     32100  -8419.8072      47.453543     -8372.3537      205.7159       176.93071      50.653133    
     32200  -8418.2245      47.966929     -8370.2576      205.70771      176.88776      50.674957    
     32300  -8414.3734      47.143955     -8367.2295      205.68617      176.83256      50.696781    
     32400  -8411.5006      49.271361     -8362.2293      205.66761      176.78264      50.718605    
     32500  -8406.162       49.059647     -8357.1023      205.66215      176.74239      50.740428    
     32600  -8403.4129      49.034382     -8354.3785      205.64616      176.69422      50.762252    
     32700  -8400.9483      47.277771     -8353.6706      205.62088      176.63904      50.784076    
     32800  -8396.1435      45.193376     -8350.9501      205.60644      176.59183      50.8059      
     32900  -8395.7216      48.690371     -8347.0312      205.59606      176.54911      50.827724    
     33000  -8390.5848      48.116455     -8342.4683      205.57435      176.49573      50.849548    
     33100  -8386.2171      48.310146     -8337.9069      205.55225      176.44124      50.871371    
     33200  -8384.8104      50.196238     -8334.6142      205.54218      176.39859      50.893195    
     33300  -8381.225       46.975804     -8334.2492      205.53141      176.3531       50.915019    
     33400  -8379.7184      47.774615     -8331.9438      205.50718      176.29515      50.936843    
     33500  -8373.992       46.224008     -8327.768       205.48933      176.24197      50.958667    
     33600  -8369.6449      47.478076     -8322.1668      205.48431      176.19797      50.980491    
     33700  -8366.7534      48.462217     -8318.2911      205.46898      176.14616      51.002314    
     33800  -8364.3145      48.419828     -8315.8947      205.44932      176.08412      51.024138    
     33900  -8359.0663      45.629503     -8313.4368      205.43775      176.03085      51.045962    
     34000  -8358.3129      47.809985     -8310.5029      205.43264      175.98188      51.067786    
     34100  -8355.3553      48.221419     -8307.1339      205.42101      175.92319      51.08961     
     34200  -8349.4574      47.555726     -8301.9017      205.4067       175.85936      51.111434    
     34300  -8346.0616      49.482705     -8296.5789      205.40207      175.80345      51.133258    
     34400  -8342.4764      47.547019     -8294.9294      205.39946      175.74693      51.155081    
     34500  -8341.0541      47.371819     -8293.6823      205.38755      175.67952      51.176905    
     34600  -8338.9106      47.888496     -8291.0221      205.38093      175.61397      51.198729    
     34700  -8334.9132      47.6599       -8287.2533      205.38318      175.5564       51.220553    
     34800  -8329.2987      47.671437     -8281.6272      205.38266      175.49298      51.242377    
     34900  -8326.2675      49.726529     -8276.541       205.37561      175.42158      51.264201    
     35000  -8324.7691      50.28756      -8274.4815      205.37551      175.35298      51.286024    
     35100  -8319.5174      47.072749     -8272.4446      205.38241      175.29025      51.307848    
     35200  -8318.02        47.79472      -8270.2252      205.38484      175.22078      51.329672    
     35300  -8314.8989      47.484138     -8267.4147      205.38196      175.14094      51.351496    
     35400  -8312.5426      48.650288     -8263.8923      205.38845      175.07181      51.37332     
     35500  -8305.9017      47.377559     -8258.5241      205.40183      175.00483      51.395144    
     35600  -8304.0447      49.97948      -8254.0652      205.40691      174.92817      51.416967    
     35700  -8299.2453      47.098137     -8252.1472      205.40877      174.84785      51.438791    
     35800  -8297.594       46.455748     -8251.1383      205.42126      174.77244      51.460615    
     35900  -8295.0434      47.238085     -8247.8053      205.4326       174.69968      51.482439    
     36000  -8291.4488      48.164105     -8243.2847      205.43935      174.61665      51.504263    
     36100  -8285.7194      46.979944     -8238.7394      205.44763      174.53486      51.526087    
     36200  -8281.567       46.229658     -8235.3374      205.46406      174.46276      51.54791     
     36300  -8280.0303      47.143915     -8232.8864      205.47679      174.38182      51.569734    
     36400  -8277.4192      44.462659     -8232.9565      205.48026      174.29683      51.591558    
     36500  -8275.5837      46.578164     -8229.0055      205.49402      174.21726      51.613382    
     36600  -8269.2813      46.16059      -8223.1207      205.51171      174.1423       51.635206    
     36700  -8267.053       48.64955      -8218.4035      205.5181       174.0574       51.65703     
     36800  -8262.1316      47.519915     -8214.6116      205.52256      173.97019      51.678854    
     36900  -8260.3107      48.172717     -8212.138       205.53797      173.89405      51.700677    
     37000  -8257.7928      46.553375     -8211.2395      205.55297      173.81651      51.722501    
     37100  -8253.6883      45.58323      -8208.1051      205.55643      173.73134      51.744325    
     37200  -8249.4481      47.409025     -8202.0391      205.56283      173.64893      51.766149    
     37300  -8245.7143      48.141314     -8197.573       205.57494      173.57297      51.787973    
     37400  -8242.1371      47.780965     -8194.3562      205.58457      173.49485      51.809797    
     37500  -8239.1464      47.39943      -8191.747       205.5856       173.41186      51.83162     
     37600  -8235.7968      46.348365     -8189.4484      205.58771      173.33262      51.853444    
     37700  -8232.8331      46.155615     -8186.6774      205.59838      173.25877      51.875268    
     37800  -8227.2906      45.992199     -8181.2984      205.60075      173.18331      51.897092    
     37900  -8224.4326      48.448139     -8175.9844      205.59867      173.10463      51.918916    
     38000  -8222.4302      49.690031     -8172.7402      205.60083      173.03017      51.94074     
     38100  -8216.9357      45.820724     -8171.1149      205.60656      172.96052      51.962563    
     38200  -8216.8444      47.283138     -8169.5613      205.60272      172.88693      51.984387    
     38300  -8211.2037      45.582126     -8165.6216      205.59162      172.80905      52.006211    
     38400  -8208.214       47.258184     -8160.9558      205.58983      172.74055      52.028035    
     38500  -8202.577       45.707753     -8156.8692      205.5932       172.67677      52.049859    
     38600  -8200.2851      47.794196     -8152.4909      205.58271      172.60681      52.071683    
     38700  -8197.6153      49.069564     -8148.5457      205.5677       172.53524      52.093506    
     38800  -8192.8581      47.398179     -8145.46        205.5607       172.47116      52.11533     
     38900  -8189.5325      45.44695      -8144.0856      205.55444      172.41141      52.137154    
     39000  -8187.5149      45.894847     -8141.62        205.53661      172.34369      52.158978    
     39100  -8183.8991      47.596432     -8136.3027      205.51566      172.27666      52.180802    
     39200  -8178.8136      47.96418      -8130.8494      205.50753      172.22198      52.202626    
     39300  -8175.4269      47.780051     -8127.6468      205.49584      172.16341      52.22445     
     39400  -8173.9866      48.968545     -8125.018       205.4664       172.09703      52.246273    
     39500  -8169.7011      46.529461     -8123.1716      205.44905      172.03848      52.268097    
     39600  -8166.6859      45.65063      -8121.0353      205.44011      171.98829      52.289921    
     39700  -8164.2181      47.434016     -8116.7841      205.41603      171.92885      52.311745    
     39800  -8158.1904      47.837959     -8110.3525      205.382        171.86274      52.333569    
     39900  -8153.9321      47.808357     -8106.1237      205.365        171.81106      52.355393    
     40000  -8151.0336      47.593129     -8103.4404      205.35315      171.76487      52.377216    
     40100  -8149.0887      47.051721     -8102.037       205.32115      171.70336      52.39904     
     40200  -8145.8523      46.438096     -8099.4142      205.28794      171.64263      52.420864    
     40300  -8139.3364      45.829993     -8093.5064      205.27248      171.59761      52.442688    
     40400  -8137.2447      49.381658     -8087.863       205.25186      171.5464       52.464512    
     40500  -8133.7523      48.467778     -8085.2846      205.21465      171.48338      52.486336    
     40600  -8130.7334      47.014306     -8083.7191      205.18237      171.42707      52.508159    
     40700  -8127.0135      46.026361     -8080.9871      205.16554      171.37923      52.529983    
     40800  -8124.5482      48.346232     -8076.202       205.13535      171.32512      52.551807    
     40900  -8118.4816      48.694047     -8069.7875      205.09901      171.2604       52.573631    
     41000  -8114.9649      48.193245     -8066.7717      205.07532      171.21064      52.595455    
     41100  -8111.9835      47.081949     -8064.9016      205.05917      171.1639       52.617279    
     41200  -8109.9889      47.462134     -8062.5267      205.02663      171.10154      52.639103    
     41300  -8105.4928      46.22774      -8059.265       204.99116      171.03917      52.660926    
     41400  -8100.7583      47.450954     -8053.3073      204.97296      170.98615      52.68275     
     41500  -8096.6904      48.72993      -8047.9605      204.95344      170.93532      52.704574    
     41600  -8092.7515      46.77902      -8045.9725      204.92138      170.86971      52.726398    
     41700  -8091.8448      47.796069     -8044.0488      204.89121      170.80347      52.748222    
     41800  -8088.7148      47.732611     -8040.9822      204.87435      170.75102      52.770046    
     41900  -8085.0191      47.851031     -8037.1681      204.85753      170.69154      52.791869    
     42000  -8078.2627      46.472495     -8031.7902      204.82697      170.62248      52.813693    
     42100  -8075.7473      50.412891     -8025.3344      204.80644      170.55738      52.835517    
     42200  -8072.2106      49.062792     -8023.1478      204.79373      170.49892      52.857341    
     42300  -8069.4337      48.007234     -8021.4265      204.77393      170.4326       52.879165    
     42400  -8065.9137      46.918992     -8018.9947      204.75047      170.35648      52.900989    
     42500  -8062.2464      46.219718     -8016.0267      204.73571      170.29026      52.922812    
     42600  -8058.869       46.857408     -8012.0116      204.73054      170.22864      52.944636    
     42700  -8055.3041      49.440552     -8005.8636      204.71444      170.15737      52.96646     
     42800  -8050.2323      48.502415     -8001.7299      204.69658      170.07936      52.988284    
     42900  -8048.6897      48.414223     -8000.2755      204.68777      170.00878      53.010108    
     43000  -8044.3324      46.329424     -7998.003       204.67939      169.93953      53.031932    
     43100  -8041.2472      46.89734      -7994.3498      204.66903      169.86348      53.053755    
     43200  -8037.18        47.240661     -7989.9394      204.65585      169.78512      53.075579    
     43300  -8032.9309      48.056061     -7984.8749      204.65063      169.70943      53.097403    
     43400  -8028.6694      50.097213     -7978.5722      204.64725      169.63654      53.119227    
     43500  -8023.55        48.399614     -7975.1504      204.64153      169.55742      53.141051    
     43600  -8022.1278      47.429164     -7974.6987      204.63413      169.47573      53.162875    
     43700  -8018.8453      46.672438     -7972.1728      204.63211      169.39796      53.184699    
     43800  -8016.206       47.191207     -7969.0148      204.63158      169.31839      53.206522    
     43900  -8014.1801      48.840001     -7965.3401      204.62617      169.2346       53.228346    
     44000  -8007.2897      46.997383     -7960.2923      204.62115      169.1475       53.25017     
     44100  -8004.1686      49.197139     -7954.9715      204.62237      169.06819      53.271994    
     44200  -7999.8825      47.743869     -7952.1387      204.62816      168.99053      53.293818    
     44300  -7999.984       48.420358     -7951.5636      204.62489      168.90304      53.315642    
     44400  -7993.5213      45.684422     -7947.8369      204.61793      168.8139       53.337465    
     44500  -7990.3324      47.169983     -7943.1624      204.62585      168.73461      53.359289    
     44600  -7985.2437      47.284668     -7937.9591      204.62998      168.6543       53.381113    
     44700  -7982.3161      49.183415     -7933.1326      204.62222      168.56142      53.402937    
     44800  -7979.7937      49.442809     -7930.3509      204.61885      168.47263      53.424761    
     44900  -7976.1232      46.682587     -7929.4406      204.62659      168.39476      53.446585    
     45000  -7971.9199      45.585975     -7926.3339      204.62928      168.30945      53.468408    
     45100  -7969.9204      48.652977     -7921.2674      204.61943      168.21878      53.490232    
     45200  -7964.5653      48.814746     -7915.7506      204.6219       168.13589      53.512056    
     45300  -7960.0427      47.77313      -7912.2696      204.63099      168.0598       53.53388     
     45400  -7958.5971      47.130954     -7911.4662      204.62389      167.97191      53.555704    
     45500  -7955.2749      45.848438     -7909.4265      204.61192      167.88083      53.577528    
     45600  -7950.6572      46.66246      -7903.9948      204.61298      167.80111      53.599351    
     45700  -7945.8062      47.439288     -7898.3669      204.6178       167.72449      53.621175    
     45800  -7941.8804      47.736156     -7894.1443      204.60633      167.63732      53.642999    
     45900  -7939.2112      47.610055     -7891.6011      204.59196      167.54977      53.664823    
     46000  -7936.9516      46.628871     -7890.3227      204.59539      167.47551      53.686647    
     46100  -7931.7694      44.959863     -7886.8096      204.59295      167.40076      53.708471    
     46200  -7928.9431      46.987991     -7881.9551      204.57529      167.31371      53.730295    
     46300  -7924.5661      46.97092      -7877.5951      204.55963      167.2333       53.752118    
     46400  -7921.1047      47.764655     -7873.3401      204.55929      167.16111      53.773942    
     46500  -7916.5187      47.308748     -7869.21        204.55103      167.08677      53.795766    
     46600  -7911.3409      46.645395     -7864.6955      204.52499      167.00227      53.81759     
     46700  -7909.7433      49.060006     -7860.6833      204.51214      166.92621      53.839414    
     46800  -7906.1856      47.49955      -7858.6861      204.51217      166.86402      53.861238    
     46900  -7903.0666      46.35881      -7856.7078      204.49784      166.79004      53.883061    
     47000  -7898.2938      45.343206     -7852.9506      204.46751      166.70982      53.904885    
     47100  -7893.2115      46.478667     -7846.7328      204.45301      166.64126      53.926709    
     47200  -7890.1235      48.652162     -7841.4713      204.44864      166.57879      53.948533    
     47300  -7886.028       47.187527     -7838.8405      204.42331      166.50771      53.970357    
     47400  -7883.8615      47.21808      -7836.6434      204.39382      166.43136      53.992181    
     47500  -7880.9096      47.045387     -7833.8642      204.3784       166.3681       54.014004    
     47600  -7877.6018      47.219894     -7830.3819      204.36364      166.30755      54.035828    
     47700  -7872.4807      47.510202     -7824.9705      204.33544      166.23797      54.057652    
     47800  -7869.3974      49.964524     -7819.4329      204.30536      166.16893      54.079476    
     47900  -7865.9721      48.932895     -7817.0392      204.2906       166.11062      54.1013      
     48000  -7861.3056      45.996169     -7815.3094      204.26984      166.04988      54.123124    
     48100  -7858.3501      46.462844     -7811.8872      204.23354      165.97943      54.144947    
     48200  -7853.7964      46.193856     -7807.6025      204.20603      165.91502      54.166771    
     48300  -7849.9147      48.227767     -7801.687       204.18877      165.86061      54.188595    
     48400  -7844.8545      48.889746     -7795.9648      204.16502      165.80143      54.210419    
     48500  -7842.2494      48.048388     -7794.201       204.13066      165.73645      54.232243    
     48600  -7840.3731      48.716048     -7791.6571      204.10227      165.67418      54.254067    
     48700  -7835.5831      46.602145     -7788.9809      204.08005      165.62034      54.275891    
     48800  -7834.0392      47.666949     -7786.3722      204.05576      165.56197      54.297714    
     48900  -7829.4358      46.043162     -7783.3926      204.02047      165.49932      54.319538    
     49000  -7825.0088      46.990926     -7778.0179      203.98987      165.43762      54.341362    
     49100  -7820.5322      48.369426     -7772.1627      203.9653       165.38352      54.363186    
     49200  -7817.0161      48.010767     -7769.0053      203.93734      165.32685      54.38501     
     49300  -7814.9026      47.793576     -7767.109       203.90217      165.26282      54.406834    
     49400  -7811.2248      47.110232     -7764.1146      203.87201      165.20467      54.428657    
     49500  -7807.5907      47.580132     -7760.0106      203.85176      165.15294      54.450481    
     49600  -7803.136       47.475237     -7755.6608      203.8241       165.09629      54.472305    
     49700  -7799.0173      47.874389     -7751.1429      203.78604      165.02844      54.494129    
     49800  -7794.6043      48.250664     -7746.3536      203.75432      164.96758      54.515953    
     49900  -7790.6122      48.095079     -7742.5172      203.73537      164.91673      54.537777    
     50000  -7788.5713      47.614733     -7740.9566      203.71033      164.86003      54.5596      
     50100  -7785.5718      47.111501     -7738.4603      203.67379      164.7941       54.581424    
     50200  -7780.0088      45.921981     -7734.0868      203.64597      164.73287      54.603248    
     50300  -7776.1063      48.07289      -7728.0334      203.6277       164.68403      54.625072    
     50400  -7773.0599      50.123526     -7722.9364      203.60511      164.62417      54.646896    
     50500  -7769.9889      47.751313     -7722.2376      203.56921      164.55634      54.66872     
     50600  -7766.6353      46.916973     -7719.7183      203.54415      164.49458      54.690543    
     50700  -7761.8713      46.91003      -7714.9613      203.52817      164.4412       54.712367    
     50800  -7757.1969      47.2315       -7709.9654      203.50095      164.37758      54.734191    
     50900  -7752.6053      47.198992     -7705.4063      203.46595      164.30391      54.756015    
     51000  -7749.9571      47.002294     -7702.9549      203.44587      164.24681      54.777839    
     51100  -7747.4062      45.970652     -7701.4355      203.43833      164.19543      54.799663    
     51200  -7743.9512      46.276966     -7697.6742      203.41407      164.13019      54.821487    
     51300  -7739.7088      47.321094     -7692.3877      203.38109      164.05559      54.84331     
     51400  -7736.0805      48.328711     -7687.7518      203.36679      163.99546      54.865134    
     51500  -7733.5595      49.425388     -7684.1341      203.35818      163.94355      54.886958    
     51600  -7729.2193      48.675184     -7680.5442      203.33527      163.87341      54.908782    
     51700  -7723.9585      46.387632     -7677.5708      203.30574      163.80138      54.930606    
     51800  -7722.1979      46.094756     -7676.1031      203.29678      163.7436       54.95243     
     51900  -7719.2126      45.850974     -7673.3616      203.28896      163.69042      54.974253    
     52000  -7714.6747      47.497525     -7667.1772      203.26823      163.61997      54.996077    
     52100  -7710.3276      48.369222     -7661.9584      203.24389      163.54844      55.017901    
     52200  -7705.1083      47.582283     -7657.526       203.23793      163.49357      55.039725    
     52300  -7702.0313      47.685086     -7654.3462      203.23544      163.43821      55.061549    
     52400  -7700.108       47.605601     -7652.5024      203.20967      163.3652       55.083373    
     52500  -7694.9677      45.32444      -7649.6432      203.18656      163.29013      55.105196    
     52600  -7690.056       46.698774     -7643.3572      203.18333      163.23612      55.12702     
     52700  -7686.309       48.816146     -7637.4928      203.17981      163.1773       55.148844    
     52800  -7681.7996      47.066622     -7634.733       203.15509      163.10199      55.170668    
     52900  -7680.2408      47.667247     -7632.5736      203.1385       163.03322      55.192492    
     53000  -7677.0352      47.825034     -7629.2102      203.13954      162.97774      55.214316    
     53100  -7671.6334      47.06052      -7624.5728      203.1308       162.91658      55.236139    
     53200  -7666.7461      49.142868     -7617.6032      203.10817      162.84008      55.257963    
     53300  -7661.514       47.908837     -7613.6051      203.09112      162.77315      55.279787    
     53400  -7659.4544      47.254525     -7612.1999      203.09405      162.71931      55.301611    
     53500  -7656.5287      47.224149     -7609.3045      203.0859       162.66061      55.323435    
     53600  -7653.4401      47.642944     -7605.7972      203.06125      162.58593      55.345259    
     53700  -7648.9897      47.107199     -7601.8825      203.04791      162.52175      55.367083    
     53800  -7645.966       48.212352     -7597.7537      203.05043      162.47319      55.388906    
     53900  -7642.2438      48.547152     -7593.6966      203.04395      162.41177      55.41073     
     54000  -7636.8604      45.966357     -7590.894       203.0179       162.34373      55.432554    
     54100  -7636.1259      48.124421     -7588.0014      203.00428      162.27873      55.454378    
     54200  -7629.4276      45.269864     -7584.1577      203.00053      162.22684      55.476202    
     54300  -7626.3411      48.341451     -7577.9996      202.9897       162.16837      55.498026    
     54400  -7621.864       49.089696     -7572.7743      202.96633      162.09898      55.519849    
     54500  -7618.1581      47.916306     -7570.2418      202.94888      162.04026      55.541673    
     54600  -7615.0203      47.192002     -7567.8283      202.94987      161.98987      55.563497    
     54700  -7613.3111      49.128066     -7564.183       202.93778      161.93686      55.585321    
     54800  -7607.8767      47.708902     -7560.1678      202.91366      161.87144      55.607145    
     54900  -7603.5295      48.006954     -7555.5226      202.89551      161.81417      55.628969    
     55000  -7598.9781      48.934688     -7550.0434      202.88781      161.7661       55.650792    
     55100  -7594.7669      49.094292     -7545.6726      202.87465      161.7122       55.672616    
     55200  -7592.5666      48.078809     -7544.4878      202.84807      161.65353      55.69444     
     55300  -7587.5818      45.957093     -7541.6247      202.8289       161.59572      55.716264    
     55400  -7582.9759      45.599359     -7537.3765      202.81793      161.54897      55.738088    
     55500  -7579.615       47.438037     -7532.1769      202.80443      161.49973      55.759912    
     55600  -7576.359       49.629872     -7526.7291      202.78299      161.44568      55.781735    
     55700  -7572.2617      49.297216     -7522.9645      202.76028      161.39124      55.803559    
     55800  -7570.2538      48.438135     -7521.8157      202.7438       161.34312      55.825383    
     55900  -7565.6625      46.880856     -7518.7817      202.73109      161.29721      55.847207    
     56000  -7562.2842      47.42128      -7514.8629      202.71183      161.24836      55.869031    
     56100  -7556.441       46.295629     -7510.1453      202.6851       161.19483      55.890855    
     56200  -7553.5062      49.760973     -7503.7452      202.6647       161.146        55.912679    
     56300  -7549.2507      49.92039      -7499.3303      202.65284      161.10636      55.934502    
     56400  -7546.1023      48.324252     -7497.778       202.63312      161.05879      55.956326    
     56500  -7543.2445      48.840168     -7494.4043      202.60434      161.00852      55.97815     
     56600  -7538.2298      47.474627     -7490.7552      202.58653      160.96576      55.999974    
     56700  -7536.208       48.701376     -7487.5066      202.57513      160.92956      56.021798    
     56800  -7530.2413      44.919612     -7485.3217      202.55124      160.88452      56.043622    
     56900  -7527.5305      45.217674     -7482.3128      202.52255      160.83506      56.065445    
     57000  -7521.5516      46.235847     -7475.3158      202.50028      160.7931       56.087269    
     57100  -7518.3262      48.668047     -7469.6582      202.48398      160.75302      56.109093    
     57200  -7515.3488      48.752561     -7466.5963      202.46343      160.71444      56.130917    
     57300  -7510.7101      46.414172     -7464.296       202.44291      160.67068      56.152741    
     57400  -7507.4583      46.566301     -7460.892       202.41775      160.62925      56.174565    
     57500  -7503.7386      47.49323      -7456.2454      202.40111      160.59024      56.196388    
     57600  -7498.3004      48.311241     -7449.9891      202.38226      160.55264      56.218212    
     57700  -7494.7957      50.813954     -7443.9817      202.35458      160.50694      56.240036    
     57800  -7490.6031      48.441111     -7442.1619      202.32837      160.46404      56.26186     
     57900  -7487.9991      48.093164     -7439.9059      202.31614      160.43169      56.283684    
     58000  -7483.8227      47.067365     -7436.7553      202.30024      160.39522      56.305508    
     58100  -7479.9986      46.22838      -7433.7702      202.26779      160.34928      56.327331    
     58200  -7475.8933      46.223918     -7429.6694      202.24351      160.30682      56.349155    
     58300  -7473.2083      49.329113     -7423.8792      202.23154      160.27662      56.370979    
     58400  -7466.9909      48.901164     -7418.0898      202.2146       160.24332      56.392803    
     58500  -7465.2931      49.454629     -7415.8385      202.18473      160.1967       56.414627    
     58600  -7460.1942      46.48539      -7413.7088      202.16036      160.1572       56.436451    
     58700  -7456.7234      46.958094     -7409.7653      202.15019      160.12705      56.458275    
     58800  -7452.752       47.336391     -7405.4156      202.13141      160.08965      56.480098    
     58900  -7449.6448      48.755591     -7400.8892      202.09955      160.04264      56.501922    
     59000  -7444.2602      47.728838     -7396.5314      202.08225      160.00618      56.523746    
     59100  -7442.1574      48.798984     -7393.3585      202.07473      159.97756      56.54557     
     59200  -7437.7478      46.668157     -7391.0797      202.05222      159.93753      56.567394    
     59300  -7433.1542      45.799015     -7387.3552      202.02601      159.89384      56.589218    
     59400  -7428.339       47.415716     -7380.9233      202.00981      159.85913      56.611041    
     59500  -7424.2568      49.892504     -7374.3642      201.99692      159.82587      56.632865    
     59600  -7420.6171      49.115512     -7371.5016      201.97379      159.78597      56.654689    
     59700  -7416.6512      47.743202     -7368.908       201.9518       159.74362      56.676513    
     59800  -7412.2502      46.554695     -7365.6955      201.93734      159.71072      56.698337    
     59900  -7410.546       48.239552     -7362.3064      201.92067      159.67459      56.720161    
     60000  -7404.7697      46.129775     -7358.64        201.89913      159.63313      56.741984    
     60100  -7402.285       47.584392     -7354.7006      201.88116      159.59804      56.763808    
     60200  -7396.1096      46.208696     -7349.9009      201.87099      159.56371      56.785632    
     60300  -7393.367       48.463337     -7344.9037      201.85332      159.52651      56.807456    
     60400  -7388.2492      48.266854     -7339.9823      201.83193      159.48574      56.82928     
     60500  -7384.6924      47.671878     -7337.0206      201.82153      159.45072      56.851104    
     60600  -7381.0285      46.232827     -7334.7957      201.80685      159.41787      56.872927    
     60700  -7376.3936      45.884741     -7330.5089      201.78867      159.37689      56.894751    
     60800  -7372.8339      47.54213      -7325.2918      201.77271      159.33984      56.916575    
     60900  -7367.6234      49.521437     -7318.1019      201.76149      159.30717      56.938399    
     61000  -7362.3289      50.483825     -7311.845       201.74343      159.26779      56.960223    
     61100  -7358.789       49.181288     -7309.6077      201.72379      159.23019      56.982047    
     61200  -7354.07        47.574647     -7306.4954      201.71554      159.19959      57.003871    
     61300  -7352.6875      48.276881     -7304.4107      201.70375      159.1675       57.025694    
     61400  -7348.9449      47.329514     -7301.6154      201.68266      159.1292       57.047518    
     61500  -7343.9715      46.331542     -7297.64        201.66753      159.09385      57.069342    
     61600  -7340.5041      47.978527     -7292.5256      201.65448      159.06197      57.091166    
     61700  -7335.5306      49.780936     -7285.7497      201.63626      159.02515      57.11299     
     61800  -7330.8296      50.243231     -7280.5863      201.61436      158.98666      57.134814    
     61900  -7327.304       48.257229     -7279.0468      201.60396      158.95606      57.156637    
     62000  -7323.1169      47.033423     -7276.0835      201.59864      158.92819      57.178461    
     62100  -7318.5659      46.316247     -7272.2497      201.58131      158.89419      57.200285    
     62200  -7315.2677      47.100887     -7268.1668      201.5641       158.8562       57.222109    
     62300  -7311.3624      47.828435     -7263.534       201.55         158.8264       57.243933    
     62400  -7306.691       48.244816     -7258.4462      201.54076      158.79718      57.265757    
     62500  -7300.9699      47.403972     -7253.5659      201.52407      158.76404      57.28758     
     62600  -7297.4252      47.4072       -7250.018       201.50609      158.73079      57.309404    
     62700  -7294.1183      46.391502     -7247.7268      201.49408      158.70088      57.331228    
     62800  -7288.9984      45.688569     -7243.3099      201.47854      158.67163      57.353052    
     62900  -7286.1285      48.768521     -7237.3599      201.46165      158.64043      57.374876    
     63000  -7278.3172      48.852082     -7229.4651      201.44709      158.6098       57.3967      
     63100  -7273.9003      49.052173     -7224.8481      201.42637      158.57902      57.418524    
     63200  -7270.9939      48.567366     -7222.4266      201.41637      158.55027      57.440347    
     63300  -7267.1076      47.960533     -7219.1471      201.40068      158.52507      57.462171    
     63400  -7264.509       48.090977     -7216.418       201.3784       158.49058      57.483995    
     63500  -7259.9369      47.225122     -7212.7118      201.35929      158.45998      57.505819    
     63600  -7253.8414      45.902971     -7207.9384      201.34765      158.43831      57.527643    
     63700  -7252.4276      50.14901      -7202.2786      201.33305      158.40861      57.549467    
     63800  -7245.0609      48.834921     -7196.226       201.31067      158.37732      57.57129     
     63900  -7241.7086      49.081748     -7192.6268      201.29153      158.34909      57.593114    
     64000  -7237.3579      47.371025     -7189.9869      201.28071      158.32463      57.614938    
     64100  -7232.0026      45.939777     -7186.0628      201.26427      158.30079      57.636762    
     64200  -7228.214       46.94895      -7181.265       201.24329      158.27112      57.658586    
     64300  -7224.4966      47.886372     -7176.6102      201.22577      158.24373      57.68041     
     64400  -7220.076       46.34259      -7173.7334      201.20688      158.21905      57.702233    
     64500  -7216.2379      46.724848     -7169.5131      201.18877      158.19072      57.724057    
     64600  -7211.2084      47.592938     -7163.6154      201.16729      158.16468      57.745881    
     64700  -7204.5062      48.506736     -7155.9994      201.14958      158.13927      57.767705    
     64800  -7200.5028      49.473342     -7151.0294      201.12999      158.11122      57.789529    
     64900  -7196.8219      49.286423     -7147.5354      201.11206      158.0881       57.811353    
     65000  -7191.4653      47.715892     -7143.7494      201.09824      158.06497      57.833176    
     65100  -7187.9087      47.839593     -7140.0691      201.0763       158.03698      57.855       
     65200  -7182.158       46.279385     -7135.8786      201.05267      158.00909      57.876824    
     65300  -7178.7544      47.231732     -7131.5226      201.03851      157.98639      57.898648    
     65400  -7173.7904      45.605996     -7128.1844      201.02057      157.96348      57.920472    
     65500  -7170.175       45.528328     -7124.6466      200.99899      157.93516      57.942296    
     65600  -7166.4203      48.213645     -7118.2067      200.9789       157.90948      57.96412     
     65700  -7157.6143      46.799228     -7110.815       200.96097      157.88634      57.985943    
     65800  -7153.0347      47.720769     -7105.3139      200.94224      157.86019      58.007767    
     65900  -7148.6141      47.440126     -7101.174       200.92345      157.83716      58.029591    
     66000  -7144.4843      47.284045     -7097.2003      200.90404      157.81263      58.051415    
     66100  -7141.1227      48.186633     -7092.9361      200.88537      157.78575      58.073239    
     66200  -7136.5431      47.950838     -7088.5923      200.86605      157.763        58.095063    
     66300  -7130.5051      47.16151      -7083.3436      200.84788      157.73778      58.116886    
     66400  -7126.0972      46.010413     -7080.0868      200.82628      157.71021      58.13871     
     66500  -7121.6718      44.957545     -7076.7143      200.80864      157.68804      58.160534    
     66600  -7116.0996      45.928084     -7070.1715      200.79337      157.66302      58.182358    
     66700  -7111.5239      48.298926     -7063.225       200.77327      157.63606      58.204182    
     66800  -7104.8496      47.579489     -7057.2701      200.75233      157.60924      58.226006    
     66900  -7098.4976      45.91423      -7052.5834      200.7369       157.58312      58.247829    
     67000  -7096.2626      48.238059     -7048.0246      200.71926      157.55988      58.269653    
     67100  -7091.4129      48.581371     -7042.8316      200.70444      157.53439      58.291477    
     67200  -7085.8602      47.427523     -7038.4327      200.6863       157.50685      58.313301    
     67300  -7080.9611      46.847731     -7034.1134      200.66569      157.48         58.335125    
     67400  -7074.6979      45.429937     -7029.2679      200.6523       157.45472      58.356949    
     67500  -7070.066       46.353519     -7023.7125      200.63505      157.42812      58.378772    
     67600  -7064.6473      46.511571     -7018.1357      200.6157       157.40123      58.400596    
     67700  -7060.9138      48.157539     -7012.7562      200.60135      157.37435      58.42242     
     67800  -7057.3851      49.244742     -7008.1404      200.58587      157.34939      58.444244    
     67900  -7051.5943      47.246132     -7004.3482      200.56902      157.32338      58.466068    
     68000  -7045.0486      45.794224     -6999.2543      200.55461      157.29612      58.487892    
     68100  -7041.3648      48.117468     -6993.2473      200.5367       157.27041      58.509716    
     68200  -7034.4101      47.373901     -6987.0362      200.51763      157.24041      58.531539    
     68300  -7029.6327      48.102423     -6981.5303      200.50249      157.2135       58.553363    
     68400  -7026.5559      48.380611     -6978.1753      200.49075      157.1896       58.575187    
     68500  -7020.525       47.248058     -6973.277       200.47227      157.16         58.597011    
     68600  -7014.8017      47.871774     -6966.93        200.4543       157.1296       58.618835    
     68700  -7007.9217      48.153179     -6959.7685      200.44026      157.10391      58.640659    
     68800  -7002.202       48.883085     -6953.3189      200.42596      157.07655      58.662482    
     68900  -6999.3528      49.833407     -6949.5194      200.40631      157.04473      58.684306    
     69000  -6993.4888      48.393659     -6945.0951      200.39124      157.01778      58.70613     
     69100  -6987.9851      47.966372     -6940.0187      200.37963      156.99192      58.727954    
     69200  -6981.9942      47.314853     -6934.6793      200.36157      156.96188      58.749778    
     69300  -6975.6041      45.779409     -6929.8247      200.3431       156.93111      58.771602    
     69400  -6972.1806      46.190596     -6925.99        200.3293       156.90401      58.793425    
     69500  -6967.2195      47.662331     -6919.5572      200.31462      156.87684      58.815249    
     69600  -6958.3022      47.871833     -6910.4304      200.29654      156.84491      58.837073    
     69700  -6952.8499      50.086422     -6902.7635      200.27942      156.81579      58.858897    
     69800  -6946.8083      48.248025     -6898.5603      200.26612      156.78907      58.880721    
     69900  -6942.2809      48.740119     -6893.5408      200.25091      156.7601       58.902545    
     70000  -6934.9107      46.163585     -6888.7471      200.23127      156.72904      58.924368    
     70100  -6931.9211      48.657303     -6883.2638      200.21425      156.69949      58.946192    
     70200  -6927.1627      49.510433     -6877.6523      200.19995      156.67067      58.968016    
     70300  -6920.863       49.11092      -6871.7521      200.18207      156.64191      58.98984     
     70400  -6914.9012      49.058473     -6865.8427      200.16343      156.61107      59.011664    
     70500  -6907.4808      47.946696     -6859.5341      200.14629      156.58172      59.033488    
     70600  -6902.2263      48.653746     -6853.5725      200.13077      156.55469      59.055312    
     70700  -6895.873       48.265338     -6847.6077      200.11171      156.52346      59.077135    
     70800  -6890.5488      48.413631     -6842.1351      200.08989      156.49164      59.098959    
     70900  -6884.1603      47.610596     -6836.5497      200.07494      156.46472      59.120783    
     71000  -6879.5073      49.018488     -6830.4888      200.06011      156.43729      59.142607    
     71100  -6872.4205      48.244305     -6824.1762      200.03622      156.40452      59.164431    
     71200  -6866.1124      47.86394      -6818.2484      200.01466      156.37348      59.186255    
     71300  -6859.3752      46.965027     -6812.4101      200.00267      156.34786      59.208078    
     71400  -6854.8757      48.814294     -6806.0614      199.98136      156.31788      59.229902    
     71500  -6848.3925      48.516679     -6799.8759      199.95671      156.28473      59.251726    
     71600  -6843.4314      49.088175     -6794.3432      199.94062      156.25709      59.27355     
     71700  -6837.6378      49.117477     -6788.5204      199.92365      156.23096      59.295374    
     71800  -6831.6334      48.927518     -6782.7059      199.89874      156.19779      59.317198    
     71900  -6825.5154      49.231896     -6776.2835      199.87659      156.1669       59.339021    
     72000  -6819.3127      49.738068     -6769.5747      199.85934      156.14051      59.360845    
     72100  -6810.8543      47.880427     -6762.9739      199.83627      156.11006      59.382669    
     72200  -6806.2589      49.79198      -6756.4669      199.81166      156.07691      59.404493    
     72300  -6799.2548      48.639978     -6750.6148      199.79117      156.0502       59.426317    
     72400  -6794.219       49.893918     -6744.325       199.77182      156.02228      59.448141    
     72500  -6787.6832      49.473982     -6738.2092      199.74361      155.98899      59.469964    
     72600  -6781.7389      49.351894     -6732.387       199.71938      155.95971      59.491788    
     72700  -6775.2798      49.035136     -6726.2446      199.7013       155.93245      59.513612    
     72800  -6768.1277      48.50112      -6719.6266      199.67423      155.90265      59.535436    
     72900  -6761.4862      48.474785     -6713.0114      199.64727      155.87093      59.55726     
     73000  -6755.2651      48.491816     -6706.7733      199.62468      155.84254      59.579084    
     73100  -6748.3247      48.570188     -6699.7545      199.59904      155.81494      59.600908    
     73200  -6743.6047      50.299053     -6693.3056      199.5717       155.78255      59.622731    
     73300  -6736.2889      49.805411     -6686.4835      199.54388      155.7524       59.644555    
     73400  -6728.5672      49.586836     -6678.9804      199.51835      155.72407      59.666379    
     73500  -6723.6539      50.485678     -6673.1683      199.49082      155.69279      59.688203    
     73600  -6716.3519      49.850846     -6666.5011      199.46069      155.66171      59.710027    
     73700  -6713.6458      53.224206     -6660.4216      199.43412      155.63264      59.731851    
     73800  -6700.7762      47.294514     -6653.4817      199.40676      155.60303      59.753674    
     73900  -6697.2799      49.979133     -6647.3008      199.37545      155.57128      59.775498    
     74000  -6689.8545      49.480201     -6640.3743      199.34593      155.53992      59.797322    
     74100  -6683.1113      50.197183     -6632.9142      199.31705      155.51033      59.819146    
     74200  -6673.4147      48.293505     -6625.1212      199.28627      155.47938      59.84097     
     74300  -6669.8658      51.189181     -6618.6767      199.25417      155.44653      59.862794    
     74400  -6664.7956      51.209145     -6613.5865      199.22229      155.41529      59.884617    
     74500  -6656.5281      49.643099     -6606.885       199.19233      155.38461      59.906441    
     74600  -6651.0797      51.179529     -6599.9001      199.16035      155.35255      59.928265    
     74700  -6644.752       50.322005     -6594.43        199.12539      155.31884      59.950089    
     74800  -6638.7889      52.16771      -6586.6212      199.09389      155.28722      59.971913    
     74900  -6631.2855      51.179341     -6580.1062      199.06208      155.25554      59.993737    
     75000  -6623.9693      50.871929     -6573.0974      199.02585      155.22173      60.01556     
     75100  -6614.0808      49.714893     -6564.3659      198.99052      155.18642      60.037384    
     75200  -6608.9914      51.034022     -6557.9574      198.95666      155.15452      60.059208    
     75300  -6602.5096      51.527686     -6550.9819      198.92235      155.12096      60.081032    
     75400  -6596.793       52.640638     -6544.1523      198.88515      155.08518      60.102856    
     75500  -6588.9973      54.343168     -6534.6541      198.84795      155.05054      60.12468     
     75600  -6581.3732      53.584663     -6527.7885      198.81332      155.0155       60.146504    
     75700  -6573.4564      51.676659     -6521.7797      198.77573      154.98058      60.168327    
     75800  -6565.9257      49.487969     -6516.4377      198.73744      154.94386      60.190151    
     75900  -6559.9917      50.024474     -6509.9672      198.70036      154.90763      60.211975    
     76000  -6550.8466      50.226206     -6500.6204      198.66184      154.87188      60.233799    
     76100  -6544.2348      50.91655      -6493.3183      198.62294      154.83399      60.255623    
     76200  -6537.7258      52.699023     -6485.0268      198.58281      154.79633      60.277447    
     76300  -6530.7624      53.774484     -6476.9879      198.54305      154.75885      60.29927     
     76400  -6521.1737      54.330209     -6466.8435      198.50248      154.71994      60.321094    
     76500  -6516.1168      55.090479     -6461.0263      198.46013      154.68067      60.342918    
     76600  -6509.3245      55.613782     -6453.7108      198.41939      154.64126      60.364742    
     76700  -6499.0546      53.296039     -6445.7586      198.37721      154.60193      60.386566    
     76800  -6492.1388      53.226834     -6438.912       198.33409      154.56107      60.40839     
     76900  -6489.2889      55.582559     -6433.7063      198.29026      154.51917      60.430213    
     77000  -6479.4971      53.606747     -6425.8904      198.24661      154.47915      60.452037    
     77100  -6469.5768      54.234409     -6415.3424      198.2039       154.43732      60.473861    
     77200  -6462.4218      55.330617     -6407.0911      198.1577       154.39453      60.495685    
     77300  -6454.4423      54.505983     -6399.9363      198.11169      154.35132      60.517509    
     77400  -6447.3024      55.253774     -6392.0486      198.067        154.30837      60.539333    
     77500  -6441.7594      54.240308     -6387.5191      198.01807      154.26357      60.561156    
     77600  -6432.4177      55.595619     -6376.822       197.97052      154.2185       60.58298     
     77700  -6425.2348      56.598482     -6368.6363      197.92391      154.17442      60.604804    
     77800  -6416.5152      57.745694     -6358.7695      197.87492      154.12929      60.626628    
     77900  -6408.7906      60.480147     -6348.3104      197.82465      154.08138      60.648452    
     78000  -6398.5402      56.944733     -6341.5955      197.77404      154.03481      60.670276    
     78100  -6393.496       57.048817     -6336.4472      197.72493      153.98811      60.6921      
     78200  -6387.7685      60.460815     -6327.3077      197.67258      153.93912      60.713923    
     78300  -6378.0071      58.882736     -6319.1244      197.61841      153.88979      60.735747    
     78400  -6371.4664      59.423338     -6312.0431      197.56765      153.84084      60.757571    
     78500  -6362.4788      55.647945     -6306.8308      197.51408      153.79165      60.779395    
     78600  -6356.901       57.412772     -6299.4883      197.45805      153.73906      60.801219    
     78700  -6345.9786      56.261079     -6289.7176      197.40292      153.68777      60.823043    
     78800  -6338.0632      57.448795     -6280.6144      197.34863      153.63712      60.844866    
     78900  -6342.0938      69.211841     -6272.8819      197.291        153.58349      60.86669     
     79000  -6417.5448      132.50907     -6285.0357      197.23108      153.52643      60.888514    
     79100  -6751.0336      341.7106      -6409.323       197.15964      153.4613       60.910338    
     79200  -7244.9395      368.99853     -6875.941       197.09673      153.4155       60.932162    
     79300  -7817.8987      378.40488     -7439.4938      197.01481      153.37435      60.953986    
     79400  -8132.6742      272.87693     -7859.7973      196.97799      153.35379      60.975809    
     79500  -8292.7429      155.14844     -8137.5945      196.87052      153.27489      60.997633    
     79600  -8366.3287      93.421959     -8272.9068      196.68373      153.12547      61.019457    
     79700  -8395.8178      59.807555     -8336.0103      196.48977      152.96957      61.041281    
     79800  -8413.7947      48.181044     -8365.6137      196.31491      152.83579      61.063105    
     79900  -8419.9724      40.502929     -8379.4695      196.11392      152.69017      61.084929    
     80000  -8419.036       39.524629     -8379.5113      195.91453      152.53518      61.106752    
     80100  -8415.2887      47.052318     -8368.2364      195.73033      152.39038      61.128576    
     80200  -8409.4493      55.189925     -8354.2594      195.55946      152.25791      61.1504      
     80300  -8407.8355      56.016839     -8351.8186      195.39333      152.13441      61.172224    
     80400  -8414.8655      48.643531     -8366.2219      195.23128      152.01977      61.194048    
     80500  -8420.8777      42.994432     -8377.8832      195.06971      151.90209      61.215872    
     80600  -8422.0702      42.650956     -8379.4193      194.91966      151.78852      61.237696    
     80700  -8415.7754      47.99011      -8367.7853      194.7768       151.67873      61.259519    
     80800  -8409.5051      50.839489     -8358.6656      194.64411      151.5815       61.281343    
     80900  -8409.5147      52.343143     -8357.1715      194.50074      151.47556      61.303167    
     81000  -8413.6238      49.165579     -8364.4582      194.35922      151.35357      61.324991    
     81100  -8417.0791      44.452042     -8372.627       194.21912      151.20474      61.346815    
     81200  -8418.7364      44.170342     -8374.5661      194.07749      151.04966      61.368639    
     81300  -8416.1588      45.946645     -8370.2121      193.94685      150.90039      61.390462    
     81400  -8411.81        49.017897     -8362.7921      193.83391      150.75055      61.412286    
     81500  -8407.4866      49.885663     -8357.6009      193.72345      150.598        61.43411     
     81600  -8407.1677      49.108255     -8358.0595      193.62459      150.45272      61.455934    
     81700  -8409.7701      47.762323     -8362.0078      193.53491      150.31711      61.477758    
     81800  -8415.3932      48.960572     -8366.4327      193.45027      150.19221      61.499582    
     81900  -8417.3699      45.744578     -8371.6254      193.37035      150.07368      61.521405    
     82000  -8417.8501      44.522386     -8373.3277      193.29038      149.959        61.543229    
     82100  -8414.7912      45.948985     -8368.8422      193.20983      149.84802      61.565053    
     82200  -8410.6652      48.223257     -8362.4419      193.11313      149.73105      61.586877    
     82300  -8407.8126      49.320137     -8358.4925      193.03217      149.62024      61.608701    
     82400  -8408.2143      49.414606     -8358.7997      192.96299      149.51289      61.630525    
     82500  -8406.9964      46.476525     -8360.5199      192.90194      149.40935      61.652348    
     82600  -8409.0955      45.895327     -8363.2001      192.82492      149.30789      61.674172    
     82700  -8408.6712      45.786886     -8362.8843      192.75537      149.2158       61.695996    
     82800  -8405.6178      45.968119     -8359.6496      192.67459      149.12574      61.71782     
     82900  -8403.6701      48.857293     -8354.8128      192.5961       149.04744      61.739644    
     83000  -8402.1637      48.214044     -8353.9496      192.50767      148.97772      61.761468    
     83100  -8404.0735      48.245978     -8355.8275      192.42045      148.92162      61.783292    
     83200  -8405.3851      46.959886     -8358.4252      192.34589      148.87228      61.805115    
     83300  -8404.6465      44.891523     -8359.7549      192.26633      148.82512      61.826939    
     83400  -8403.7958      45.399711     -8358.3961      192.1784       148.77721      61.848763    
     83500  -8401.2936      47.038574     -8354.255       192.0854       148.73096      61.870587    
     83600  -8398.4101      48.073191     -8350.3369      191.98839      148.68785      61.892411    
     83700  -8398.1222      49.156908     -8348.9653      191.8965       148.64482      61.914235    
     83800  -8399.8553      48.855878     -8350.9994      191.79778      148.59536      61.936058    
     83900  -8400.7169      47.117916     -8353.599       191.71474      148.54925      61.957882    
     84000  -8399.1536      45.198856     -8353.9547      191.63945      148.50926      61.979706    
     84100  -8399.1677      47.558298     -8351.6095      191.56747      148.47216      62.00153     
     84200  -8394.97        47.686542     -8347.2834      191.48002      148.4326       62.023354    
     84300  -8392.1658      48.477289     -8343.6885      191.39575      148.39739      62.045178    
     84400  -8392.0837      48.868847     -8343.2148      191.3208       148.37038      62.067001    
     84500  -8393.2681      48.035055     -8345.233       191.24079      148.34642      62.088825    
     84600  -8393.5922      46.047078     -8347.5451      191.15919      148.32682      62.110649    
     84700  -8395.2756      47.294405     -8347.9812      191.05425      148.30581      62.132473    
     84800  -8392.444       46.333234     -8346.1107      190.97086      148.29578      62.154297    
     84900  -8392.7528      49.933993     -8342.8189      190.88588      148.28256      62.176121    
     85000  -8388.7972      48.666037     -8340.1311      190.81689      148.26741      62.197944    
     85100  -8387.2717      47.960822     -8339.3109      190.74852      148.24885      62.219768    
     85200  -8387.2409      46.434521     -8340.8063      190.69088      148.22439      62.241592    
     85300  -8386.8062      45.85225      -8340.954       190.64946      148.20375      62.263416    
     85400  -8384.1066      45.884899     -8338.2217      190.60546      148.17988      62.28524     
     85500  -8380.9702      47.025863     -8333.9443      190.56132      148.15104      62.307064    
     85600  -8378.5063      47.112818     -8331.3935      190.5092       148.11574      62.328888    
     85700  -8379.3668      48.23651      -8331.1303      190.46243      148.07991      62.350711    
     85800  -8379.0155      46.654265     -8332.3612      190.41451      148.04095      62.372535    
     85900  -8381.9507      46.714063     -8335.2367      190.36127      147.99967      62.394359    
     86000  -8381.5162      46.474377     -8335.0419      190.31011      147.95746      62.416183    
     86100  -8377.8792      48.390166     -8329.489       190.26736      147.91938      62.438007    
     86200  -8373.5573      48.648829     -8324.9084      190.22687      147.88322      62.459831    
     86300  -8373.4812      49.529866     -8323.9514      190.19066      147.85064      62.481654    
     86400  -8375.0107      46.42808      -8328.5827      190.15056      147.81382      62.503478    
     86500  -8378.5676      46.985648     -8331.582       190.12679      147.77901      62.525302    
     86600  -8378.5722      44.967909     -8333.6043      190.10313      147.74054      62.547126    
     86700  -8379.2062      47.048614     -8332.1576      190.08363      147.70323      62.56895     
     86800  -8375.2479      46.317408     -8328.9305      190.06802      147.66165      62.590774    
     86900  -8374.24        49.488592     -8324.7514      190.05699      147.6216       62.612597    
     87000  -8372.2408      49.135364     -8323.1054      190.04502      147.58154      62.634421    
     87100  -8373.1549      48.153231     -8325.0016      190.03952      147.54301      62.656245    
     87200  -8374.5162      46.775361     -8327.7409      190.03709      147.50732      62.678069    
     87300  -8373.2771      46.662267     -8326.6149      190.03547      147.46931      62.699893    
     87400  -8368.9961      46.273805     -8322.7223      190.03216      147.43327      62.721717    
     87500  -8366.0539      48.647521     -8317.4064      190.03037      147.39897      62.743541    
     87600  -8364.8008      49.376276     -8315.4245      190.03385      147.36876      62.765364    
     87700  -8366.708       48.520504     -8318.1875      190.01076      147.32796      62.787188    
     87800  -8368.3438      46.580223     -8321.7636      189.96795      147.28084      62.809012    
     87900  -8368.9218      45.901951     -8323.0199      189.92487      147.24692      62.830836    
     88000  -8364.874       44.957347     -8319.9167      189.8809       147.21503      62.85266     
     88100  -8361.3341      48.938759     -8312.3953      189.83262      147.1814       62.874484    
     88200  -8362.7457      51.584154     -8311.1616      189.79265      147.15857      62.896307    
     88300  -8371.4434      50.095759     -8321.3476      189.76894      147.14477      62.918131    
     88400  -8378.8243      45.730585     -8333.0937      189.73917      147.13171      62.939955    
     88500  -8378.5406      41.009998     -8337.5306      189.69992      147.1185       62.961779    
     88600  -8378.8006      45.727607     -8333.0729      189.67332      147.1149       62.983603    
     88700  -8372.6635      49.190853     -8323.4726      189.65158      147.11678      63.005427    
     88800  -8370.1703      53.059672     -8317.1107      189.6071       147.10324      63.02725     
     88900  -8368.6548      49.85384      -8318.801       189.54829      147.08383      63.049074    
     89000  -8370.4793      45.697514     -8324.7818      189.4936       147.06071      63.070898    
     89100  -8369.9221      42.848121     -8327.0739      189.44514      147.03469      63.092722    
     89200  -8370.9491      46.615895     -8324.3332      189.39992      147.01216      63.114546    
     89300  -8367.8075      49.023675     -8318.7838      189.35971      146.98235      63.13637     
     89400  -8363.873       49.406617     -8314.4664      189.33325      146.94563      63.158193    
     89500  -8363.9383      49.600025     -8314.3382      189.31995      146.90005      63.180017    
     89600  -8364.3295      47.0702       -8317.2593      189.30841      146.85249      63.201841    
     89700  -8365.0228      45.783303     -8319.2395      189.30067      146.81009      63.223665    
     89800  -8364.1073      45.379997     -8318.7273      189.29569      146.77084      63.245489    
     89900  -8361.6728      46.23585      -8315.4369      189.29485      146.73312      63.267313    
     90000  -8359.3733      48.978288     -8310.395       189.28701      146.69091      63.289137    
     90100  -8356.6045      49.376364     -8307.2282      189.28188      146.65451      63.31096     
     90200  -8356.9073      48.41462      -8308.4927      189.27392      146.62653      63.332784    
     90300  -8358.355       46.861384     -8311.4936      189.2517       146.59676      63.354608    
     90400  -8359.5222      46.34142      -8313.1808      189.21672      146.57237      63.376432    
     90500  -8357.4861      45.558729     -8311.9274      189.18119      146.55531      63.398256    
     90600  -8355.6742      48.559816     -8307.1144      189.13456      146.5351       63.42008     
     90700  -8354.1804      51.192526     -8302.9878      189.09124      146.518        63.441903    
     90800  -8351.2235      48.636411     -8302.5871      189.0588       146.4987       63.463727    
     90900  -8350.1612      45.802091     -8304.3591      189.0165       146.47979      63.485551    
     91000  -8351.0851      45.850353     -8305.2347      188.97451      146.46609      63.507375    
     91100  -8349.1811      45.724263     -8303.4568      188.95196      146.45025      63.529199    
     91200  -8348.9827      49.118809     -8299.8638      188.92103      146.42849      63.551023    
     91300  -8345.7856      48.291358     -8297.4942      188.88387      146.3965       63.572846    
     91400  -8346.3508      48.244322     -8298.1065      188.84959      146.36264      63.59467     
     91500  -8344.5197      44.440661     -8300.079       188.81433      146.33273      63.616494    
     91600  -8346.7834      46.630319     -8300.153       188.77246      146.30431      63.638318    
     91700  -8344.2414      46.525011     -8297.7163      188.7341       146.28014      63.660142    
     91800  -8342.5793      49.055643     -8293.5236      188.69962      146.2625       63.681966    
     91900  -8339.4918      48.771478     -8290.7203      188.66454      146.24425      63.703789    
     92000  -8339.4274      48.608269     -8290.8191      188.61909      146.22939      63.725613    
     92100  -8339.2832      46.076633     -8293.2065      188.57586      146.21813      63.747437    
     92200  -8340.2087      46.025722     -8294.183       188.52855      146.20771      63.769261    
     92300  -8339.6983      47.327311     -8292.371       188.48564      146.19751      63.791085    
     92400  -8337.8543      49.386694     -8288.4676      188.44174      146.1813       63.812909    
     92500  -8334.3366      49.018271     -8285.3183      188.3873       146.16144      63.834733    
     92600  -8334.2841      48.774371     -8285.5098      188.34052      146.13812      63.856556    
     92700  -8333.2598      46.107529     -8287.1523      188.30179      146.11726      63.87838     
     92800  -8331.4159      43.791118     -8287.6248      188.26513      146.09788      63.900204    
     92900  -8330.7983      45.487399     -8285.3109      188.23782      146.0775       63.922028    
     93000  -8330.2726      47.707873     -8282.5647      188.21183      146.05851      63.943852    
     93100  -8328.5918      47.468735     -8281.1231      188.19065      146.03794      63.965676    
     93200  -8330.322       49.172388     -8281.1496      188.16621      146.01411      63.987499    
     93300  -8328.3248      45.80426      -8282.5205      188.14742      145.99752      64.009323    
     93400  -8328.5904      46.215851     -8282.3745      188.12138      145.97526      64.031147    
     93500  -8333.2462      52.774797     -8280.4714      188.0922       145.94852      64.052971    
     93600  -8372.1785      71.50626      -8300.6722      188.06421      145.92005      64.074795    
     93700  -8397.8452      59.382052     -8338.4632      188.02845      145.88638      64.096619    
     93800  -8408.081       45.242003     -8362.839       187.95889      145.83504      64.118442    
     93900  -8417.861       43.505401     -8374.3556      187.89539      145.79561      64.140266    
     94000  -8418.2329      42.088837     -8376.144       187.83165      145.75199      64.16209     
     94100  -8414.3574      44.994962     -8369.3624      187.78049      145.70734      64.183914    
     94200  -8408.8234      50.228362     -8358.5951      187.72944      145.66426      64.205738    
     94300  -8407.9908      52.088715     -8355.9021      187.65553      145.62424      64.227562    
     94400  -8408.7707      45.934185     -8362.8365      187.5924       145.59641      64.249385    
     94500  -8412.8783      44.764218     -8368.114       187.53136      145.56831      64.271209    
     94600  -8410.4809      43.718061     -8366.7629      187.47528      145.5412       64.293033    
     94700  -8407.0568      47.168426     -8359.8884      187.42506      145.51685      64.314857    
     94800  -8403.3429      51.198912     -8352.144       187.38583      145.49077      64.336681    
     94900  -8402.4653      51.780393     -8350.6849      187.36337      145.46382      64.358505    
     95000  -8403.779       47.288934     -8356.4901      187.33446      145.43143      64.380329    
     95100  -8405.3178      43.173765     -8362.144       187.29578      145.39909      64.402152    
     95200  -8407.3567      45.277462     -8362.0792      187.24086      145.37002      64.423976    
     95300  -8404.9799      47.935976     -8357.0439      187.1889       145.3443       64.4458      
     95400  -8401.6447      50.219299     -8351.4254      187.11955      145.3184       64.467624    
     95500  -8396.3512      47.883168     -8348.4681      187.04646      145.29305      64.489448    
     95600  -8395.1069      47.004171     -8348.1027      186.96778      145.26153      64.511272    
     95700  -8399.3315      48.838088     -8350.4934      186.90262      145.24218      64.533095    
     95800  -8399.932       45.961418     -8353.9706      186.84034      145.22659      64.554919    
     95900  -8400.9769      45.292707     -8355.6842      186.77846      145.21572      64.576743    
     96000  -8400.6859      47.508759     -8353.1772      186.72605      145.21175      64.598567    
     96100  -8395.4537      48.031423     -8347.4223      186.67861      145.20602      64.620391    
     96200  -8392.8653      49.67798      -8343.1873      186.63583      145.18651      64.642215    
     96300  -8392.3158      49.343013     -8342.9727      186.60261      145.16478      64.664038    
     96400  -8392.2901      46.790526     -8345.4996      186.57276      145.13066      64.685862    
     96500  -8394.9314      47.529588     -8347.4018      186.53712      145.0968       64.707686    
     96600  -8393.0194      45.596962     -8347.4225      186.50732      145.06905      64.72951     
     96700  -8392.5272      47.243474     -8345.2837      186.46428      145.04073      64.751334    
     96800  -8389.9497      48.055339     -8341.8944      186.42558      145.00553      64.773158    
     96900  -8387.704       47.609456     -8340.0945      186.38714      144.96289      64.794981    
     97000  -8387.3461      47.070323     -8340.2758      186.34019      144.91582      64.816805    
     97100  -8386.5457      46.171711     -8340.374       186.30854      144.87345      64.838629    
     97200  -8386.0296      47.089949     -8338.9396      186.26699      144.82871      64.860453    
     97300  -8386.2868      47.844022     -8338.4428      186.22565      144.78385      64.882277    
     97400  -8384.6399      48.562068     -8336.0779      186.19218      144.74389      64.904101    
     97500  -8384.7117      49.411662     -8335.3         186.15492      144.69955      64.925925    
     97600  -8388.7475      49.907912     -8338.8396      186.11225      144.65595      64.947748    
     97700  -8390.8008      46.525726     -8344.275       186.07425      144.61948      64.969572    
     97800  -8393.0828      45.364899     -8347.7179      186.01879      144.57767      64.991396    
     97900  -8392.6503      46.392578     -8346.2577      185.96223      144.53585      65.01322     
     98000  -8390.4821      48.500232     -8341.9818      185.89795      144.48801      65.035044    
     98100  -8384.4502      47.82498      -8336.6252      185.82484      144.43706      65.056868    
     98200  -8382.4697      50.980422     -8331.4893      185.7697       144.38912      65.078691    
     98300  -8383.7308      50.151638     -8333.5792      185.72355      144.33617      65.100515    
     98400  -8384.9842      45.326621     -8339.6575      185.69385      144.29403      65.122339    
     98500  -8388.719       45.719507     -8342.9995      185.66904      144.2502       65.144163    
     98600  -8387.9293      46.485918     -8341.4434      185.64798      144.20065      65.165987    
     98700  -8383.3402      48.239929     -8335.1003      185.62352      144.15426      65.187811    
     98800  -8377.9035      49.882723     -8328.0208      185.59213      144.10644      65.209634    
     98900  -8377.6224      51.760276     -8325.8621      185.5457       144.05732      65.231458    
     99000  -8382.9507      49.363884     -8333.5869      185.50506      144.00821      65.253282    
     99100  -8385.2876      43.78381      -8341.5037      185.46193      143.95945      65.275106    
     99200  -8386.564       43.327894     -8343.2361      185.41138      143.91312      65.29693     
     99300  -8384.5331      46.396816     -8338.1363      185.36086      143.87428      65.318754    
     99400  -8379.5492      49.480109     -8330.0691      185.30287      143.83614      65.340577    
     99500  -8376.7277      51.298702     -8325.429       185.25081      143.79524      65.362401    
     99600  -8377.1337      49.497458     -8327.6362      185.20585      143.75672      65.384225    
     99700  -8378.6125      46.024728     -8332.5877      185.16366      143.72081      65.406049    
     99800  -8379.6618      44.877471     -8334.7843      185.12914      143.6911       65.427873    
     99900  -8379.2174      46.34359      -8332.8739      185.10965      143.66189      65.449697    
    100000  -8374.8935      46.460544     -8328.4329      185.08668      143.62766      65.471521    
Loop time of 4813.35 on 12 procs for 100000 steps with 1224 atoms

Performance: 1.795 ns/day, 13.370 hours/ns, 20.776 timesteps/s, 25.429 katom-step/s
80.2% CPU use with 12 MPI tasks x 1 OpenMP threads

MPI task timing breakdown:
Section |  min time  |  avg time  |  max time  |%varavg| %total
---------------------------------------------------------------
Pair    | 0.18564    | 190.84     | 1164.3     |3085.7 |  3.96
Neigh   | 0.0027726  | 0.34386    | 2.1444     | 130.2 |  0.01
Comm    | 2.1156     | 45.854     | 297.12     |1454.6 |  0.95
Output  | 11.123     | 11.393     | 11.639     |   4.6 |  0.24
Modify  | 3023       | 4208.1     | 4444.8     | 808.9 | 87.43
Other   |            | 356.8      |            |       |  7.41

Nlocal:            102 ave         621 max           0 min
Histogram: 10 0 0 0 0 0 0 0 0 2
Nghost:        167.667 ave        1011 max           0 min
Histogram: 10 0 0 0 0 0 0 0 0 2
Neighs:              0 ave           0 max           0 min
Histogram: 12 0 0 0 0 0 0 0 0 0

Total # of neighbors = 0
Ave neighs/atom = 0
Neighbor list builds = 287
Dangerous builds = 0
Total wall time: 1:20:14
