LAMMPS (2 Aug 2023 - Update 3)
OMP_NUM_THREADS environment is not set. Defaulting to 1 thread. (src/comm.cpp:98)
  using 1 OpenMP thread(s) per MPI task

# 1------general---------------
units                             metal      #单位为lammps 中的metel 类型
dimension                    3          #模拟的维度 三维
boundary                    p p p      #周期边界条件
atom_style                  atomic   #原子类型自动
atom_modify              map array sort 100 2.0
neighbor                    3.0 bin
neigh_modify            every 1 delay 0 check yes
#2 -----global variable-------定义全局变量，方便统一修改；
variable temperature equal 300
variable tstep equal 0.001
variable pressure equal 0
variable thermalstep equal 100
variable dumpstep equal 1000
variable relaxtime equal 0
variable totaltime equal 100000
variable deformrate equal 5e-3
#3 -------model------------
#box tilt large
read_data     1.lmp
Reading data file ...
  orthogonal box = (-100 -100 -2.1416495) to (100 100 39.081159)
  4 by 3 by 1 MPI processor grid
  reading atoms ...
  1620 atoms
  read_data CPU = 0.572 seconds
group SR type 2 3
600 atoms in group SR
delete_atoms group SR
Deleted 600 atoms, new total = 1020
replicate 1 1 11
Replication is creating a 1x1x11 = 11 times larger system...
  orthogonal box = (-100 -100 -2.1416495) to (100 100 451.30925)
  2 by 2 by 3 MPI processor grid
  11220 atoms
  replicate CPU = 0.692 seconds
write_data h.data
System init for write_data ...
WARNING: Communication cutoff is 0.0. No ghost atoms will be generated. Atoms may get lost. (src/comm_brick.cpp:210)
pair_style hybrid airebo 3.0 airebo 3.0 airebo 3.0 lj/cut 10
pair_coeff * * airebo 1 CH.airebo C NULL NULL
Reading airebo potential file CH.airebo with DATE: 2011-10-25
pair_coeff * * airebo 2 CH.airebo NULL C NULL
Reading airebo potential file CH.airebo with DATE: 2011-10-25
pair_coeff * * airebo 3 CH.airebo NULL NULL C
Reading airebo potential file CH.airebo with DATE: 2011-10-25
pair_coeff 1 2 lj/cut 0.00456 3.431
pair_coeff 1 3 lj/cut 0.00456 3.431
pair_coeff 2 3 lj/cut 0.00456 3.431

# 5------minimize -----------
min_style      sd
minimize       1.0e-4 1.0e-6 100 1000
Neighbor list info ...
  update: every = 1 steps, delay = 0 steps, check = yes
  max neighbors/atom: 2000, page size: 100000
  master list distance cutoff = 13.2
  ghost atom cutoff = 13.2
  binsize = 6.6, bins = 31 31 69
  6 neighbor lists, perpetual/occasional/extra = 6 0 0
  (1) pair airebo, perpetual, skip from (5)
      attributes: full, newton on, ghost
      pair build: skip/ghost
      stencil: none
      bin: none
  (2) pair airebo, perpetual, skip from (5)
      attributes: full, newton on, ghost
      pair build: skip/ghost
      stencil: none
      bin: none
  (3) pair airebo, perpetual, skip from (5)
      attributes: full, newton on, ghost
      pair build: skip/ghost
      stencil: none
      bin: none
  (4) pair lj/cut, perpetual, skip from (6)
      attributes: half, newton on, cut 13
      pair build: skip
      stencil: none
      bin: none
  (5) neighbor class addition, perpetual
      attributes: full, newton on, ghost
      pair build: full/bin/ghost
      stencil: full/ghost/bin/3d
      bin: standard
  (6) neighbor class addition, perpetual
      attributes: half, newton on, cut 13
      pair build: half/bin/atomonly/newton
      stencil: half/bin/3d
      bin: standard
Per MPI rank memory allocation (min/avg/max) = 12.94 | 12.95 | 12.95 Mbytes
   Step          Temp          E_pair         E_mol          TotEng         Press     
         0   0             -83188.86       0             -83188.86      -58.353665    
         1   0             -83188.954      0             -83188.954     -58.244675    
Loop time of 1.00302 on 12 procs for 1 steps with 11220 atoms

36.9% CPU use with 12 MPI tasks x 1 OpenMP threads

Minimization stats:
  Stopping criterion = energy tolerance
  Energy initial, next-to-last, final = 
     -83188.8598944001  -83188.8598944001  -83188.9537158859
  Force two-norm initial, final = 4.8964756 0.9555801
  Force max component initial, final = 0.046231127 0.0090219153
  Final line search alpha, max atom move = 1 0.0090219153
  Iterations, force evaluations = 1 2

MPI task timing breakdown:
Section |  min time  |  avg time  |  max time  |%varavg| %total
---------------------------------------------------------------
Pair    | 0.057555   | 0.081118   | 0.1335     |   8.3 |  8.09
Neigh   | 0          | 0          | 0          |   0.0 |  0.00
Comm    | 0.16415    | 0.23584    | 0.3016     |   8.1 | 23.51
Output  | 0          | 0          | 0          |   0.0 |  0.00
Modify  | 0          | 0          | 0          |   0.0 |  0.00
Other   |            | 0.6861     |            |       | 68.40

Nlocal:            935 ave        1000 max         868 min
Histogram: 3 0 0 0 2 4 0 0 0 3
Nghost:           3455 ave        3535 max        3380 min
Histogram: 2 1 0 0 4 1 1 0 2 1
Neighs:              0 ave           0 max           0 min
Histogram: 12 0 0 0 0 0 0 0 0 0

Total # of neighbors = 0
Ave neighs/atom = 0
Neighbor list builds = 0
Dangerous builds = 0
#6----define computes------
variable nums equal count(all) #计算原子数目
variable toval equal 20.535*20.0413*lz #计算系统总体积，单层石墨烯厚度为0.335nm
variable vol equal ${toval} #体系的初始体积
variable vol equal 186616.853886213 
variable vatom equal v_vol/v_nums #单个原子体积
compute 1 all stress/atom NULL #计算体系中单原子应力
compute xalls all reduce sum c_1[1]
variable xstress equal (c_xalls)/(v_toval*10000)
compute yalls all reduce sum c_1[2]
variable ystress equal (c_yalls)/(v_toval*10000)
compute zalls all reduce sum c_1[3]
variable zstress equal (c_zalls)/(v_toval*10000)
#7---------relaxation-------------------------
timestep ${tstep}
timestep 0.001
velocity all create ${temperature} 231743 units box dist gaussian
velocity all create 300 231743 units box dist gaussian
dump   1 all atom 100 all-cy.lammpstrj
#fix    1 all npt temp 300 300  0.1 aniso 0 0 10 drag 1  #三个方向独立控压
fix  1 all npt temp ${temperature} ${temperature} 0.1 x ${pressure} ${pressure} 10 y ${pressure} ${pressure} 10
fix  1 all npt temp 300 ${temperature} 0.1 x ${pressure} ${pressure} 10 y ${pressure} ${pressure} 10
fix  1 all npt temp 300 300 0.1 x ${pressure} ${pressure} 10 y ${pressure} ${pressure} 10
fix  1 all npt temp 300 300 0.1 x 0 ${pressure} 10 y ${pressure} ${pressure} 10
fix  1 all npt temp 300 300 0.1 x 0 0 10 y ${pressure} ${pressure} 10
fix  1 all npt temp 300 300 0.1 x 0 0 10 y 0 ${pressure} 10
fix  1 all npt temp 300 300 0.1 x 0 0 10 y 0 0 10
compute  2 all pe/atom
compute  pe all reduce sum c_2
variable PE equal "c_pe"
fix    pe all print 100 "${PE} " file PE.txt screen no
thermo  ${thermalstep}
thermo  100
#thermo_style  custom step pe ke etotal lx ly lz
run   ${relaxtime}
run   0
Per MPI rank memory allocation (min/avg/max) = 13.57 | 13.57 | 13.57 Mbytes
   Step          Temp          E_pair         E_mol          TotEng         Press          Volume    
         1   300           -83188.954      0             -82753.903     -32.625279      18138036     
Loop time of 0.0193372 on 12 procs for 0 steps with 11220 atoms

25.8% CPU use with 12 MPI tasks x 1 OpenMP threads

MPI task timing breakdown:
Section |  min time  |  avg time  |  max time  |%varavg| %total
---------------------------------------------------------------
Pair    | 0          | 0          | 0          |   0.0 |  0.00
Neigh   | 0          | 0          | 0          |   0.0 |  0.00
Comm    | 0          | 0          | 0          |   0.0 |  0.00
Output  | 0          | 0          | 0          |   0.0 |  0.00
Modify  | 0          | 0          | 0          |   0.0 |  0.00
Other   |            | 0.01934    |            |       |100.00

Nlocal:            935 ave        1000 max         868 min
Histogram: 6 0 0 0 0 0 0 0 0 6
Nghost:           3455 ave        3535 max        3380 min
Histogram: 4 2 0 0 0 0 0 0 4 2
Neighs:              0 ave           0 max           0 min
Histogram: 12 0 0 0 0 0 0 0 0 0

Total # of neighbors = 0
Ave neighs/atom = 0
Neighbor list builds = 0
Dangerous builds = 0
#8 -------tension-----------------------------
unfix  1
undump  1
unfix  pe
reset_timestep 0
fix avestress all ave/atom 1 ${dumpstep} ${dumpstep} c_1[1] c_1[2] c_1[3] c_1[4] c_1[5] c_1[6]
fix avestress all ave/atom 1 1000 ${dumpstep} c_1[1] c_1[2] c_1[3] c_1[4] c_1[5] c_1[6]
fix avestress all ave/atom 1 1000 1000 c_1[1] c_1[2] c_1[3] c_1[4] c_1[5] c_1[6]

#-----calculation of strain and Cumulative compression--------
variable                tmp equal "lz"
variable                L0 equal ${tmp}
variable                L0 equal 453.450899
variable                strain equal "(lz - v_L0)/v_L0"
variable                Cumulativels equal "(lz - v_L0)/10"
fix Step all print 100 "${strain} ${Cumulativels} ${zstress}" file grapoten.txt screen no

dump 2 all custom ${dumpstep} tension.xyz type x y z f_avestress[1] f_avestress[2] f_avestress[3] f_avestress[4] f_avestress[5] f_avestress[6]
dump 2 all custom 1000 tension.xyz type x y z f_avestress[1] f_avestress[2] f_avestress[3] f_avestress[4] f_avestress[5] f_avestress[6]

fix  1 all npt temp ${temperature} ${temperature} 0.1 y ${pressure} ${pressure} 10 x ${pressure} ${pressure} 10
fix  1 all npt temp 300 ${temperature} 0.1 y ${pressure} ${pressure} 10 x ${pressure} ${pressure} 10
fix  1 all npt temp 300 300 0.1 y ${pressure} ${pressure} 10 x ${pressure} ${pressure} 10
fix  1 all npt temp 300 300 0.1 y 0 ${pressure} 10 x ${pressure} ${pressure} 10
fix  1 all npt temp 300 300 0.1 y 0 0 10 x ${pressure} ${pressure} 10
fix  1 all npt temp 300 300 0.1 y 0 0 10 x 0 ${pressure} 10
fix  1 all npt temp 300 300 0.1 y 0 0 10 x 0 0 10

thermo_style custom step pe ke etotal lx ly lz
fix   2 all deform 1 z erate ${deformrate} remap x units box
fix   2 all deform 1 z erate 0.005 remap x units box
fix   3 all ave/time 2 500 1000 v_xstress v_ystress v_zstress file pressure.out
run   ${totaltime}
run   100000
WARNING: Dump 2 includes no atom IDs and is not sorted by ID. This may complicate post-processing tasks or visualization (src/dump.cpp:221)
Per MPI rank memory allocation (min/avg/max) = 15.07 | 15.07 | 15.07 Mbytes
   Step         PotEng         KinEng         TotEng           Lx             Ly             Lz      
         0  -83188.954      435.05087     -82753.903      200            200            453.4509     
       100  -82935.168      212.73861     -82722.43       199.99206      199.99077      453.67762    
       200  -82942.728      263.5731      -82679.155      199.98656      199.98433      453.90435    
       300  -82905.705      278.23722     -82627.468      199.99524      199.99195      454.13108    
       400  -82882.258      311.43338     -82570.825      199.98659      199.9814       454.3578     
       500  -82849.931      338.90387     -82511.028      199.98238      199.97508      454.58453    
       600  -82821.405      370.9131      -82450.492      199.99179      199.98268      454.81125    
       700  -82791.304      398.6705      -82392.633      199.98274      199.9708       455.03798    
       800  -82762.02       420.16369     -82341.856      199.9779       199.96248      455.2647     
       900  -82743.715      439.29751     -82304.417      199.98878      199.97019      455.49143    
      1000  -82731.108      443.38752     -82287.721      199.98004      199.95709      455.71815    
      1100  -82749.091      449.81517     -82299.276      199.97454      199.94591      455.94488    
      1200  -82752.794      431.94619     -82320.847      199.98459      199.95038      456.1716     
      1300  -82754.097      424.63106     -82329.466      199.97655      199.93547      456.39833    
      1400  -82750.085      429.04936     -82321.036      199.9738       199.92549      456.62506    
      1500  -82738.903      438.22549     -82300.677      199.98351      199.92693      456.85178    
      1600  -82730.581      445.1045      -82285.477      199.97734      199.91155      457.07851    
      1700  -82733.371      446.36995     -82287.001      199.97503      199.89886      457.30523    
      1800  -82736.304      436.73675     -82299.567      199.9843       199.89791      457.53196    
      1900  -82734.431      426.29295     -82308.138      199.98016      199.88172      457.75868    
      2000  -82737.882      432.82637     -82305.055      199.97866      199.86781      457.98541    
      2100  -82721.68       432.27756     -82289.402      199.98631      199.86322      458.21213    
      2200  -82713.686      441.19245     -82272.494      199.98283      199.84624      458.43886    
      2300  -82711.435      444.16312     -82267.272      199.98317      199.83185      458.66558    
      2400  -82712.386      437.8795      -82274.507      199.99047      199.8248       458.89231    
      2500  -82714.317      431.26421     -82283.053      199.98763      199.80724      459.11904    
      2600  -82707.596      424.20117     -82283.395      199.98775      199.79167      459.34576    
      2700  -82701.075      429.42965     -82271.645      199.99417      199.7828       459.57249    
      2800  -82698.519      443.94097     -82254.578      199.99134      199.76464      459.79921    
      2900  -82686.798      441.6768      -82245.121      199.99109      199.7499       460.02594    
      3000  -82687.96       439.75813     -82248.202      199.99732      199.7404       460.25266    
      3100  -82683.749      428.8112      -82254.938      199.99301      199.72085      460.47939    
      3200  -82689.621      434.56255     -82255.058      199.99128      199.70458      460.70611    
      3300  -82680.412      435.4654      -82244.946      199.99645      199.69555      460.93284    
      3400  -82669.901      440.76884     -82229.132      199.99165      199.67725      461.15956    
      3500  -82661.066      442.48038     -82218.585      199.98941      199.66167      461.38629    
      3600  -82653.755      435.23428     -82218.521      199.9933       199.65283      461.61302    
      3700  -82655.502      432.53756     -82222.964      199.98555      199.63371      461.83974    
      3800  -82655.348      431.88333     -82223.465      199.9816       199.61858      462.06647    
      3900  -82644.619      429.58523     -82215.033      199.98476      199.61025      462.29319    
      4000  -82633.72       434.76036     -82198.96       199.97506      199.59147      462.51992    
      4100  -82630.897      445.24352     -82185.654      199.96892      199.57671      462.74664    
      4200  -82621.194      438.98064     -82182.213      199.97074      199.56951      462.97337    
      4300  -82619.158      434.08052     -82185.078      199.95949      199.55026      463.20009    
      4400  -82616.447      430.89761     -82185.549      199.95084      199.5348       463.42682    
      4500  -82610.581      430.92122     -82179.66       199.95217      199.5291       463.65354    
      4600  -82600.238      433.38428     -82166.854      199.93976      199.51022      463.88027    
      4700  -82592.508      438.10793     -82154.4        199.92949      199.49403      464.107      
      4800  -82582.563      435.3382      -82147.225      199.92908      199.48836      464.33372    
      4900  -82581.78       437.6845      -82144.096      199.91516      199.46972      464.56045    
      5000  -82580.11       436.84063     -82143.269      199.90319      199.45289      464.78717    
      5100  -82568.55       429.27429     -82139.275      199.9015       199.44652      465.0139     
      5200  -82560.355      431.96451     -82128.39       199.88704      199.4282       465.24062    
      5300  -82552.695      437.33794     -82115.357      199.87357      199.41164      465.46735    
      5400  -82544.214      438.94972     -82105.264      199.87019      199.40441      465.69407    
      5500  -82537.882      437.03945     -82100.842      199.85623      199.38723      465.9208     
      5600  -82534.454      434.92612     -82099.528      199.84162      199.36912      466.14752    
      5700  -82525.304      429.25027     -82096.054      199.83664      199.36007      466.37425    
      5800  -82519.569      433.6369      -82085.932      199.82371      199.34225      466.60098    
      5900  -82509.338      437.32753     -82072.011      199.80818      199.32228      466.8277     
      6000  -82498.517      439.51056     -82059.006      199.80174      199.31111      467.05443    
      6100  -82490.996      440.26246     -82050.734      199.79055      199.29352      467.28115    
      6200  -82487.315      438.82277     -82048.493      199.7752       199.27158      467.50788    
      6300  -82474.475      428.7248      -82045.751      199.76738      199.25732      467.7346     
      6400  -82469.972      432.20532     -82037.767      199.7571       199.2392       467.96133    
      6500  -82456.246      433.22219     -82023.024      199.74224      199.21531      468.18805    
      6600  -82443.392      434.5622      -82008.83       199.73485      199.19905      468.41478    
      6700  -82436.447      436.65888     -81999.788      199.72517      199.18024      468.6415     
      6800  -82431.054      435.41891     -81995.636      199.71032      199.15369      468.86823    
      6900  -82424.848      433.58704     -81991.261      199.70163      199.13308      469.09496    
      7000  -82413.061      430.21607     -81982.844      199.69352      199.11312      469.32168    
      7100  -82407.508      437.47386     -81970.034      199.67912      199.08565      469.54841    
      7200  -82391.967      434.60156     -81957.366      199.67057      199.06294      469.77513    
      7300  -82380.954      434.24677     -81946.707      199.66233      199.04077      470.00186    
      7400  -82378.461      438.35197     -81940.109      199.64948      199.01239      470.22858    
      7500  -82367.471      432.88458     -81934.586      199.63959      198.98634      470.45531    
      7600  -82358.346      432.6542      -81925.692      199.63103      198.96124      470.68203    
      7700  -82349.04       436.67539     -81912.365      199.61895      198.93256      470.90876    
      7800  -82336.637      438.10558     -81898.532      199.60858      198.90438      471.13548    
      7900  -82322.49       434.57577     -81887.914      199.59999      198.8771       471.36221    
      8000  -82319.624      439.76597     -81879.858      199.5878       198.84676      471.58893    
      8100  -82308.97       435.68167     -81873.288      199.5776       198.81719      471.81566    
      8200  -82298.941      434.61208     -81864.329      199.56831      198.78771      472.04239    
      8300  -82288.827      437.47386     -81851.353      199.55657      198.75631      472.26911    
      8400  -82274.131      437.34952     -81836.781      199.54553      198.72637      472.49584    
      8500  -82256.821      432.62341     -81824.198      199.5346       198.69542      472.72256    
      8600  -82251.698      437.05001     -81814.648      199.52122      198.66268      472.94929    
      8700  -82239.549      432.1348      -81807.414      199.50959      198.63246      473.17601    
      8800  -82224.405      426.64873     -81797.757      199.49611      198.60072      473.40274    
      8900  -82217.872      433.6561      -81784.216      199.48123      198.56737      473.62946    
      9000  -82204.612      435.55453     -81769.058      199.4682       198.53672      473.85619    
      9100  -82189.284      433.74394     -81755.54       199.45351      198.50577      474.08291    
      9200  -82181.8        436.16321     -81745.637      199.43647      198.4721       474.30964    
      9300  -82177.255      439.72905     -81737.526      199.42093      198.44002      474.53637    
      9400  -82159.28       431.64173     -81727.638      199.40444      198.40854      474.76309    
      9500  -82149.781      436.36589     -81713.415      199.38449      198.37434      474.98982    
      9600  -82133.214      434.7459      -81698.468      199.36813      198.34323      475.21654    
      9700  -82120.9        434.90851     -81685.992      199.3497       198.31093      475.44327    
      9800  -82114.258      439.50115     -81674.757      199.32698      198.27567      475.66999    
      9900  -82100.932      434.95932     -81665.973      199.30958      198.24583      475.89672    
     10000  -82087.751      432.70586     -81655.046      199.2894       198.21275      476.12344    
     10100  -82075.61       435.26432     -81640.346      199.26433      198.17668      476.35017    
     10200  -82058.907      434.9394      -81623.968      199.24455      198.1465       476.57689    
     10300  -82044          434.85832     -81609.141      199.2239       198.11448      476.80362    
     10400  -82037.159      438.69716     -81598.462      199.19759      198.07749      477.03035    
     10500  -82022.775      432.95461     -81589.82       199.17447      198.04522      477.25707    
     10600  -82011.671      432.35493     -81579.316      199.15245      198.0135       477.4838     
     10700  -81994.916      431.0785      -81563.838      199.12573      197.97651      477.71052    
     10800  -81981.511      436.10443     -81545.407      199.10098      197.94252      477.93725    
     10900  -81965.51       436.96306     -81528.547      199.0774       197.91049      478.16397    
     11000  -81954.488      438.31881     -81516.17       199.05067      197.8735       478.3907     
     11100  -81935.892      428.34964     -81507.542      199.02436      197.83738      478.61742    
     11200  -81926.691      430.0144      -81496.677      198.99968      197.80413      478.84415    
     11300  -81917.815      436.32557     -81481.489      198.9725       197.7669       479.07087    
     11400  -81895.823      434.49692     -81461.326      198.9461       197.729        479.2976     
     11500  -81881.472      437.8789      -81443.593      198.92089      197.69338      479.52433    
     11600  -81870.375      436.60863     -81433.766      198.89369      197.65571      479.75105    
     11700  -81861.666      433.63121     -81428.034      198.86678      197.61617      479.97778    
     11800  -81845.524      433.74661     -81411.777      198.84164      197.57787      480.2045     
     11900  -81824.935      433.20023     -81391.735      198.81561      197.53973      480.43123    
     12000  -81814.331      440.37263     -81373.958      198.78894      197.49948      480.65795    
     12100  -81800.157      438.90636     -81361.251      198.76427      197.45879      480.88468    
     12200  -81786.275      429.85611     -81356.419      198.73862      197.41811      481.1114     
     12300  -81777.207      434.3103      -81342.897      198.71251      197.37615      481.33813    
     12400  -81755.474      432.74355     -81322.731      198.68777      197.3342       481.56485    
     12500  -81735.516      432.95797     -81302.558      198.66392      197.29236      481.79158    
     12600  -81722.444      437.51948     -81284.925      198.63879      197.24876      482.01831    
     12700  -81704.603      434.05657     -81270.546      198.61508      197.20583      482.24503    
     12800  -81695.446      430.76332     -81264.683      198.59256      197.16281      482.47176    
     12900  -81681.895      430.82467     -81251.07       198.56758      197.11728      482.69848    
     13000  -81668.514      437.9341      -81230.579      198.54558      197.07415      482.92521    
     13100  -81644.567      434.50805     -81210.059      198.52318      197.02996      483.15193    
     13200  -81631.329      438.35335     -81192.975      198.49852      196.98323      483.37866    
     13300  -81613.858      435.82089     -81178.037      198.4764       196.93889      483.60538    
     13400  -81596.851      432.72808     -81164.123      198.45441      196.89461      483.83211    
     13500  -81586.212      433.2869      -81152.925      198.43065      196.84771      484.05883    
     13600  -81564.136      426.49326     -81137.643      198.40867      196.80364      484.28556    
     13700  -81551.037      437.07495     -81113.962      198.3869       196.76045      484.51229    
     13800  -81530.138      437.02029     -81093.117      198.3627       196.71389      484.73901    
     13900  -81512.057      435.29084     -81076.766      198.34049      196.67001      484.96574    
     14000  -81497.502      431.96155     -81065.541      198.31938      196.62841      485.19246    
     14100  -81486.51       432.39524     -81054.115      198.29412      196.58221      485.41919    
     14200  -81470.475      433.02581     -81037.45       198.27109      196.53861      485.64591    
     14300  -81450.056      439.23284     -81010.823      198.25049      196.49906      485.87264    
     14400  -81426.613      436.30262     -80990.31       198.22624      196.45571      486.09936    
     14500  -81415.398      439.61302     -80975.785      198.20179      196.413        486.32609    
     14600  -81399.649      435.16874     -80964.48       198.17996      196.37448      486.55281    
     14700  -81384.727      435.7452      -80948.982      198.15511      196.33436      486.77954    
     14800  -81361.982      435.16992     -80926.812      198.13056      196.29443      487.00627    
     14900  -81343.165      442.35442     -80900.81       198.10874      196.25817      487.23299    
     15000  -81318.623      433.91563     -80884.708      198.0829       196.22041      487.45972    
     15100  -81310.166      438.39103     -80871.775      198.05678      196.1823       487.68644    
     15200  -81295.797      439.40534     -80856.392      198.0341       196.14819      487.91317    
     15300  -81273.83       435.2579      -80838.572      198.00929      196.11371      488.13989    
     15400  -81249.673      430.40766     -80819.265      197.98229      196.07842      488.36662    
     15500  -81230.004      437.7036      -80792.3        197.9585       196.04583      488.59334    
     15600  -81217.69       446.31406     -80771.376      197.93435      196.01404      488.82007    
     15700  -81197.592      437.19162     -80760.401      197.90754      195.98142      489.04679    
     15800  -81182.313      435.52057     -80746.792      197.88273      195.95088      489.27352    
     15900  -81160.948      430.31315     -80730.635      197.85799      195.92066      489.50025    
     16000  -81146.114      433.69947     -80712.414      197.83216      195.89044      489.72697    
     16100  -81125.213      436.34387     -80688.869      197.8071       195.86209      489.9537     
     16200  -81099.963      436.14964     -80663.814      197.78301      195.83375      490.18042    
     16300  -81088.955      441.06193     -80647.893      197.75912      195.8063       490.40715    
     16400  -81069.351      434.24013     -80635.111      197.73421      195.77853      490.63387    
     16500  -81053.138      435.98984     -80617.148      197.71072      195.75142      490.8606     
     16600  -81035.186      438.0079      -80597.178      197.68918      195.72626      491.08732    
     16700  -81012.94       436.97225     -80575.968      197.66646      195.69994      491.31405    
     16800  -80989.157      438.66453     -80550.493      197.64392      195.67402      491.54077    
     16900  -80964.714      436.95581     -80527.758      197.62379      195.64967      491.7675     
     17000  -80947.428      432.37882     -80515.049      197.60253      195.62444      491.99423    
     17100  -80935.595      434.76652     -80500.829      197.58112      195.59877      492.22095    
     17200  -80915.568      433.60887     -80481.959      197.56349      195.57626      492.44768    
     17300  -80896.045      435.21592     -80460.829      197.54455      195.55213      492.6744     
     17400  -80869.648      434.65563     -80434.992      197.52455      195.52676      492.90113    
     17500  -80854.671      444.66        -80410.011      197.50823      195.50434      493.12785    
     17600  -80828.097      433.70581     -80394.391      197.49171      195.48088      493.35458    
     17700  -80814.472      431.0702      -80383.401      197.47399      195.45589      493.5813     
     17800  -80794.024      430.92107     -80363.103      197.45929      195.43345      493.80803    
     17900  -80775.889      436.99233     -80338.897      197.44502      195.4107       494.03475    
     18000  -80750.916      437.15056     -80313.766      197.42894      195.38548      494.26148    
     18100  -80731.481      439.12967     -80292.352      197.41592      195.36308      494.48821    
     18200  -80716.312      436.53497     -80279.777      197.40413      195.34144      494.71493    
     18300  -80692.993      428.47066     -80264.522      197.3907       195.31625      494.94166    
     18400  -80675.292      434.37614     -80240.916      197.37834      195.29284      495.16838    
     18500  -80649.677      435.83119     -80213.846      197.36835      195.27181      495.39511    
     18600  -80630.789      439.73275     -80191.057      197.35642      195.24823      495.62183    
     18700  -80603.96       432.20482     -80171.755      197.34538      195.22515      495.84856    
     18800  -80593.078      438.74697     -80154.331      197.33653      195.20462      496.07528    
     18900  -80573.298      430.19499     -80143.103      197.3263       195.18243      496.30201    
     19000  -80549.075      427.86531     -80121.21       197.31551      195.15902      496.52873    
     19100  -80523.837      429.82911     -80094.007      197.30745      195.13902      496.75546    
     19200  -80507.919      439.46607     -80068.453      197.29852      195.11816      496.98219    
     19300  -80484.063      440.75886     -80043.304      197.28896      195.09622      497.20891    
     19400  -80456.603      436.63118     -80019.972      197.28174      195.07714      497.43564    
     19500  -80434.875      434.31386     -80000.561      197.27274      195.05713      497.66236    
     19600  -80417.177      430.02148     -79987.156      197.26227      195.03598      497.88909    
     19700  -80397.855      431.33965     -79966.515      197.25389      195.01737      498.11581    
     19800  -80377.179      438.65122     -79938.528      197.24553      194.99958      498.34254    
     19900  -80348.259      434.67612     -79913.583      197.23492      194.98084      498.56926    
     20000  -80330.192      438.28072     -79891.912      197.22561      194.96283      498.79599    
     20100  -80302.461      430.96415     -79871.497      197.21646      194.94599      499.02271    
     20200  -80286.128      433.12922     -79852.999      197.206        194.92948      499.24944    
     20300  -80266.435      428.96755     -79837.468      197.19644      194.91421      499.47617    
     20400  -80246.515      432.97147     -79813.543      197.18566      194.89807      499.70289    
     20500  -80216.763      433.37393     -79783.389      197.17438      194.88296      499.92962    
     20600  -80195.933      437.49047     -79758.442      197.16426      194.86991      500.15634    
     20700  -80174.79       439.25576     -79735.534      197.15301      194.85562      500.38307    
     20800  -80146.505      431.6215      -79714.884      197.14083      194.84182      500.60979    
     20900  -80131.108      432.85599     -79698.252      197.13002      194.83091      500.83652    
     21000  -80106.549      428.67861     -79677.871      197.11777      194.81871      501.06324    
     21100  -80083.888      436.38455     -79647.504      197.10526      194.80605      501.28997    
     21200  -80058.24       438.24032     -79620          197.09403      194.79707      501.51669    
     21300  -80032.404      435.18858     -79597.215      197.08064      194.78605      501.74342    
     21400  -80008.938      433.1992      -79575.739      197.06614      194.77382      501.97015    
     21500  -79992.01       434.54394     -79557.466      197.05496      194.76567      502.19687    
     21600  -79972.753      433.84365     -79538.91       197.04172      194.75676      502.4236     
     21700  -79941.309      429.96964     -79511.339      197.02662      194.74533      502.65032    
     21800  -79918.069      437.61686     -79480.452      197.01497      194.73701      502.87705    
     21900  -79892.563      435.64864     -79456.915      197.00267      194.72963      503.10377    
     22000  -79869.412      433.13188     -79436.28       196.98683      194.71848      503.3305     
     22100  -79852.025      433.99342     -79418.032      196.97422      194.70982      503.55722    
     22200  -79826.696      428.45152     -79398.244      196.96251      194.70279      503.78395    
     22300  -79800.927      431.07632     -79369.85       196.9469       194.69219      504.01067    
     22400  -79776.728      437.89936     -79338.828      196.93388      194.68324      504.2374     
     22500  -79749.52       435.55461     -79313.966      196.92266      194.67584      504.46413    
     22600  -79729.158      437.16111     -79291.997      196.90755      194.66507      504.69085    
     22700  -79704.755      429.88423     -79274.871      196.89509      194.65597      504.91758    
     22800  -79685.211      431.62547     -79253.586      196.88368      194.64769      505.1443     
     22900  -79654.864      433.68791     -79221.176      196.87031      194.63696      505.37103    
     23000  -79628.272      435.28514     -79192.987      196.8582       194.62766      505.59775    
     23100  -79605.03       435.06207     -79169.968      196.84757      194.6187       505.82448    
     23200  -79582.838      433.91486     -79148.923      196.83418      194.60649      506.0512     
     23300  -79562.01       433.75686     -79128.254      196.82252      194.59551      506.27793    
     23400  -79537.854      432.29467     -79105.56       196.81364      194.58644      506.50465    
     23500  -79503.75       429.99366     -79073.756      196.80095      194.57254      506.73138    
     23600  -79484.385      440.23978     -79044.145      196.78973      194.55974      506.95811    
     23700  -79457.787      437.98884     -79019.798      196.78202      194.54985      507.18483    
     23800  -79435.486      436.33153     -78999.154      196.7715       194.53586      507.41156    
     23900  -79413.942      432.16082     -78981.781      196.76062      194.52098      507.63828    
     24000  -79394.844      437.44463     -78957.399      196.75306      194.50936      507.86501    
     24100  -79360.218      434.84058     -78925.378      196.74492      194.49588      508.09173    
     24200  -79332.522      434.96485     -78897.557      196.73394      194.4789       508.31846    
     24300  -79311.017      436.9247      -78874.092      196.72709      194.4656       508.54518    
     24400  -79287.357      436.5043      -78850.852      196.72021      194.45216      508.77191    
     24500  -79255.045      429.23412     -78825.811      196.71022      194.43457      508.99863    
     24600  -79230.457      433.17296     -78797.284      196.70312      194.41957      509.22536    
     24700  -79208.278      441.54819     -78766.73       196.69719      194.40565      509.45209    
     24800  -79174.391      433.441       -78740.95       196.6887       194.38877      509.67881    
     24900  -79160.205      435.14759     -78725.057      196.68082      194.37202      509.90554    
     25000  -79133.715      432.08976     -78701.625      196.67426      194.35671      510.13226    
     25100  -79105.278      432.49108     -78672.787      196.66688      194.34102      510.35899    
     25200  -79078.312      435.69833     -78642.614      196.6591       194.32394      510.58571    
     25300  -79054.784      440.6905      -78614.093      196.65091      194.3066       510.81244    
     25400  -79027.091      438.18155     -78588.91       196.64412      194.29155      511.03916    
     25500  -79002.682      428.00274     -78574.68       196.63684      194.27565      511.26589    
     25600  -78980.574      430.30157     -78550.273      196.6268       194.2571       511.49261    
     25700  -78955.187      437.53263     -78517.654      196.61934      194.24157      511.71934    
     25800  -78920.373      433.85957     -78486.513      196.6125       194.22696      511.94606    
     25900  -78895.773      437.00273     -78458.77       196.6022       194.20911      512.17279    
     26000  -78868.139      434.25709     -78433.882      196.5924       194.19302      512.39952    
     26100  -78847.682      432.76193     -78414.92       196.58524      194.17995      512.62624    
     26200  -78821.512      429.16165     -78392.35       196.57387      194.1631       512.85297    
     26300  -78792.903      432.46307     -78360.44       196.5616       194.14659      513.07969    
     26400  -78763.403      433.65182     -78329.751      196.55319      194.13427      513.30642    
     26500  -78741.94       440.1649      -78301.775      196.54192      194.11978      513.53314    
     26600  -78708.032      432.31249     -78275.719      196.52856      194.10463      513.75987    
     26700  -78684.605      433.47439     -78251.13       196.51713      194.09226      513.98659    
     26800  -78661.752      434.25861     -78227.494      196.50495      194.0791       514.21332    
     26900  -78629.866      428.37898     -78201.487      196.49124      194.06562      514.44004    
     27000  -78603.921      435.24547     -78168.676      196.4774       194.05329      514.66677    
     27100  -78575.524      438.63119     -78136.893      196.4629       194.04067      514.8935     
     27200  -78546.54       435.79626     -78110.744      196.44775      194.02835      515.12022    
     27300  -78523.729      435.04765     -78088.681      196.43208      194.01667      515.34695    
     27400  -78501.108      431.80111     -78069.307      196.41587      194.00423      515.57367    
     27500  -78475.485      430.7118      -78044.773      196.39951      193.99259      515.8004     
     27600  -78442.088      436.17116     -78005.917      196.38304      193.98175      516.02712    
     27700  -78413.337      438.87257     -77974.464      196.36607      193.96998      516.25385    
     27800  -78382.254      434.14148     -77948.113      196.34845      193.95812      516.48057    
     27900  -78362.106      435.87096     -77926.235      196.33072      193.94706      516.7073     
     28000  -78336.308      433.49632     -77902.812      196.31339      193.9357       516.93402    
     28100  -78308.851      436.22133     -77872.629      196.295        193.92351      517.16075    
     28200  -78275.846      438.82489     -77837.021      196.27692      193.91215      517.38748    
     28300  -78246.154      436.65482     -77809.499      196.25976      193.90056      517.6142     
     28400  -78222.9        436.7531      -77786.147      196.24171      193.88842      517.84093    
     28500  -78196.975      435.08821     -77761.887      196.2233       193.87573      518.06765    
     28600  -78165.277      431.8029      -77733.474      196.20562      193.86333      518.29438    
     28700  -78132.153      436.66864     -77695.484      196.18848      193.85128      518.5211     
     28800  -78105.251      438.64129     -77666.609      196.17106      193.83816      518.74783    
     28900  -78083.021      438.74906     -77644.272      196.15259      193.82414      518.97455    
     29000  -78053.63       431.9928      -77621.637      196.13566      193.81082      519.20128    
     29100  -78029.905      434.99332     -77594.912      196.11901      193.79694      519.428      
     29200  -78002.79       438.46145     -77564.328      196.10076      193.78106      519.65473    
     29300  -77966.914      438.3287      -77528.585      196.08517      193.76642      519.88146    
     29400  -77934.83       440.99559     -77493.834      196.06948      193.75146      520.10818    
     29500  -77911.328      440.35017     -77470.977      196.05234      193.73471      520.33491    
     29600  -77884.526      434.80926     -77449.717      196.03653      193.71745      520.56163    
     29700  -77860.274      435.00484     -77425.269      196.02182      193.70087      520.78836    
     29800  -77830.13       433.58004     -77396.55       196.00589      193.68294      521.01508    
     29900  -77797.121      436.23223     -77360.889      195.99012      193.66343      521.24181    
     30000  -77765.115      435.77113     -77329.344      195.97669      193.64555      521.46853    
     30100  -77737.488      433.92567     -77303.562      195.9626       193.62664      521.69526    
     30200  -77710.637      432.39954     -77278.237      195.94685      193.60525      521.92198    
     30300  -77683.965      432.63979     -77251.325      195.93407      193.58549      522.14871    
     30400  -77653.295      431.31909     -77221.976      195.9215       193.56637      522.37544    
     30500  -77623.969      439.52013     -77184.449      195.90661      193.54406      522.60216    
     30600  -77590.2        436.36176     -77153.838      195.89293      193.52207      522.82889    
     30700  -77568.372      437.05294     -77131.32       195.88099      193.50173      523.05561    
     30800  -77544.113      436.80656     -77107.306      195.86638      193.47858      523.28234    
     30900  -77513.597      435.02227     -77078.575      195.85197      193.45527      523.50906    
     31000  -77483.143      435.5478      -77047.595      195.84083      193.43404      523.73579    
     31100  -77454.081      438.95053     -77015.13       195.82701      193.41125      523.96251    
     31200  -77414.871      437.66169     -76977.209      195.81158      193.38694      524.18924    
     31300  -77389.275      444.62039     -76944.655      195.79962      193.3648       524.41596    
     31400  -77365.127      442.02258     -76923.105      195.78642      193.34245      524.64269    
     31500  -77337.453      437.10711     -76900.346      195.76977      193.3172       524.86942    
     31600  -77307.568      432.39979     -76875.168      195.75581      193.29421      525.09614    
     31700  -77279.07       432.44506     -76846.625      195.74285      193.27227      525.32287    
     31800  -77250.049      439.06224     -76810.987      195.72585      193.24787      525.54959    
     31900  -77216.989      439.67741     -76777.312      195.71054      193.22477      525.77632    
     32000  -77186.618      436.523       -76750.095      195.69646      193.20252      526.00304    
     32100  -77160.16       436.18731     -76723.972      195.67847      193.17892      526.22977    
     32200  -77131.634      436.02545     -76695.608      195.66152      193.15645      526.45649    
     32300  -77099.724      433.90514     -76665.818      195.64623      193.13512      526.68322    
     32400  -77064.852      430.04792     -76634.804      195.62769      193.11252      526.90994    
     32500  -77036.092      435.20813     -76600.884      195.60864      193.09065      527.13667    
     32600  -77004.911      440.4377      -76564.473      195.59175      193.06998      527.3634     
     32700  -76973.122      435.14446     -76537.977      195.57163      193.04825      527.59012    
     32800  -76953.355      437.60522     -76515.75       195.55101      193.02713      527.81685    
     32900  -76920.189      432.16141     -76488.027      195.53212      193.00748      528.04357    
     33000  -76890.335      433.29031     -76457.045      195.51012      192.98631      528.2703     
     33100  -76859.604      437.84543     -76421.759      195.48746      192.96576      528.49702    
     33200  -76827.966      439.60625     -76388.36       195.46788      192.94846      528.72375    
     33300  -76797.766      435.42527     -76362.341      195.44522      192.92863      528.95047    
     33400  -76774.216      432.14305     -76342.073      195.41997      192.90781      529.1772     
     33500  -76740.536      428.84921     -76311.686      195.39856      192.8902       529.40392    
     33600  -76709.642      434.19636     -76275.446      195.37678      192.87276      529.63065    
     33700  -76679.9        437.88537     -76242.015      195.35059      192.85216      529.85738    
     33800  -76649.152      436.939       -76212.213      195.32684      192.83375      530.0841     
     33900  -76622.324      436.95961     -76185.364      195.30483      192.81768      530.31083    
     34000  -76597.403      432.67381     -76164.729      195.27846      192.79726      530.53755    
     34100  -76562.623      428.41308     -76134.21       195.252        192.77702      530.76428    
     34200  -76529.409      431.37391     -76098.035      195.23072      192.76223      530.991      
     34300  -76496.706      432.96799     -76063.738      195.20551      192.74355      531.21773    
     34400  -76468.101      438.62523     -76029.476      195.17694      192.72189      531.44445    
     34500  -76432.866      435.47103     -75997.394      195.15391      192.70555      531.67118    
     34600  -76402.495      434.10207     -75968.392      195.13029      192.68847      531.8979     
     34700  -76377.313      433.33658     -75943.976      195.10132      192.66611      532.12463    
     34800  -76349.409      433.22708     -75916.182      195.07581      192.64693      532.35136    
     34900  -76312.457      432.2476      -75880.21       195.05335      192.63039      532.57808    
     35000  -76281.881      438.15005     -75843.731      195.02479      192.60777      532.80481    
     35100  -76250.698      436.81292     -75813.885      194.99863      192.58629      533.03153    
     35200  -76218.821      432.04827     -75786.773      194.97746      192.56946      533.25826    
     35300  -76193.516      433.55305     -75759.963      194.95112      192.54681      533.48498    
     35400  -76167.474      433.19941     -75734.274      194.92445      192.52313      533.71171    
     35500  -76131.418      428.20294     -75703.215      194.90401      192.50505      533.93843    
     35600  -76098.719      435.1381      -75663.58       194.87958      192.48182      534.16516    
     35700  -76064.065      434.91305     -75629.152      194.85315      192.45554      534.39188    
     35800  -76035.141      438.34036     -75596.801      194.83349      192.43573      534.61861    
     35900  -76004.154      436.79801     -75567.356      194.81253      192.41308      534.84534    
     36000  -75974.64       432.90037     -75541.74       194.78611      192.38433      535.07206    
     36100  -75945.176      429.70315     -75515.473      194.76648      192.36194      535.29879    
     36200  -75915.769      436.74017     -75479.029      194.7489       192.34052      535.52551    
     36300  -75877.502      435.64822     -75441.854      194.72443      192.3113       535.75224    
     36400  -75845.836      435.20566     -75410.63       194.70297      192.2846       535.97896    
     36500  -75818.317      436.30237     -75382.015      194.68734      192.26265      536.20569    
     36600  -75783.836      429.42332     -75354.412      194.6653       192.23364      536.43241    
     36700  -75759.277      433.41707     -75325.86       194.64242      192.20387      536.65914    
     36800  -75727.651      437.78924     -75289.862      194.62706      192.18078      536.88586    
     36900  -75688.407      436.22969     -75252.177      194.60813      192.15334      537.11259    
     37000  -75659.288      438.22591     -75221.062      194.58555      192.12247      537.33932    
     37100  -75627.002      432.62092     -75194.381      194.56914      192.09721      537.56604    
     37200  -75601.988      432.5871      -75169.4        194.55212      192.07017      537.79277    
     37300  -75570.313      430.68926     -75139.624      194.53042      192.03985      538.01949    
     37400  -75534.156      435.506       -75098.65       194.51329      192.01349      538.24622    
     37500  -75495.401      432.90991     -75062.491      194.49674      191.98697      538.47294    
     37600  -75469.955      439.4768      -75030.479      194.47532      191.95653      538.69967    
     37700  -75438.163      434.47571     -75003.688      194.45671      191.9288       538.92639    
     37800  -75410.886      433.72795     -74977.158      194.44082      191.9032       539.15312    
     37900  -75375.187      430.97622     -74944.211      194.42043      191.87421      539.37984    
     38000  -75341.807      438.83644     -74902.971      194.40047      191.84585      539.60657    
     38100  -75305.641      434.95616     -74870.684      194.38459      191.82159      539.8333     
     38200  -75279.555      437.93411     -74841.621      194.36419      191.79339      540.06002    
     38300  -75249.259      433.77322     -74815.486      194.34204      191.76464      540.28675    
     38400  -75215.546      427.12893     -74788.417      194.325        191.74097      540.51347    
     38500  -75188.069      434.37592     -74753.693      194.30538      191.71529      540.7402     
     38600  -75151.695      438.34829     -74713.347      194.28125      191.68701      540.96692    
     38700  -75113.363      432.82662     -74680.537      194.26229      191.6639       541.19365    
     38800  -75085.127      434.55636     -74650.57       194.24283      191.64045      541.42037    
     38900  -75060.13       436.18775     -74623.942      194.21766      191.61413      541.6471     
     39000  -75028.163      430.57223     -74597.591      194.19645      191.59079      541.87382    
     39100  -74993.399      430.24399     -74563.155      194.17664      191.5699       542.10055    
     39200  -74954.55       432.60358     -74521.947      194.15066      191.54556      542.32728    
     39300  -74925.782      436.59911     -74489.183      194.12665      191.52236      542.554      
     39400  -74897.736      437.79815     -74459.937      194.10647      191.50357      542.78073    
     39500  -74865.501      432.68568     -74432.815      194.08072      191.48159      543.00745    
     39600  -74832.454      429.46257     -74402.991      194.05457      191.45816      543.23418    
     39700  -74796.489      432.8737      -74363.616      194.03321      191.44028      543.4609     
     39800  -74764.018      437.61965     -74326.398      194.0088       191.4213       543.68763    
     39900  -74733.007      437.96954     -74295.037      193.98146      191.39852      543.91435    
     40000  -74702.925      434.34204     -74268.583      193.95747      191.38024      544.14108    
     40100  -74667.488      426.7452      -74240.743      193.93325      191.36272      544.3678     
     40200  -74637.338      433.70034     -74203.638      193.90632      191.34182      544.59453    
     40300  -74604.619      440.37603     -74164.243      193.88165      191.32439      544.82126    
     40400  -74569.739      436.51926     -74133.22       193.85733      191.3072       545.04798    
     40500  -74542.992      437.66517     -74105.327      193.83023      191.28669      545.27471    
     40600  -74509.665      432.70699     -74076.958      193.80483      191.26906      545.50143    
     40700  -74478.847      433.66499     -74045.182      193.78167      191.25355      545.72816    
     40800  -74439.767      435.70004     -74004.067      193.75465      191.23332      545.95488    
     40900  -74405.522      437.00303     -73968.519      193.72893      191.21518      546.18161    
     41000  -74374.375      434.78156     -73939.593      193.70729      191.20056      546.40833    
     41100  -74347.996      435.28793     -73912.708      193.68193      191.18177      546.63506    
     41200  -74315.569      433.35172     -73882.217      193.65531      191.16179      546.86178    
     41300  -74277.198      432.24308     -73844.955      193.63389      191.14678      547.08851    
     41400  -74243.518      440.52283     -73802.995      193.61102      191.12945      547.31524    
     41500  -74208.744      434.99382     -73773.75       193.58463      191.10843      547.54196    
     41600  -74181.499      434.14775     -73747.351      193.5623       191.09095      547.76869    
     41700  -74152.246      434.6812      -73717.565      193.54222      191.07432      547.99541    
     41800  -74109.58       427.77587     -73681.804      193.51759      191.05311      548.22214    
     41900  -74079.463      438.54956     -73640.913      193.49499      191.03357      548.44886    
     42000  -74044.716      435.83152     -73608.885      193.47691      191.01729      548.67559    
     42100  -74017.254      436.71274     -73580.541      193.45418      190.99608      548.90231    
     42200  -73985.156      434.37954     -73550.776      193.43208      190.97439      549.12904    
     42300  -73951.514      432.46423     -73519.05       193.4153       190.95694      549.35576    
     42400  -73914.854      432.61737     -73482.237      193.39481      190.93556      549.58249    
     42500  -73883.306      442.49968     -73440.807      193.37336      190.91243      549.80922    
     42600  -73848.565      436.8478      -73411.717      193.3572       190.89284      550.03594    
     42700  -73819.76       434.43475     -73385.326      193.33953      190.87209      550.26267    
     42800  -73792.637      438.22169     -73354.416      193.31931      190.84762      550.48939    
     42900  -73751.988      430.43112     -73321.556      193.30342      190.82635      550.71612    
     43000  -73718.482      433.9843      -73284.498      193.28888      190.80635      550.94284    
     43100  -73682.154      437.92045     -73244.233      193.27135      190.7827       551.16957    
     43200  -73650.007      436.78809     -73213.219      193.25421      190.75861      551.39629    
     43300  -73625.064      437.72246     -73187.342      193.24188      190.73898      551.62302    
     43400  -73589.934      433.94806     -73155.986      193.22715      190.71683      551.84974    
     43500  -73555.414      432.50369     -73122.91       193.2093       190.69047      552.07647    
     43600  -73524.06       436.95062     -73087.109      193.19566      190.66888      552.30319    
     43700  -73485.666      437.30016     -73048.366      193.18368      190.64797      552.52992    
     43800  -73452.453      440.09002     -73012.363      193.16694      190.62217      552.75665    
     43900  -73422.504      434.45746     -72988.047      193.15335      190.60007      552.98337    
     44000  -73394.85       435.20775     -72959.642      193.1419       190.58005      553.2101     
     44100  -73358.402      432.5945      -72925.808      193.12585      190.55494      553.43682    
     44200  -73325.845      436.71995     -72889.125      193.111        190.532        553.66355    
     44300  -73290.063      439.26611     -72850.797      193.10057      190.51285      553.89027    
     44400  -73253.801      438.1325      -72815.668      193.08633      190.49018      554.117      
     44500  -73224.241      433.81471     -72790.426      193.0696       190.46581      554.34372    
     44600  -73194.902      432.86017     -72762.042      193.05741      190.44611      554.57045    
     44700  -73163.999      435.90335     -72728.096      193.04567      190.4269       554.79717    
     44800  -73122.753      433.64568     -72689.107      193.02845      190.40309      555.0239     
     44900  -73085.94       435.80723     -72650.133      193.0133       190.382        555.25063    
     45000  -73056.079      437.58033     -72618.499      193.0033       190.36523      555.47735    
     45100  -73024.843      436.59123     -72588.252      192.98749      190.34457      555.70408    
     45200  -72995.65       437.69609     -72557.954      192.96896      190.32161      555.9308     
     45300  -72956.414      430.26551     -72526.148      192.95684      190.30554      556.15753    
     45400  -72924.033      433.56524     -72490.468      192.94378      190.28962      556.38425    
     45500  -72887.367      438.27242     -72449.095      192.92437      190.26835      556.61098    
     45600  -72850.642      435.86789     -72414.774      192.90773      190.25025      556.8377     
     45700  -72826.329      437.79109     -72388.538      192.89373      190.23563      557.06443    
     45800  -72789.273      431.01532     -72358.258      192.87601      190.21831      557.29115    
     45900  -72756.918      434.02934     -72322.888      192.85665      190.20061      557.51788    
     46000  -72724.147      437.31227     -72286.835      192.84175      190.18725      557.74461    
     46100  -72685.828      434.81916     -72251.008      192.82359      190.17226      557.97133    
     46200  -72656.164      438.10509     -72218.059      192.80298      190.15489      558.19806    
     46300  -72626.892      436.14281     -72190.749      192.78637      190.14218      558.42478    
     46400  -72593.146      432.70693     -72160.439      192.76867      190.12993      558.65151    
     46500  -72559.173      433.90526     -72125.267      192.74709      190.11346      558.87823    
     46600  -72522.274      438.24946     -72084.024      192.72863      190.10066      559.10496    
     46700  -72483.832      437.12065     -72046.712      192.71155      190.09033      559.33168    
     46800  -72457.85       440.65275     -72017.197      192.69077      190.07531      559.55841    
     46900  -72420.731      434.38808     -71986.343      192.66997      190.06199      559.78513    
     47000  -72388.851      434.77901     -71954.072      192.6527       190.05248      560.01186    
     47100  -72359.753      436.78038     -71922.973      192.63444      190.04114      560.23859    
     47200  -72326.483      432.41788     -71894.065      192.61179      190.02716      560.46531    
     47300  -72291.569      429.50406     -71862.065      192.59133      190.01494      560.69204    
     47400  -72255.033      435.2722      -71819.76       192.57458      190.00536      560.91876    
     47500  -72218.549      437.26252     -71781.287      192.55406      189.99372      561.14549    
     47600  -72184.999      435.56458     -71749.435      192.53254      189.97997      561.37221    
     47700  -72151.645      430.48832     -71721.156      192.51507      189.96954      561.59894    
     47800  -72120.606      431.34933     -71689.257      192.4956       189.95871      561.82566    
     47900  -72086.911      433.65919     -71653.251      192.47469      189.94479      562.05239    
     48000  -72054.159      436.76239     -71617.397      192.45706      189.93407      562.27911    
     48100  -72021.639      438.89589     -71582.743      192.43953      189.92423      562.50584    
     48200  -71986.43       437.5218      -71548.908      192.42004      189.9107       562.73257    
     48300  -71954.538      435.91701     -71518.621      192.40249      189.8987       562.95929    
     48400  -71921.408      432.42866     -71488.979      192.38587      189.88769      563.18602    
     48500  -71884.469      431.16353     -71453.305      192.36833      189.87402      563.41274    
     48600  -71844.074      434.82892     -71409.245      192.35055      189.86075      563.63947    
     48700  -71811.828      437.65654     -71374.172      192.33506      189.84867      563.86619    
     48800  -71781.202      435.83909     -71345.363      192.3193       189.83517      564.09292    
     48900  -71748.234      433.86643     -71314.367      192.30143      189.81973      564.31964    
     49000  -71713.342      434.59584     -71278.746      192.28621      189.80604      564.54637    
     49100  -71677.642      434.81272     -71242.829      192.27365      189.79384      564.77309    
     49200  -71647.256      438.70806     -71208.547      192.25782      189.77834      564.99982    
     49300  -71618.608      436.95869     -71181.649      192.2413       189.76118      565.22655    
     49400  -71583.921      435.07909     -71148.842      192.22961      189.7476       565.45327    
     49500  -71542.279      433.12565     -71109.154      192.21684      189.73305      565.68       
     49600  -71509.046      439.64424     -71069.402      192.20033      189.7137       565.90672    
     49700  -71476.658      440.23862     -71036.419      192.18865      189.69779      566.13345    
     49800  -71439.6        433.05607     -71006.544      192.17753      189.68334      566.36017    
     49900  -71410.805      436.89499     -70973.91       192.16272      189.66319      566.5869     
     50000  -71376.731      437.35928     -70939.372      192.15049      189.64542      566.81362    
     50100  -71340.468      436.63281     -70903.835      192.14129      189.63086      567.04035    
     50200  -71302.913      432.62659     -70870.287      192.12925      189.61183      567.26707    
     50300  -71272.008      431.11099     -70840.897      192.11679      189.59184      567.4938     
     50400  -71241.383      432.77397     -70808.609      192.10781      189.57626      567.72053    
     50500  -71202.638      434.7966      -70767.841      192.09789      189.55853      567.94725    
     50600  -71158.265      432.64502     -70725.62       192.085        189.53731      568.17398    
     50700  -71128.111      435.46564     -70692.646      192.07588      189.5201       568.4007     
     50800  -71100.473      437.61831     -70662.855      192.06798      189.50357      568.62743    
     50900  -71063.705      432.8167      -70630.889      192.0553       189.48189      568.85415    
     51000  -71032.316      435.14291     -70597.173      192.04414      189.46264      569.08088    
     51100  -70997.778      435.86012     -70561.918      192.0371       189.44687      569.3076     
     51200  -70964.299      437.07711     -70527.222      192.02662      189.42805      569.53433    
     51300  -70928.347      433.63416     -70494.713      192.01352      189.40706      569.76105    
     51400  -70895.015      432.48065     -70462.534      192.0052       189.39013      569.98778    
     51500  -70864.914      435.79674     -70429.118      191.99662      189.37335      570.21451    
     51600  -70826.246      432.1884      -70394.058      191.98332      189.35344      570.44123    
     51700  -70792.453      437.39199     -70355.061      191.97218      189.33485      570.66796    
     51800  -70757.693      442.06034     -70315.632      191.96437      189.31961      570.89468    
     51900  -70720.307      436.40984     -70283.897      191.95252      189.30208      571.12141    
     52000  -70691.527      435.90742     -70255.62       191.93919      189.2822       571.34813    
     52100  -70654.114      432.98422     -70221.13       191.92947      189.26698      571.57486    
     52200  -70623.805      438.96043     -70184.844      191.91868      189.25188      571.80158    
     52300  -70583.3        435.53833     -70147.762      191.90426      189.2326       572.02831    
     52400  -70548.95       439.64166     -70109.308      191.89159      189.21723      572.25503    
     52500  -70516.9        442.93346     -70073.966      191.88163      189.20462      572.48176    
     52600  -70477.687      431.54836     -70046.138      191.86621      189.18692      572.70849    
     52700  -70445.893      432.35172     -70013.541      191.84989      189.1695       572.93521    
     52800  -70412.342      434.98447     -69977.358      191.83915      189.15844      573.16194    
     52900  -70378.244      438.25386     -69939.991      191.82515      189.14402      573.38866    
     53000  -70341.6        437.59337     -69904.007      191.80593      189.12637      573.61539    
     53100  -70309.646      436.34        -69873.306      191.79228      189.11479      573.84211    
     53200  -70279.058      436.95772     -69842.1        191.77918      189.10307      574.06884    
     53300  -70239.659      431.83067     -69807.829      191.75904      189.08654      574.29556    
     53400  -70202.44       432.71837     -69769.721      191.7433       189.07448      574.52229    
     53500  -70166.166      437.79573     -69728.37       191.73085      189.06498      574.74901    
     53600  -70134.741      441.3251      -69693.416      191.71014      189.05005      574.97574    
     53700  -70100.378      435.3626      -69665.016      191.69105      189.03589      575.20247    
     53800  -70063.651      432.12774     -69631.523      191.67775      189.02737      575.42919    
     53900  -70035.573      438.0906      -69597.482      191.6602       189.01644      575.65592    
     54000  -69999.891      435.00445     -69564.886      191.63885      189.00129      575.88264    
     54100  -69966.712      431.04603     -69535.666      191.62197      188.99103      576.10937    
     54200  -69932.304      431.54753     -69500.757      191.60615      188.98289      576.33609    
     54300  -69892.523      437.95332     -69454.57       191.58506      188.96882      576.56282    
     54400  -69852.485      437.21712     -69415.268      191.56518      188.95628      576.78954    
     54500  -69820.772      437.69045     -69383.082      191.55091      188.94983      577.01627    
     54600  -69787.76       434.90284     -69352.857      191.53189      188.93816      577.24299    
     54700  -69750.121      431.47127     -69318.65       191.50834      188.92237      577.46972    
     54800  -69721.576      438.75381     -69282.822      191.49271      188.91535      577.69645    
     54900  -69689.217      438.22148     -69250.995      191.4765       188.90639      577.92317    
     55000  -69654.59       433.12787     -69221.462      191.45267      188.89041      578.1499     
     55100  -69613.622      430.81959     -69182.803      191.43467      188.88006      578.37662    
     55200  -69579.162      436.82768     -69142.334      191.41992      188.87206      578.60335    
     55300  -69537.953      433.10962     -69104.843      191.39809      188.8572       578.83007    
     55400  -69506.149      436.36345     -69069.786      191.37845      188.84418      579.0568     
     55500  -69474.143      438.86456     -69035.278      191.36494      188.83634      579.28352    
     55600  -69442.998      440.23151     -69002.766      191.34642      188.82368      579.51025    
     55700  -69406.57       437.01046     -68969.56       191.3251       188.80713      579.73697    
     55800  -69363.059      430.17894     -68932.88       191.31062      188.79671      579.9637     
     55900  -69329.507      434.61349     -68894.893      191.29625      188.78595      580.19043    
     56000  -69295.694      437.90074     -68857.793      191.27494      188.76812      580.41715    
     56100  -69262.26       435.94515     -68826.315      191.25853      188.75398      580.64388    
     56200  -69227.554      433.95883     -68793.596      191.2465       188.74419      580.8706     
     56300  -69189.403      430.59468     -68758.808      191.22807      188.72766      581.09733    
     56400  -69153.42       431.23213     -68722.188      191.21005      188.70962      581.32405    
     56500  -69124.812      438.17092     -68686.641      191.19798      188.6981       581.55078    
     56600  -69087.787      433.47067     -68654.316      191.18265      188.68271      581.7775     
     56700  -69051.332      431.62262     -68619.709      191.16506      188.66317      582.00423    
     56800  -69014.715      433.17691     -68581.538      191.15227      188.64874      582.23095    
     56900  -68974.963      435.9446      -68539.018      191.13912      188.6337       582.45768    
     57000  -68942.351      442.37871     -68499.972      191.12237      188.61309      582.68441    
     57100  -68909.028      438.62337     -68470.405      191.10846      188.5959       582.91113    
     57200  -68873.369      436.36497     -68437.004      191.09634      188.58058      583.13786    
     57300  -68837.207      434.02402     -68403.183      191.08148      188.56076      583.36458    
     57400  -68800.928      432.24375     -68368.685      191.06747      188.54195      583.59131    
     57500  -68772.159      439.3857      -68332.774      191.05554      188.52486      583.81803    
     57600  -68732.89       432.38148     -68300.508      191.04377      188.50691      584.04476    
     57700  -68699.983      431.73541     -68268.248      191.02969      188.48703      584.27148    
     57800  -68660.31       433.00917     -68227.301      191.01661      188.46759      584.49821    
     57900  -68622.908      439.21826     -68183.69       191.00498      188.44956      584.72493    
     58000  -68586.702      442.5538      -68144.148      190.9912       188.42875      584.95166    
     58100  -68552.124      435.30524     -68116.819      190.97759      188.40832      585.17839    
     58200  -68516.574      433.12608     -68083.448      190.96643      188.39032      585.40511    
     58300  -68483.801      436.53542     -68047.265      190.95381      188.36977      585.63184    
     58400  -68448.105      436.98967     -68011.115      190.93993      188.34897      585.85856    
     58500  -68412.328      436.60814     -67975.72       190.92823      188.32995      586.08529    
     58600  -68374.941      432.00842     -67942.932      190.91579      188.30975      586.31201    
     58700  -68343.669      435.13317     -67908.536      190.90277      188.28992      586.53874    
     58800  -68305.619      438.28415     -67867.335      190.89091      188.27114      586.76546    
     58900  -68260.402      441.50175     -67818.9        190.87784      188.25093      586.99219    
     59000  -68224.467      442.8973      -67781.569      190.86297      188.23031      587.21891    
     59100  -68193.85       443.77051     -67750.079      190.85064      188.2118       587.44564    
     59200  -68156.564      439.52776     -67717.036      190.83795      188.19259      587.67237    
     59300  -68115.25       432.11255     -67683.137      190.82324      188.17278      587.89909    
     59400  -68081.896      433.27657     -67648.619      190.81004      188.15463      588.12582    
     59500  -68045.883      433.24355     -67612.64       190.79581      188.13572      588.35254    
     59600  -68013.226      436.75309     -67576.473      190.77869      188.11542      588.57927    
     59700  -67979.533      436.52926     -67543.004      190.76458      188.09734      588.80599    
     59800  -67941.674      432.06273     -67509.611      190.7513       188.08127      589.03272    
     59900  -67900.024      431.01858     -67469.005      190.73377      188.06216      589.25944    
     60000  -67863.862      437.45736     -67426.405      190.71579      188.04229      589.48617    
     60100  -67825.364      441.5954      -67383.769      190.7013       188.02619      589.71289    
     60200  -67791.691      440.91282     -67350.778      190.68548      188.01063      589.93962    
     60300  -67753.892      436.4544      -67317.438      190.66576      187.99079      590.16635    
     60400  -67715.886      433.98625     -67281.9        190.64915      187.9747       590.39307    
     60500  -67679.725      434.47608     -67245.248      190.63279      187.95937      590.6198     
     60600  -67644.392      434.45617     -67209.936      190.61242      187.94042      590.84652    
     60700  -67607.533      436.28088     -67171.252      190.59431      187.92414      591.07325    
     60800  -67570.608      438.357       -67132.251      190.57728      187.91015      591.29997    
     60900  -67534.222      432.63669     -67101.586      190.55654      187.89258      591.5267     
     61000  -67495.409      432.6778      -67062.731      190.53779      187.87752      591.75342    
     61100  -67453.22       434.25477     -67018.966      190.51904      187.86299      591.98015    
     61200  -67419.69       441.16335     -66978.526      190.4973       187.84628      592.20687    
     61300  -67383.069      438.28549     -66944.783      190.47727      187.83097      592.4336     
     61400  -67341.901      434.69953     -66907.201      190.45769      187.81719      592.66032    
     61500  -67306.216      437.36541     -66868.851      190.43712      187.80161      592.88705    
     61600  -67267.095      435.75711     -66831.338      190.41535      187.78637      593.11378    
     61700  -67227.75       434.29705     -66793.453      190.39488      187.77223      593.3405     
     61800  -67194.036      440.30775     -66753.728      190.37522      187.7581       593.56723    
     61900  -67151.668      437.15838     -66714.51       190.35253      187.74259      593.79395    
     62000  -67111.96       435.03158     -66676.929      190.33067      187.72761      594.02068    
     62100  -67071.626      432.6708      -66638.955      190.31208      187.71469      594.2474     
     62200  -67041.998      440.89071     -66601.107      190.29049      187.70008      594.47413    
     62300  -66998.847      435.5978      -66563.249      190.26685      187.6835       594.70085    
     62400  -66959.702      435.75142     -66523.951      190.24728      187.67007      594.92758    
     62500  -66920.21       435.49434     -66484.716      190.22643      187.65557      595.1543     
     62600  -66884.252      438.98768     -66445.265      190.2038       187.63954      595.38103    
     62700  -66846.179      441.52113     -66404.658      190.18366      187.62462      595.60776    
     62800  -66806.108      439.80216     -66366.306      190.16395      187.61057      595.83448    
     62900  -66764.683      437.01045     -66327.672      190.14156      187.59465      596.06121    
     63000  -66721.985      434.1658      -66287.819      190.12032      187.57829      596.28793    
     63100  -66687.735      438.62158     -66249.113      190.10171      187.56376      596.51466    
     63200  -66640.449      430.63368     -66209.815      190.07974      187.54717      596.74138    
     63300  -66608.66       438.4367      -66170.223      190.05814      187.53001      596.96811    
     63400  -66569.242      439.1733      -66130.068      190.03963      187.51427      597.19483    
     63500  -66525.951      436.55412     -66089.397      190.01918      187.49825      597.42156    
     63600  -66489.429      440.70539     -66048.724      189.9975       187.47989      597.64828    
     63700  -66445.312      436.76502     -66008.547      189.97869      187.46258      597.87501    
     63800  -66405.339      436.4127      -65968.926      189.96087      187.44689      598.10174    
     63900  -66362.065      434.55391     -65927.511      189.93974      187.42827      598.32846    
     64000  -66326.972      439.34158     -65887.63       189.92061      187.40974      598.55519    
     64100  -66287.251      440.6214      -65846.63       189.90467      187.39405      598.78191    
     64200  -66244.581      437.58902     -65806.992      189.8848       187.37507      599.00864    
     64300  -66209.671      443.90659     -65765.764      189.86464      187.35501      599.23536    
     64400  -66161.087      437.07395     -65724.013      189.84954      187.33849      599.46209    
     64500  -66119.371      436.62449     -65682.747      189.83084      187.3183       599.68881    
     64600  -66081.423      441.34078     -65640.082      189.81095      187.29742      599.91554    
     64700  -66037.606      438.99997     -65598.606      189.79639      187.28058      600.14226    
     64800  -65994.694      437.65189     -65557.042      189.77908      187.25994      600.36899    
     64900  -65953.383      437.45286     -65515.93       189.75937      187.23785      600.59572    
     65000  -65914.35       439.99105     -65474.359      189.74499      187.22018      600.82244    
     65100  -65868.41       435.72738     -65432.682      189.72928      187.19958      601.04917    
     65200  -65820.942      430.76364     -65390.178      189.71111      187.17753      601.27589    
     65300  -65781.381      434.42668     -65346.954      189.6966       187.15915      601.50262    
     65400  -65737.929      433.68591     -65304.243      189.68174      187.1392       601.72934    
     65500  -65697.685      436.79612     -65260.889      189.66394      187.11611      601.95607    
     65600  -65654.343      436.57465     -65217.768      189.64973      187.09652      602.18279    
     65700  -65611.846      437.48944     -65174.357      189.63536      187.0777       602.40952    
     65800  -65566.067      434.87007     -65131.197      189.61815      187.05427      602.63624    
     65900  -65526.155      440.1949      -65085.961      189.60372      187.03403      602.86297    
     66000  -65479.717      437.50668     -65042.21       189.59015      187.01593      603.0897     
     66100  -65438.874      440.61544     -64998.258      189.57254      186.99245      603.31642    
     66200  -65388.851      435.30388     -64953.547      189.55798      186.97179      603.54315    
     66300  -65347.57       437.7409      -64909.83       189.54507      186.95371      603.76987    
     66400  -65301.956      436.11524     -64865.841      189.52851      186.93187      603.9966     
     66500  -65261.247      439.74877     -64821.498      189.51357      186.91096      604.22332    
     66600  -65213.906      437.31371     -64776.592      189.49954      186.89238      604.45005    
     66700  -65172.89       441.08495     -64731.805      189.48309      186.87107      604.67677    
     66800  -65126.156      439.65397     -64686.502      189.46827      186.85124      604.9035     
     66900  -65079.2        438.59543     -64640.605      189.45475      186.83331      605.13022    
     67000  -65028.908      434.37392     -64594.534      189.43831      186.81339      605.35695    
     67100  -64989.875      440.96424     -64548.911      189.4232       186.79415      605.58368    
     67200  -64942.693      440.42418     -64502.268      189.40863      186.77589      605.8104     
     67300  -64900.087      443.95546     -64456.132      189.39215      186.75699      606.03713    
     67400  -64846.847      438.04499     -64408.802      189.37653      186.73888      606.26385    
     67500  -64802.92       439.76668     -64363.153      189.3619       186.72145      606.49058    
     67600  -64753.475      436.89524     -64316.58       189.34545      186.70344      606.7173     
     67700  -64713.522      444.02881     -64269.493      189.32887      186.68588      606.94403    
     67800  -64661.466      439.18211     -64222.284      189.31388      186.66975      607.17075    
     67900  -64613.773      438.04672     -64175.727      189.29779      186.65289      607.39748    
     68000  -64568.926      441.77653     -64127.15       189.28034      186.63596      607.6242     
     68100  -64518.963      438.23293     -64080.73       189.26509      186.62101      607.85093    
     68200  -64473.06       439.69355     -64033.366      189.24973      186.60566      608.07766    
     68300  -64419.758      435.36079     -63984.398      189.2322       186.58916      608.30438    
     68400  -64373.923      437.3493      -63936.574      189.21659      186.57514      608.53111    
     68500  -64326.311      438.81805     -63887.493      189.20081      186.56066      608.75783    
     68600  -64276.686      439.52131     -63837.165      189.18359      186.5455       608.98456    
     68700  -64226.793      439.66243     -63787.131      189.16846      186.53288      609.21128    
     68800  -64182.206      444.09349     -63738.112      189.15229      186.51914      609.43801    
     68900  -64130.176      442.58537     -63687.59       189.13503      186.5049       609.66473    
     69000  -64082.93       445.81186     -63637.118      189.11905      186.49227      609.89146    
     69100  -64029.875      443.09684     -63586.778      189.10331      186.48021      610.11818    
     69200  -63980.021      443.51073     -63536.51       189.08659      186.46714      610.34491    
     69300  -63928.886      442.97153     -63485.915      189.07024      186.4551       610.57164    
     69400  -63882.191      446.79542     -63435.396      189.05493      186.44403      610.79836    
     69500  -63829.714      445.03432     -63384.679      189.03794      186.4316       611.02509    
     69600  -63771.55       437.69965     -63333.85       189.02245      186.4206       611.25181    
     69700  -63727.381      444.98052     -63282.4        189.00748      186.41017      611.47854    
     69800  -63674.495      442.37453     -63232.12       188.99051      186.39792      611.70526    
     69900  -63622.22       442.42826     -63179.792      188.97523      186.38709      611.93199    
     70000  -63569.449      441.19561     -63128.253      188.96064      186.3771       612.15871    
     70100  -63519.03       442.49785     -63076.532      188.94431      186.36552      612.38544    
     70200  -63466.939      443.41101     -63023.528      188.92978      186.35539      612.61216    
     70300  -63415.582      444.62924     -62970.952      188.91582      186.34558      612.83889    
     70400  -63361.651      444.1027      -62917.548      188.90035      186.33438      613.06562    
     70500  -63308.631      442.77515     -62865.856      188.88564      186.32401      613.29234    
     70600  -63254.821      444.36802     -62810.453      188.87276      186.31496      613.51907    
     70700  -63206.729      446.80782     -62759.921      188.85819      186.30421      613.74579    
     70800  -63148.385      444.03382     -62704.351      188.84366      186.29334      613.97252    
     70900  -63088.528      438.53532     -62649.993      188.83182      186.28461      614.19924    
     71000  -63042.637      446.3785      -62596.259      188.81803      186.27415      614.42597    
     71100  -62982.827      442.0414      -62540.785      188.80476      186.26335      614.65269    
     71200  -62937.957      451.15819     -62486.799      188.79349      186.25416      614.87942    
     71300  -62880.273      448.7738      -62431.499      188.78111      186.24459      615.10614    
     71400  -62821.548      445.2662      -62376.282      188.76839      186.23367      615.33287    
     71500  -62770.151      450.12585     -62320.025      188.75786      186.22425      615.5596     
     71600  -62709.049      446.00204     -62263.047      188.74616      186.21441      615.78632    
     71700  -62659.378      451.85722     -62207.521      188.73489      186.20439      616.01305    
     71800  -62602.375      451.38717     -62150.988      188.72479      186.19456      616.23977    
     71900  -62545.758      452.33622     -62093.422      188.71364      186.18431      616.4665     
     72000  -62486.955      449.41237     -62037.543      188.70333      186.17443      616.69322    
     72100  -62434.533      450.76762     -61983.765      188.69372      186.16439      616.91995    
     72200  -62370.979      448.24444     -61922.735      188.68366      186.154        617.14667    
     72300  -62316.556      449.35027     -61867.206      188.67357      186.14397      617.3734     
     72400  -62263.854      453.18115     -61810.673      188.66445      186.13349      617.60012    
     72500  -62201.828      448.39213     -61753.436      188.65539      186.1234       617.82685    
     72600  -62148.638      453.81609     -61694.822      188.64606      186.11314      618.05358    
     72700  -62088.005      453.95035     -61634.055      188.6372       186.10274      618.2803     
     72800  -62030.157      455.36138     -61574.795      188.62906      186.09257      618.50703    
     72900  -61971.033      457.51978     -61513.513      188.62012      186.08193      618.73375    
     73000  -61914.325      456.27315     -61458.052      188.61168      186.07156      618.96048    
     73100  -61855.507      455.59056     -61399.916      188.60372      186.06126      619.1872     
     73200  -61799.188      458.43876     -61340.749      188.59538      186.05077      619.41393    
     73300  -61737.679      458.67195     -61279.007      188.58713      186.04033      619.64065    
     73400  -61680.424      461.65198     -61218.772      188.57928      186.02977      619.86738    
     73500  -61611.861      454.9845      -61156.876      188.5712       186.01922      620.0941     
     73600  -61557.139      459.98047     -61097.158      188.56338      186.00896      620.32083    
     73700  -61498.193      461.87167     -61036.321      188.55522      185.99794      620.54756    
     73800  -61437.963      464.85378     -60973.109      188.54749      185.98738      620.77428    
     73900  -61379.675      466.03844     -60913.637      188.53962      185.97728      621.00101    
     74000  -61320.294      472.78268     -60847.511      188.53202      185.96671      621.22773    
     74100  -61260.41       477.71453     -60782.695      188.5244       185.95599      621.45446    
     74200  -61193.752      473.161       -60720.591      188.51632      185.94547      621.68118    
     74300  -61131.189      476.02403     -60655.165      188.50861      185.93508      621.90791    
     74400  -61066.208      475.36676     -60590.841      188.50109      185.92457      622.13463    
     74500  -61005.235      476.78964     -60528.446      188.49287      185.91386      622.36136    
     74600  -60941.462      476.98468     -60464.477      188.48476      185.90337      622.58808    
     74700  -60880.85       479.27958     -60401.57       188.47731      185.89319      622.81481    
     74800  -60816.462      479.24173     -60337.22       188.46905      185.88241      623.04154    
     74900  -60753.352      480.86614     -60272.486      188.46076      185.87186      623.26826    
     75000  -60692.846      482.42524     -60210.42       188.45297      185.86156      623.49499    
     75100  -60628.35       482.84559     -60145.504      188.44454      185.85048      623.72171    
     75200  -60561.534      483.59616     -60077.938      188.43582      185.83976      623.94844    
     75300  -60499.024      487.10657     -60011.917      188.42789      185.82959      624.17516    
     75400  -60434.337      487.49752     -59946.839      188.41941      185.81862      624.40189    
     75500  -60374.112      495.07128     -59879.041      188.41051      185.80774      624.62861    
     75600  -60298.223      491.31854     -59806.905      188.40199      185.79729      624.85534    
     75700  -60238.127      502.33763     -59735.789      188.3929       185.78603      625.08206    
     75800  -60165.236      498.8218      -59666.414      188.38385      185.77518      625.30879    
     75900  -60094.944      503.03251     -59591.912      188.37473      185.76442      625.53552    
     76000  -60025.359      506.83342     -59518.525      188.36521      185.75315      625.76224    
     76100  -59959.701      514.24512     -59445.456      188.35586      185.74215      625.98897    
     76200  -59893.468      518.54386     -59374.925      188.34623      185.73117      626.21569    
     76300  -59825.214      516.70453     -59308.509      188.33619      185.71975      626.44242    
     76400  -59752.373      511.98119     -59240.392      188.32635      185.70845      626.66914    
     76500  -59694.144      524.86453     -59169.279      188.31623      185.69732      626.89587    
     76600  -59617.412      521.39082     -59096.021      188.30573      185.68571      627.12259    
     76700  -59554.704      534.25719     -59020.447      188.29517      185.67399      627.34932    
     76800  -59472.642      528.6603      -58943.982      188.28455      185.66265      627.57604    
     76900  -59417.346      544.63118     -58872.714      188.27378      185.65091      627.80277    
     77000  -59334.066      534.63633     -58799.43       188.26275      185.63897      628.0295     
     77100  -59264.593      538.87265     -58725.72       188.25146      185.62723      628.25622    
     77200  -59198.69       545.91425     -58652.776      188.24021      185.61528      628.48295    
     77300  -59128.963      544.75911     -58584.203      188.22853      185.60289      628.70967    
     77400  -59058.823      548.85784     -58509.966      188.21644      185.59064      628.9364     
     77500  -58988.565      547.54569     -58441.02       188.20484      185.57861      629.16312    
     77600  -58911.433      541.54487     -58369.888      188.1928       185.5658       629.38985    
     77700  -58866.591      571.67823     -58294.912      188.17973      185.5528       629.61657    
     77800  -58905.012      685.82187     -58219.19       188.1671       185.54026      629.8433     
     77900  -59392.532      1110.6067     -58281.925      188.15423      185.52775      630.07002    
     78000  -60291.221      1748.1802     -58543.041      188.13874      185.51502      630.29675    
     78100  -61771.993      2260.8544     -59511.139      188.12693      185.50912      630.52348    
     78200  -63476.471      2321.9048     -61154.566      188.14202      185.52766      630.7502     
     78300  -65024.595      2118.8779     -62905.717      188.18411      185.56409      630.97693    
     78400  -66454.114      1932.9945     -64521.119      188.2351       185.59785      631.20365    
     78500  -67711.703      1692.8104     -66018.893      188.29411      185.6241       631.43038    
     78600  -68763.37       1499.3316     -67264.038      188.37093      185.67272      631.6571     
     78700  -69710.96       1363.12       -68347.84       188.44369      185.7161       631.88383    
     78800  -70545.37       1234.0776     -69311.293      188.51315      185.75606      632.11055    
     78900  -71302.915      1138.9795     -70163.935      188.59171      185.80421      632.33728    
     79000  -71976.774      1050.9506     -70925.823      188.67366      185.85434      632.564      
     79100  -72584.081      976.06966     -71608.012      188.75644      185.90402      632.79073    
     79200  -73134.641      915.06134     -72219.58       188.83978      185.95257      633.01746    
     79300  -73640.064      864.71808     -72775.346      188.92418      186.00168      633.24418    
     79400  -74113.912      827.79713     -73286.114      189.00505      186.04706      633.47091    
     79500  -74555.272      791.83819     -73763.434      189.08113      186.08627      633.69763    
     79600  -74967.519      760.40859     -74207.111      189.15588      186.12264      633.92436    
     79700  -75372.127      749.84473     -74622.282      189.2291       186.15586      634.15108    
     79800  -75840.807      779.26114     -75061.546      189.30194      186.18619      634.37781    
     79900  -76226.857      735.8345      -75491.022      189.37701      186.21776      634.60453    
     80000  -76594.915      709.29009     -75885.625      189.4504       186.25063      634.83126    
     80100  -76955.236      694.85042     -76260.386      189.51679      186.2796       635.05798    
     80200  -77304.705      682.15023     -76622.554      189.57979      186.30696      635.28471    
     80300  -77645.341      671.67982     -76973.661      189.6424       186.33474      635.51143    
     80400  -77977.099      661.69817     -77315.401      189.70186      186.36083      635.73816    
     80500  -78300.869      652.81171     -77648.057      189.75944      186.38571      635.96489    
     80600  -78616.504      644.41885     -77972.085      189.8157       186.41039      636.19161    
     80700  -78925.59       637.04993     -78288.54       189.86943      186.43354      636.41834    
     80800  -79227.943      630.98808     -78596.955      189.92097      186.45605      636.64506    
     80900  -79524.702      625.34464     -78899.357      189.97096      186.47815      636.87179    
     81000  -79817.758      618.68217     -79199.076      190.01879      186.49913      637.09851    
     81100  -80099.036      607.6259      -79491.41       190.06494      186.51977      637.32524    
     81200  -80355.739      587.5303      -79768.209      190.11025      186.54073      637.55196    
     81300  -80591.99       567.70158     -80024.288      190.15485      186.56197      637.77869    
     81400  -80809.808      549.24008     -80260.568      190.19776      186.58278      638.00541    
     81500  -81009.834      531.70778     -80478.127      190.24007      186.60397      638.23214    
     81600  -81192.541      515.15709     -80677.384      190.28171      186.62547      638.45887    
     81700  -81357.668      498.96736     -80858.701      190.32207      186.6469       638.68559    
     81800  -81505.538      483.56085     -81021.977      190.36201      186.66882      638.91232    
     81900  -81635.76       468.82161     -81166.938      190.40213      186.69144      639.13904    
     82000  -81748.282      455.22601     -81293.056      190.44204      186.7145       639.36577    
     82100  -81842.345      442.86905     -81399.476      190.48218      186.73842      639.59249    
     82200  -81918.151      433.14567     -81485.005      190.52284      186.76347      639.81922    
     82300  -81976.811      427.66946     -81549.141      190.56276      186.78811      640.04594    
     82400  -82018.697      425.87239     -81592.825      190.60202      186.81277      640.27267    
     82500  -82044.114      426.33165     -81617.782      190.64155      186.83868      640.49939    
     82600  -82052.709      426.62958     -81626.08       190.68019      186.86506      640.72612    
     82700  -82046.8        428.05803     -81618.742      190.71784      186.89162      640.95285    
     82800  -82018.316      421.61494     -81596.702      190.75248      186.91631      641.17957    
     82900  -81969.849      416.90167     -81552.947      190.78467      186.93964      641.4063     
     83000  -81900.198      414.78569     -81485.413      190.81677      186.96378      641.63302    
     83100  -81810.476      408.92417     -81401.552      190.84595      186.98607      641.85975    
     83200  -81703.121      396.47271     -81306.648      190.87423      187.00843      642.08647    
     83300  -81588.655      387.74792     -81200.907      190.9028       187.03159      642.3132     
     83400  -81488.24       399.80668     -81088.433      190.92846      187.05153      642.53992    
     83500  -81458.082      475.15281     -80982.93       190.95303      187.06835      642.76665    
     83600  -81449.928      494.19468     -80955.733      190.95733      187.05872      642.99337    
     83700  -81451.015      425.61081     -81025.404      190.96491      187.04226      643.2201     
     83800  -81462.705      396.04041     -81066.664      190.99337      187.04026      643.44683    
     83900  -81461.948      422.24226     -81039.706      191.03405      187.04412      643.67355    
     84000  -81464.65       472.05923     -80992.591      191.05889      187.02658      643.90028    
     84100  -81454.347      452.71475     -81001.632      191.08777      187.005        644.127      
     84200  -81482.144      437.24826     -81044.896      191.15287      187.01107      644.35373    
     84300  -81513.156      425.93619     -81087.22       191.23546      187.02098      644.58045    
     84400  -81539.67       432.06261     -81107.607      191.30439      187.01503      644.80718    
     84500  -81566.388      445.94467     -81120.443      191.3881       187.0157       645.0339     
     84600  -81581.693      434.26069     -81147.433      191.47977      187.01787      645.26063    
     84700  -81584.88       414.83583     -81170.044      191.5782       187.01945      645.48735    
     84800  -81586.141      425.29008     -81160.851      191.68205      187.02051      645.71408    
     84900  -81576.464      445.80196     -81130.662      191.77946      187.02353      645.94081    
     85000  -81581.376      462.39122     -81118.984      191.87907      187.02064      646.16753    
     85100  -81599.502      445.0409      -81154.461      191.99139      187.02379      646.39426    
     85200  -81610.625      413.34383     -81197.281      192.10264      187.03213      646.62098    
     85300  -81609.968      411.25841     -81198.71       192.19278      187.03056      646.84771    
     85400  -81597.091      439.41241     -81157.678      192.27859      187.02696      647.07443    
     85500  -81577.651      456.91073     -81120.741      192.35266      187.02383      647.30116    
     85600  -81576.747      449.34754     -81127.399      192.41617      187.02341      647.52788    
     85700  -81594.199      433.88416     -81160.315      192.47794      187.02726      647.75461    
     85800  -81607.788      420.91764     -81186.87       192.52312      187.02539      647.98133    
     85900  -81602.549      419.29264     -81183.256      192.56178      187.02644      648.20806    
     86000  -81583.014      431.58507     -81151.429      192.59601      187.03856      648.43479    
     86100  -81579.19       456.3393      -81122.851      192.62423      187.05029      648.66151    
     86200  -81580.392      451.25736     -81129.134      192.64695      187.0694       648.88824    
     86300  -81584.571      421.24875     -81163.322      192.66241      187.08978      649.11496    
     86400  -81598.865      420.4751      -81178.39       192.66499      187.10407      649.34169    
     86500  -81589.288      430.87672     -81158.411      192.66036      187.12175      649.56841    
     86600  -81573.159      442.75423     -81130.405      192.64371      187.13615      649.79514    
     86700  -81570.718      448.82898     -81121.889      192.60984      187.14495      650.02186    
     86800  -81586.049      444.63932     -81141.41       192.56886      187.16873      650.24859    
     86900  -81599.634      428.25013     -81171.384      192.53061      187.19946      650.47531    
     87000  -81604.598      417.64378     -81186.954      192.49409      187.22725      650.70204    
     87100  -81602.41       427.24133     -81175.168      192.46211      187.24652      650.92877    
     87200  -81603.313      449.2321      -81154.081      192.44731      187.26452      651.15549    
     87300  -81594.603      442.12747     -81152.476      192.43615      187.26454      651.38222    
     87400  -81597.627      433.81914     -81163.808      192.42329      187.25789      651.60894    
     87500  -81594.448      424.94445     -81169.504      192.42288      187.26982      651.83567    
     87600  -81587.605      429.62911     -81157.976      192.42271      187.26679      652.06239    
     87700  -81576.014      438.52398     -81137.49       192.42457      187.26185      652.28912    
     87800  -81569.917      444.10981     -81125.807      192.43742      187.26173      652.51584    
     87900  -81564.451      436.57328     -81127.877      192.45225      187.2611       652.74257    
     88000  -81574.698      434.86129     -81139.837      192.45866      187.25529      652.96929    
     88100  -81564.821      417.82308     -81146.998      192.46872      187.25117      653.19602    
     88200  -81557.404      429.6615      -81127.743      192.48257      187.24072      653.42275    
     88300  -81536.231      440.1194      -81096.112      192.50001      187.23331      653.64947    
     88400  -81529.942      450.14518     -81079.797      192.52495      187.23147      653.8762     
     88500  -81540.183      443.29041     -81096.893      192.5574       187.2187       654.10292    
     88600  -81552.192      424.43643     -81127.756      192.60083      187.21073      654.32965    
     88700  -81560.778      417.78096     -81142.997      192.64682      187.20457      654.55637    
     88800  -81558.126      425.80863     -81132.317      192.69896      187.19257      654.7831     
     88900  -81552.218      444.45678     -81107.761      192.76308      187.1769       655.00982    
     89000  -81551.727      449.72864     -81101.999      192.83009      187.16095      655.23655    
     89100  -81561.937      439.79537     -81122.142      192.90406      187.14651      655.46327    
     89200  -81581.243      430.38473     -81150.858      192.98152      187.12901      655.69       
     89300  -81587.714      422.36937     -81165.345      193.05093      187.10643      655.91673    
     89400  -81592.924      434.05604     -81158.868      193.12768      187.09131      656.14345    
     89500  -81594.27       443.35857     -81150.912      193.20564      187.07524      656.37018    
     89600  -81602.654      444.63871     -81158.015      193.27806      187.05633      656.5969     
     89700  -81601.446      425.51367     -81175.932      193.34593      187.04592      656.82363    
     89800  -81597.308      422.7972      -81174.511      193.40337      187.03111      657.05035    
     89900  -81584.137      435.06779     -81149.069      193.44944      187.01502      657.27708    
     90000  -81578.568      453.20876     -81125.359      193.49827      187.00592      657.5038     
     90100  -81576.494      446.55703     -81129.937      193.53608      186.99148      657.73053    
     90200  -81586.6        429.90893     -81156.691      193.55672      186.97522      657.95725    
     90300  -81597.655      423.05587     -81174.599      193.58195      186.96918      658.18398    
     90400  -81599.523      430.30119     -81169.222      193.59802      186.96334      658.41071    
     90500  -81599.048      442.37112     -81156.677      193.60261      186.95547      658.63743    
     90600  -81601.252      443.86886     -81157.383      193.59531      186.95058      658.86416    
     90700  -81606.964      433.13273     -81173.831      193.5825       186.94803      659.09088    
     90800  -81615.231      427.33719     -81187.894      193.57456      186.94426      659.31761    
     90900  -81624.131      432.92861     -81191.203      193.57602      186.9494       659.54433    
     91000  -81623.442      432.49238     -81190.95       193.57126      186.95092      659.77106    
     91100  -81623.451      433.72803     -81189.723      193.55934      186.94412      659.99778    
     91200  -81625.671      436.16307     -81189.508      193.55463      186.94926      660.22451    
     91300  -81625.917      436.06873     -81189.848      193.54658      186.94901      660.45123    
     91400  -81625.73       433.01972     -81192.71       193.53432      186.94486      660.67796    
     91500  -81619.676      431.88436     -81187.792      193.52441      186.95323      660.90469    
     91600  -81618.005      440.02193     -81177.983      193.51358      186.95436      661.13141    
     91700  -81614.292      440.5701      -81173.721      193.49937      186.95454      661.35814    
     91800  -81609.992      435.45135     -81174.541      193.48526      186.95487      661.58486    
     91900  -81615.742      436.96714     -81178.775      193.46979      186.95039      661.81159    
     92000  -81622.807      433.04724     -81189.76       193.46208      186.95263      662.03831    
     92100  -81623.76       427.69622     -81196.064      193.45344      186.95271      662.26504    
     92200  -81629.634      433.19154     -81196.443      193.44698      186.95359      662.49176    
     92300  -81625.453      433.86709     -81191.586      193.43492      186.95415      662.71849    
     92400  -81626.907      439.26984     -81187.637      193.42444      186.94935      662.94521    
     92500  -81628.488      439.85521     -81188.632      193.42291      186.94698      663.17194    
     92600  -81634.922      439.04841     -81195.873      193.41917      186.94781      663.39867    
     92700  -81644.611      436.86457     -81207.746      193.4079       186.94409      663.62539    
     92800  -81646.043      430.1898      -81215.853      193.40105      186.94156      663.85212    
     92900  -81654.668      436.56682     -81218.101      193.39037      186.93956      664.07884    
     93000  -81651.932      429.46208     -81222.47       193.37178      186.93015      664.30557    
     93100  -81660.544      432.44246     -81228.102      193.35444      186.92533      664.53229    
     93200  -81659.3        428.35503     -81230.945      193.33527      186.91871      664.75902    
     93300  -81663.379      435.12834     -81228.251      193.30937      186.90481      664.98574    
     93400  -81655.148      433.1061      -81222.042      193.28804      186.8944       665.21247    
     93500  -81648.576      433.67451     -81214.901      193.26406      186.89107      665.43919    
     93600  -81656.004      443.60492     -81212.399      193.22658      186.87842      665.66592    
     93700  -81659.319      440.25461     -81219.064      193.19507      186.87049      665.89265    
     93800  -81664.566      431.52428     -81233.042      193.15921      186.86511      666.11937    
     93900  -81664.31       425.49394     -81238.816      193.11365      186.85279      666.3461     
     94000  -81664.4        433.10482     -81231.295      193.07043      186.84668      666.57282    
     94100  -81655.836      439.10315     -81216.733      193.02081      186.84003      666.79955    
     94200  -81651.789      441.70097     -81210.088      192.95615      186.82824      667.02627    
     94300  -81658.917      439.27717     -81219.64       192.8949       186.82625      667.253      
     94400  -81671.194      433.7247      -81237.469      192.8264       186.82265      667.47972    
     94500  -81680.281      428.63554     -81251.645      192.75056      186.82004      667.70645    
     94600  -81687.336      431.23445     -81256.101      192.67412      186.82207      667.93317    
     94700  -81685.79       433.51187     -81252.278      192.59601      186.82045      668.1599     
     94800  -81696.616      445.7529      -81250.863      192.52104      186.81737      668.38663    
     94900  -81697.74       435.359       -81262.381      192.45286      186.8188       668.61335    
     95000  -81709.664      434.44814     -81275.215      192.3813       186.81699      668.84008    
     95100  -81709.617      428.25971     -81281.357      192.31079      186.81693      669.0668     
     95200  -81707.193      432.63521     -81274.558      192.24176      186.81644      669.29353    
     95300  -81704.931      442.5594      -81262.371      192.1763       186.81618      669.52025    
     95400  -81696.627      436.94049     -81259.686      192.11682      186.81094      669.74698    
     95500  -81700.957      434.74948     -81266.208      192.05933      186.80172      669.9737     
     95600  -81700.136      428.54646     -81271.589      192.00325      186.7892       670.20043    
     95700  -81702.208      435.15077     -81267.058      191.94871      186.77677      670.42715    
     95800  -81697.118      437.27828     -81259.84       191.8977       186.76609      670.65388    
     95900  -81700.02       440.35026     -81259.67       191.84739      186.75512      670.88061    
     96000  -81702.663      437.8793      -81264.784      191.79468      186.73947      671.10733    
     96100  -81701.891      430.79799     -81271.093      191.74989      186.72918      671.33406    
     96200  -81707.463      434.68941     -81272.774      191.71133      186.72033      671.56078    
     96300  -81708.174      436.69517     -81271.478      191.67554      186.7133       671.78751    
     96400  -81714.633      438.86772     -81275.765      191.6446       186.70599      672.01423    
     96500  -81717.788      432.65756     -81285.13       191.61757      186.69604      672.24096    
     96600  -81723.241      432.2668      -81290.974      191.59569      186.68843      672.46768    
     96700  -81720.333      431.59967     -81288.733      191.57187      186.68068      672.69441    
     96800  -81724.968      440.3581      -81284.61       191.55302      186.67355      672.92113    
     96900  -81724.986      438.66498     -81286.321      191.5443       186.66864      673.14786    
     97000  -81732.727      436.68236     -81296.045      191.53253      186.66159      673.37459    
     97100  -81735.577      431.21885     -81304.358      191.5211       186.65464      673.60131    
     97200  -81736.648      433.62073     -81303.027      191.51309      186.64776      673.82804    
     97300  -81731.917      435.53732     -81296.379      191.50839      186.6422       674.05476    
     97400  -81727.529      439.02067     -81288.508      191.51039      186.63324      674.28149    
     97500  -81727.907      438.83285     -81289.074      191.52008      186.62339      674.50821    
     97600  -81737.646      438.62288     -81299.023      191.53221      186.6115       674.73494    
     97700  -81740.221      431.5956      -81308.625      191.54585      186.60038      674.96166    
     97800  -81733.614      426.78855     -81306.825      191.56172      186.59011      675.18839    
     97900  -81733.182      436.889       -81296.293      191.58031      186.58077      675.41511    
     98000  -81729.028      441.74995     -81287.278      191.59854      186.57282      675.64184    
     98100  -81725.579      437.39248     -81288.186      191.61611      186.56442      675.86856    
     98200  -81739.078      441.70937     -81297.369      191.63239      186.55559      676.09529    
     98300  -81734.817      427.58439     -81307.232      191.65117      186.55054      676.32202    
     98400  -81736.128      428.85634     -81307.272      191.66162      186.54386      676.54874    
     98500  -81730.787      431.93002     -81298.857      191.66884      186.53756      676.77547    
     98600  -81729.02       439.07785     -81289.942      191.6816       186.53737      677.00219    
     98700  -81724.001      439.08018     -81284.92       191.68768      186.53433      677.22892    
     98800  -81726.183      439.92652     -81286.256      191.68703      186.53158      677.45564    
     98900  -81728.704      435.639       -81293.065      191.68823      186.53728      677.68237    
     99000  -81729.579      430.12563     -81299.453      191.68434      186.54038      677.90909    
     99100  -81731.258      432.39729     -81298.861      191.67922      186.54532      678.13582    
     99200  -81731.718      437.63166     -81294.086      191.6761       186.55562      678.36254    
     99300  -81735.61       440.30156     -81295.308      191.66793      186.56469      678.58927    
     99400  -81737.565      432.49546     -81305.07       191.65774      186.57067      678.816      
     99500  -81743.356      431.23561     -81312.12       191.65041      186.57837      679.04272    
     99600  -81739.64       429.31319     -81310.327      191.64362      186.58445      679.26945    
     99700  -81732.111      433.09346     -81299.018      191.63595      186.58642      679.49617    
     99800  -81728.679      439.17543     -81289.504      191.63403      186.59356      679.7229     
     99900  -81728.807      440.3374      -81288.47       191.63057      186.59497      679.94962    
    100000  -81726.33       434.02032     -81292.309      191.6282       186.59289      680.17635    
Loop time of 33718.3 on 12 procs for 100000 steps with 11220 atoms

Performance: 0.256 ns/day, 93.662 hours/ns, 2.966 timesteps/s, 33.276 katom-step/s
39.3% CPU use with 12 MPI tasks x 1 OpenMP threads

MPI task timing breakdown:
Section |  min time  |  avg time  |  max time  |%varavg| %total
---------------------------------------------------------------
Pair    | 2685.1     | 2973.7     | 3182.7     | 309.0 |  8.82
Neigh   | 10.147     | 14.615     | 18.303     |  77.7 |  0.04
Comm    | 5134.1     | 5503.1     | 6016.1     | 374.3 | 16.32
Output  | 97.305     | 100.12     | 102.93     |  18.0 |  0.30
Modify  | 22062      | 22324      | 22585      | 112.0 | 66.21
Other   |            | 2803       |            |       |  8.31

Nlocal:            935 ave        1814 max         329 min
Histogram: 4 0 1 1 1 2 1 0 0 2
Nghost:        2484.17 ave        3582 max        1122 min
Histogram: 4 0 0 0 0 1 3 0 0 4
Neighs:              0 ave           0 max           0 min
Histogram: 12 0 0 0 0 0 0 0 0 0

Total # of neighbors = 0
Ave neighs/atom = 0
Neighbor list builds = 650
Dangerous builds = 0
Total wall time: 9:22:08
