LAMMPS (2 Aug 2023 - Update 3)
OMP_NUM_THREADS environment is not set. Defaulting to 1 thread. (src/comm.cpp:98)
  using 1 OpenMP thread(s) per MPI task

# 1------general---------------
units                             metal      #单位为lammps 中的metel 类型
dimension                    3          #模拟的维度 三维
boundary                    p p p      #周期边界条件
atom_style                  atomic   #原子类型自动
atom_modify              map array sort 100 2.0
neighbor                    3.0 bin
neigh_modify            every 1 delay 0 check yes
#2 -----global variable-------定义全局变量，方便统一修改；
variable temperature equal 300
variable tstep equal 0.001
variable pressure equal 0
variable thermalstep equal 100
variable dumpstep equal 1000
variable relaxtime equal 0
variable totaltime equal 100000
variable deformrate equal 5e-3
#3 -------model------------
#box tilt large
read_data     1.lmp
Reading data file ...
  orthogonal box = (-100 -100 -2.3312512) to (100 100 41.316429)
  2 by 5 by 1 MPI processor grid
  reading atoms ...
  1824 atoms
  read_data CPU = 0.005 seconds
replicate 1 1 7
Replication is creating a 1x1x7 = 7 times larger system...
  orthogonal box = (-100 -100 -2.3312512) to (100 100 303.20251)
  2 by 1 by 5 MPI processor grid
  12768 atoms
  replicate CPU = 0.001 seconds
write_data h.data
System init for write_data ...
WARNING: Communication cutoff is 0.0. No ghost atoms will be generated. Atoms may get lost. (src/comm_brick.cpp:210)
pair_style hybrid airebo 3.0 airebo 3.0 airebo 3.0 lj/cut 10
pair_coeff * * airebo 1 CH.airebo C NULL NULL
Reading airebo potential file CH.airebo with DATE: 2011-10-25
pair_coeff * * airebo 2 CH.airebo NULL C NULL
Reading airebo potential file CH.airebo with DATE: 2011-10-25
pair_coeff * * airebo 3 CH.airebo NULL NULL C
Reading airebo potential file CH.airebo with DATE: 2011-10-25
pair_coeff 1 2 lj/cut 0.00456 3.431
pair_coeff 1 3 lj/cut 0.00456 3.431
pair_coeff 2 3 lj/cut 0.00456 3.431

# 5------minimize -----------
min_style      sd
minimize       1.0e-4 1.0e-6 100 1000
Neighbor list info ...
  update: every = 1 steps, delay = 0 steps, check = yes
  max neighbors/atom: 2000, page size: 100000
  master list distance cutoff = 13.2
  ghost atom cutoff = 13.2
  binsize = 6.6, bins = 31 31 47
  6 neighbor lists, perpetual/occasional/extra = 6 0 0
  (1) pair airebo, perpetual, skip from (5)
      attributes: full, newton on, ghost
      pair build: skip/ghost
      stencil: none
      bin: none
  (2) pair airebo, perpetual, skip from (5)
      attributes: full, newton on, ghost
      pair build: skip/ghost
      stencil: none
      bin: none
  (3) pair airebo, perpetual, skip from (5)
      attributes: full, newton on, ghost
      pair build: skip/ghost
      stencil: none
      bin: none
  (4) pair lj/cut, perpetual, skip from (6)
      attributes: half, newton on, cut 13
      pair build: skip
      stencil: none
      bin: none
  (5) neighbor class addition, perpetual
      attributes: full, newton on, ghost
      pair build: full/bin/ghost
      stencil: full/ghost/bin/3d
      bin: standard
  (6) neighbor class addition, perpetual
      attributes: half, newton on, cut 13
      pair build: half/bin/atomonly/newton
      stencil: half/bin/3d
      bin: standard
Per MPI rank memory allocation (min/avg/max) = 13.99 | 14.26 | 14.37 Mbytes
   Step          Temp          E_pair         E_mol          TotEng         Press     
         0   0             -91982.552      0             -91982.552      705.43265    
         4   0             -92296.249      0             -92296.249      93.415916    
Loop time of 0.173524 on 10 procs for 4 steps with 12768 atoms

95.6% CPU use with 10 MPI tasks x 1 OpenMP threads

Minimization stats:
  Stopping criterion = energy tolerance
  Energy initial, next-to-last, final = 
     -91982.5524505104  -92288.3948712068  -92296.2486395496
  Force two-norm initial, final = 182.71235 30.461605
  Force max component initial, final = 3.4318528 0.54749295
  Final line search alpha, max atom move = 0.13695896 0.074984064
  Iterations, force evaluations = 4 8

MPI task timing breakdown:
Section |  min time  |  avg time  |  max time  |%varavg| %total
---------------------------------------------------------------
Pair    | 0.10156    | 0.14931    | 0.17222    |   6.7 | 86.05
Neigh   | 0          | 0          | 0          |   0.0 |  0.00
Comm    | 0.00060402 | 0.022594   | 0.071311   |  17.3 | 13.02
Output  | 0          | 0          | 0          |   0.0 |  0.00
Modify  | 0          | 0          | 0          |   0.0 |  0.00
Other   |            | 0.00162    |            |       |  0.93

Nlocal:         1276.8 ave        1310 max        1251 min
Histogram: 2 0 2 1 1 0 2 1 0 1
Nghost:         2380.8 ave        2435 max        2346 min
Histogram: 1 2 0 2 3 0 1 0 0 1
Neighs:              0 ave           0 max           0 min
Histogram: 10 0 0 0 0 0 0 0 0 0

Total # of neighbors = 0
Ave neighs/atom = 0
Neighbor list builds = 0
Dangerous builds = 0
#6----define computes------
variable nums equal count(all) #计算原子数目
variable toval equal 22.7273*22.7165*lz #计算系统总体积，单层石墨烯厚度为0.335nm
variable vol equal ${toval} #体系的初始体积
variable vol equal 157742.410082089 
variable vatom equal v_vol/v_nums #单个原子体积
compute 1 all stress/atom NULL #计算体系中单原子应力
compute xalls all reduce sum c_1[1]
variable xstress equal (c_xalls)/(v_toval*10000)
compute yalls all reduce sum c_1[2]
variable ystress equal (c_yalls)/(v_toval*10000)
compute zalls all reduce sum c_1[3]
variable zstress equal (c_zalls)/(v_toval*10000)
#7---------relaxation-------------------------
timestep ${tstep}
timestep 0.001
velocity all create ${temperature} 231743 units box dist gaussian
velocity all create 300 231743 units box dist gaussian
dump   1 all atom 100 all-cy.lammpstrj
#fix    1 all npt temp 300 300  0.1 aniso 0 0 10 drag 1  #三个方向独立控压
fix  1 all npt temp ${temperature} ${temperature} 0.1 x ${pressure} ${pressure} 10 y ${pressure} ${pressure} 10
fix  1 all npt temp 300 ${temperature} 0.1 x ${pressure} ${pressure} 10 y ${pressure} ${pressure} 10
fix  1 all npt temp 300 300 0.1 x ${pressure} ${pressure} 10 y ${pressure} ${pressure} 10
fix  1 all npt temp 300 300 0.1 x 0 ${pressure} 10 y ${pressure} ${pressure} 10
fix  1 all npt temp 300 300 0.1 x 0 0 10 y ${pressure} ${pressure} 10
fix  1 all npt temp 300 300 0.1 x 0 0 10 y 0 ${pressure} 10
fix  1 all npt temp 300 300 0.1 x 0 0 10 y 0 0 10
compute  2 all pe/atom
compute  pe all reduce sum c_2
variable PE equal "c_pe"
fix    pe all print 100 "${PE} " file PE.txt screen no
thermo  ${thermalstep}
thermo  100
#thermo_style  custom step pe ke etotal lx ly lz
run   ${relaxtime}
run   0
Per MPI rank memory allocation (min/avg/max) = 14.62 | 14.88 | 15 Mbytes
   Step          Temp          E_pair         E_mol          TotEng         Press          Volume    
         4   300           -92296.249      0             -91801.169      136.6847       12221350     
Loop time of 3.53164e-05 on 10 procs for 0 steps with 12768 atoms

80.7% CPU use with 10 MPI tasks x 1 OpenMP threads

MPI task timing breakdown:
Section |  min time  |  avg time  |  max time  |%varavg| %total
---------------------------------------------------------------
Pair    | 0          | 0          | 0          |   0.0 |  0.00
Neigh   | 0          | 0          | 0          |   0.0 |  0.00
Comm    | 0          | 0          | 0          |   0.0 |  0.00
Output  | 0          | 0          | 0          |   0.0 |  0.00
Modify  | 0          | 0          | 0          |   0.0 |  0.00
Other   |            | 3.532e-05  |            |       |100.00

Nlocal:         1276.8 ave        1313 max        1248 min
Histogram: 2 0 2 1 1 0 2 1 0 1
Nghost:         2379.8 ave        2436 max        2339 min
Histogram: 1 2 0 1 3 1 1 0 0 1
Neighs:              0 ave           0 max           0 min
Histogram: 10 0 0 0 0 0 0 0 0 0

Total # of neighbors = 0
Ave neighs/atom = 0
Neighbor list builds = 0
Dangerous builds = 0
#8 -------tension-----------------------------
unfix  1
undump  1
unfix  pe
reset_timestep 0
fix avestress all ave/atom 1 ${dumpstep} ${dumpstep} c_1[1] c_1[2] c_1[3] c_1[4] c_1[5] c_1[6]
fix avestress all ave/atom 1 1000 ${dumpstep} c_1[1] c_1[2] c_1[3] c_1[4] c_1[5] c_1[6]
fix avestress all ave/atom 1 1000 1000 c_1[1] c_1[2] c_1[3] c_1[4] c_1[5] c_1[6]

#-----calculation of strain and Cumulative compression--------
variable                tmp equal "lz"
variable                L0 equal ${tmp}
variable                L0 equal 305.5337624556
variable                strain equal "(lz - v_L0)/v_L0"
variable                Cumulativels equal "(lz - v_L0)/10"
fix Step all print 100 "${strain} ${Cumulativels} ${zstress}" file grapoten.txt screen no

dump 2 all custom ${dumpstep} tension.xyz type x y z f_avestress[1] f_avestress[2] f_avestress[3] f_avestress[4] f_avestress[5] f_avestress[6]
dump 2 all custom 1000 tension.xyz type x y z f_avestress[1] f_avestress[2] f_avestress[3] f_avestress[4] f_avestress[5] f_avestress[6]

fix  1 all npt temp ${temperature} ${temperature} 0.1 y ${pressure} ${pressure} 10 x ${pressure} ${pressure} 10
fix  1 all npt temp 300 ${temperature} 0.1 y ${pressure} ${pressure} 10 x ${pressure} ${pressure} 10
fix  1 all npt temp 300 300 0.1 y ${pressure} ${pressure} 10 x ${pressure} ${pressure} 10
fix  1 all npt temp 300 300 0.1 y 0 ${pressure} 10 x ${pressure} ${pressure} 10
fix  1 all npt temp 300 300 0.1 y 0 0 10 x ${pressure} ${pressure} 10
fix  1 all npt temp 300 300 0.1 y 0 0 10 x 0 ${pressure} 10
fix  1 all npt temp 300 300 0.1 y 0 0 10 x 0 0 10

thermo_style custom step pe ke etotal lx ly lz
fix   2 all deform 1 z erate ${deformrate} remap x units box
fix   2 all deform 1 z erate 0.005 remap x units box
fix   3 all ave/time 2 500 1000 v_xstress v_ystress v_zstress file pressure.out
run   ${totaltime}
run   100000
WARNING: Dump 2 includes no atom IDs and is not sorted by ID. This may complicate post-processing tasks or visualization (src/dump.cpp:221)
Per MPI rank memory allocation (min/avg/max) = 16.12 | 16.38 | 16.5 Mbytes
   Step         PotEng         KinEng         TotEng           Lx             Ly             Lz      
         0  -92296.249      495.07928     -91801.169      200            200            305.53376    
       100  -92016.801      251.26534     -91765.536      199.99142      199.99065      305.68653    
       200  -92034.539      317.45864     -91717.08       199.98197      199.98296      305.8393     
       300  -91997.607      337.72328     -91659.884      199.99828      200.00291      305.99206    
       400  -91977.658      379.70366     -91597.955      199.98748      200.00013      306.14483    
       500  -91946.259      412.66701     -91533.592      199.97417      199.99814      306.2976     
       600  -91921.54       452.45976     -91469.08       199.98531      200.01914      306.45036    
       700  -91881.216      472.20066     -91409.015      199.97253      200.01324      306.60313    
       800  -91837.278      478.1543      -91359.124      199.95075      199.99757      306.7559     
       900  -91820.066      496.19457     -91323.872      199.95189      199.99986      306.90866    
      1000  -91802.696      488.27987     -91314.416      199.95837      200.00654      307.06143    
      1100  -91837.976      503.13647     -91334.839      199.94657      199.99372      307.2142     
      1200  -91834.867      475.20045     -91359.666      199.95438      199.9991       307.36697    
      1300  -91854.375      489.59316     -91364.782      199.95721      199.99931      307.51973    
      1400  -91848.988      500.90405     -91348.084      199.94606      199.98737      307.6725     
      1500  -91837.89       511.44918     -91326.44       199.94617      199.98417      307.82527    
      1600  -91835.511      518.36464     -91317.147      199.94861      199.98402      307.97803    
      1700  -91824.712      499.61888     -91325.093      199.93683      199.97115      308.1308     
      1800  -91835.322      493.34738     -91341.975      199.93367      199.96604      308.28357    
      1900  -91826.231      476.51815     -91349.713      199.94375      199.9766       308.43633    
      2000  -91830.325      489.84983     -91340.476      199.93384      199.97021      308.5891     
      2100  -91807.902      484.81586     -91323.086      199.92349      199.96539      308.74187    
      2200  -91816.026      503.18531     -91312.84       199.91892      199.96737      308.89463    
      2300  -91810.481      493.54771     -91316.933      199.91064      199.96711      309.0474     
      2400  -91824.067      495.14231     -91328.925      199.89273      199.95915      309.20017    
      2500  -91824.479      489.45023     -91335.029      199.88924      199.96904      309.35293    
      2600  -91822.528      495.51805     -91327.01       199.8837       199.97628      309.5057     
      2700  -91815.394      504.28917     -91311.104      199.86609      199.97214      309.65847    
      2800  -91800.257      499.65456     -91300.603      199.85309      199.97268      309.81124    
      2900  -91804.544      503.02446     -91301.519      199.84463      199.97594      309.964      
      3000  -91805.586      495.98882     -91309.597      199.83272      199.97555      310.11677    
      3100  -91808.444      493.58347     -91314.86       199.81875      199.97146      310.26954    
      3200  -91796.293      485.90797     -91310.385      199.81348      199.97179      310.4223     
      3300  -91793.103      496.3617      -91296.742      199.80081      199.96264      310.57507    
      3400  -91784.723      498.30305     -91286.42       199.7932       199.95513      310.72784    
      3500  -91782.833      497.30113     -91285.532      199.78697      199.94836      310.8806     
      3600  -91782.591      492.5319      -91290.059      199.78287      199.9433       311.03337    
      3700  -91785.829      493.52292     -91292.306      199.77486      199.93648      311.18614    
      3800  -91780.134      493.55608     -91286.578      199.76746      199.92831      311.3389     
      3900  -91773.782      499.09758     -91274.684      199.76049      199.91909      311.49167    
      4000  -91766.784      503.5349      -91263.249      199.75367      199.90978      311.64444    
      4100  -91761.39       500.76673     -91260.624      199.75032      199.90264      311.7972     
      4200  -91759.83       496.20917     -91263.621      199.74229      199.89457      311.94997    
      4300  -91754.543      490.85173     -91263.692      199.73505      199.88719      312.10274    
      4400  -91745.658      488.17763     -91257.48       199.72777      199.8806       312.25551    
      4500  -91737.624      490.84817     -91246.776      199.72115      199.87703      312.40827    
      4600  -91737.177      498.86007     -91238.317      199.70646      199.86989      312.56104    
      4700  -91725.971      490.18442     -91235.786      199.69051      199.86298      312.71381    
      4800  -91729.742      493.31076     -91236.431      199.67614      199.85919      312.86657    
      4900  -91731.887      495.86801     -91236.019      199.65894      199.85391      313.01934    
      5000  -91722.927      490.17642     -91232.751      199.63896      199.84606      313.17211    
      5100  -91721.67       497.64989     -91224.02       199.62537      199.8422       313.32487    
      5200  -91709.369      495.92393     -91213.445      199.61297      199.8382       313.47764    
      5300  -91703.464      498.28238     -91205.182      199.59631      199.82723      313.63041    
      5400  -91696.116      494.94383     -91201.172      199.58408      199.82062      313.78317    
      5500  -91693.911      494.90183     -91199.009      199.57267      199.81346      313.93594    
      5600  -91690.797      493.50326     -91197.294      199.55656      199.80198      314.08871    
      5700  -91687.063      493.2609      -91193.802      199.5413       199.79335      314.24147    
      5800  -91676.428      489.62599     -91186.802      199.5321       199.78802      314.39424    
      5900  -91671.801      496.86243     -91174.938      199.51547      199.77516      314.54701    
      6000  -91665.164      500.00459     -91165.16       199.50434      199.76638      314.69978    
      6100  -91656.53       496.45572     -91160.074      199.49574      199.76186      314.85254    
      6200  -91654.75       496.51862     -91158.232      199.47716      199.74794      315.00531    
      6300  -91644.546      488.60228     -91155.944      199.46076      199.73525      315.15808    
      6400  -91641.782      491.9245      -91149.857      199.44934      199.72724      315.31084    
      6500  -91637.974      499.28958     -91138.684      199.43448      199.71378      315.46361    
      6600  -91626.437      499.75033     -91126.687      199.41978      199.69897      315.61638    
      6700  -91614.041      493.98291     -91120.058      199.41172      199.69013      315.76914    
      6800  -91613.872      494.37621     -91119.496      199.3979       199.67741      315.92191    
      6900  -91614.683      496.62713     -91118.056      199.38277      199.66254      316.07468    
      7000  -91599.535      489.48921     -91110.046      199.37027      199.64963      316.22744    
      7100  -91593.892      498.45665     -91095.436      199.35229      199.63274      316.38021    
      7200  -91579.488      497.2192      -91082.269      199.33396      199.61257      316.53298    
      7300  -91571.283      495.91681     -91075.366      199.32067      199.59712      316.68574    
      7400  -91563.074      489.08928     -91073.985      199.30808      199.58033      316.83851    
      7500  -91564.094      491.83758     -91072.256      199.29448      199.56246      316.99128    
      7600  -91556.608      490.45457     -91066.154      199.28251      199.5451       317.14405    
      7700  -91549.487      495.06306     -91054.424      199.26523      199.52252      317.29681    
      7800  -91539.743      496.14062     -91043.602      199.24878      199.50411      317.44958    
      7900  -91535.396      499.66043     -91035.735      199.23277      199.48623      317.60235    
      8000  -91525.888      495.99119     -91029.896      199.2154       199.46781      317.75511    
      8100  -91518.988      493.03819     -91025.95       199.19889      199.45154      317.90788    
      8200  -91514.426      495.41463     -91019.012      199.18037      199.43551      318.06065    
      8300  -91499.28       493.06577     -91006.214      199.16056      199.41742      318.21341    
      8400  -91487.006      495.20306     -90991.803      199.13929      199.39926      318.36618    
      8500  -91479.699      497.82028     -90981.879      199.11594      199.38175      318.51895    
      8600  -91474.479      498.6581      -90975.821      199.09237      199.36378      318.67171    
      8700  -91470.449      499.25719     -90971.192      199.06943      199.35023      318.82448    
      8800  -91459.073      493.6384      -90965.435      199.04564      199.33482      318.97725    
      8900  -91448.287      489.68977     -90958.597      199.02248      199.32041      319.13001    
      9000  -91445.821      496.21422     -90949.607      199.00067      199.30714      319.28278    
      9100  -91434.949      496.11736     -90938.831      198.97432      199.28863      319.43555    
      9200  -91422.422      494.84562     -90927.577      198.94658      199.26745      319.58832    
      9300  -91410.394      492.20608     -90918.188      198.9224       199.25007      319.74108    
      9400  -91410.226      499.76981     -90910.457      198.89393      199.22905      319.89385    
      9500  -91397.001      492.59323     -90904.408      198.86533      199.20934      320.04662    
      9600  -91393.329      496.757       -90896.572      198.83876      199.19407      320.19938    
      9700  -91379.422      495.11069     -90884.312      198.80798      199.17471      320.35215    
      9800  -91368.272      496.81756     -90871.455      198.7755       199.15398      320.50492    
      9900  -91361.11       499.45177     -90861.658      198.74985      199.13876      320.65768    
     10000  -91349.133      494.84518     -90854.288      198.72394      199.12192      320.81045    
     10100  -91336.136      489.97826     -90846.158      198.69059      199.09962      320.96322    
     10200  -91331.663      495.2508      -90836.413      198.65965      199.08         321.11598    
     10300  -91319.45       495.94513     -90823.505      198.62958      199.05995      321.26875    
     10400  -91308.186      498.60344     -90809.582      198.59703      199.03655      321.42152    
     10500  -91299.03       498.62251     -90800.407      198.56751      199.01495      321.57428    
     10600  -91288.064      493.46811     -90794.596      198.54035      198.99531      321.72705    
     10700  -91280.9        492.56894     -90788.331      198.51104      198.9725       321.87982    
     10800  -91273.491      493.61503     -90779.876      198.48327      198.95095      322.03259    
     10900  -91257.063      489.37878     -90767.684      198.45404      198.92975      322.18535    
     11000  -91250.575      498.0911      -90752.483      198.41773      198.90199      322.33812    
     11100  -91232.847      493.72386     -90739.123      198.37908      198.87517      322.49089    
     11200  -91229.522      496.04055     -90733.482      198.34281      198.85253      322.64365    
     11300  -91219.594      489.74744     -90729.847      198.3041       198.83017      322.79642    
     11400  -91210.725      491.81922     -90718.906      198.26758      198.80839      322.94919    
     11500  -91195.847      491.69111     -90704.155      198.23228      198.78575      323.10195    
     11600  -91188.211      498.0583      -90690.153      198.19138      198.75924      323.25472    
     11700  -91170.919      492.8039      -90678.115      198.15236      198.73551      323.40749    
     11800  -91165.119      499.03691     -90666.082      198.11346      198.71407      323.56025    
     11900  -91156.536      499.99993     -90656.536      198.07388      198.69101      323.71302    
     12000  -91142.166      491.89303     -90650.273      198.03669      198.66937      323.86579    
     12100  -91135.209      492.46058     -90642.748      198.00065      198.64434      324.01856    
     12200  -91122.864      491.87014     -90630.994      197.96536      198.61814      324.17132    
     12300  -91108.047      497.06316     -90610.983      197.93196      198.59375      324.32409    
     12400  -91096.803      499.4242      -90597.379      197.89799      198.57004      324.47686    
     12500  -91085.793      495.278       -90590.515      197.85628      198.54362      324.62962    
     12600  -91078.979      494.34664     -90584.633      197.81589      198.51534      324.78239    
     12700  -91062.893      490.33752     -90572.556      197.77601      198.48748      324.93516    
     12800  -91052.843      495.1326      -90557.71       197.73582      198.45424      325.08792    
     12900  -91042.096      496.69869     -90545.398      197.70395      198.42361      325.24069    
     13000  -91027.584      492.7468      -90534.837      197.67506      198.39825      325.39346    
     13100  -91014.339      492.23793     -90522.101      197.6379       198.36288      325.54622    
     13200  -91004.633      498.0965      -90506.536      197.59992      198.32859      325.69899    
     13300  -90992.783      500.67757     -90492.106      197.568        198.2993       325.85176    
     13400  -90979.958      495.6323      -90484.325      197.52843      198.26134      326.00452    
     13500  -90974.03       494.54551     -90479.484      197.49133      198.22755      326.15729    
     13600  -90960.028      492.11076     -90467.918      197.46298      198.20036      326.31006    
     13700  -90942.784      491.80931     -90450.975      197.42523      198.16488      326.46283    
     13800  -90930.526      495.92668     -90434.599      197.38695      198.12684      326.61559    
     13900  -90917.157      496.07539     -90421.082      197.35399      198.09871      326.76836    
     14000  -90907.176      497.29836     -90409.878      197.31551      198.06494      326.92113    
     14100  -90896.681      494.73344     -90401.948      197.2817       198.0318       327.07389    
     14200  -90885.038      491.74584     -90393.292      197.25378      198.00662      327.22666    
     14300  -90870.771      493.55369     -90377.218      197.21948      197.97393      327.37943    
     14400  -90855.297      495.72883     -90359.568      197.18356      197.94218      327.53219    
     14500  -90838.961      493.93031     -90345.03       197.15093      197.91601      327.68496    
     14600  -90825.221      493.32606     -90331.895      197.11512      197.88837      327.83773    
     14700  -90818.707      497.7919      -90320.915      197.07806      197.85874      327.99049    
     14800  -90806.576      494.40435     -90312.172      197.04477      197.83373      328.14326    
     14900  -90795.302      493.78116     -90301.52       197.00972      197.80851      328.29603    
     15000  -90777.874      492.74172     -90285.132      196.9715       197.78282      328.44879    
     15100  -90759.019      496.93303     -90262.086      196.93473      197.76317      328.60156    
     15200  -90738.611      492.07879     -90246.533      196.89854      197.74718      328.75433    
     15300  -90732.344      497.44723     -90234.897      196.85501      197.72806      328.9071     
     15400  -90721.592      492.26235     -90229.329      196.81125      197.70973      329.05986    
     15500  -90707.796      488.29755     -90219.498      196.76805      197.69318      329.21263    
     15600  -90696.794      494.93412     -90201.86       196.72332      197.67378      329.3654     
     15700  -90677.391      494.84931     -90182.542      196.68359      197.65711      329.51816    
     15800  -90666.227      499.97097     -90166.256      196.64679      197.64238      329.67093    
     15900  -90650.073      496.58724     -90153.486      196.60901      197.62407      329.8237     
     16000  -90636.907      493.76616     -90143.141      196.57272      197.60532      329.97646    
     16100  -90631.64       494.44182     -90137.198      196.54033      197.58611      330.12923    
     16200  -90610.514      485.76139     -90124.752      196.51022      197.55991      330.282      
     16300  -90595.874      493.73267     -90102.141      196.48124      197.5305       330.43476    
     16400  -90581.513      497.15944     -90084.353      196.45908      197.505        330.58753    
     16500  -90566.253      498.83228     -90067.42       196.43981      197.47964      330.7403     
     16600  -90546.881      495.66524     -90051.215      196.41819      197.4507       330.89306    
     16700  -90534.284      495.29931     -90038.984      196.40208      197.42273      331.04583    
     16800  -90524.244      493.78265     -90030.462      196.38389      197.39332      331.1986     
     16900  -90509.907      493.0845      -90016.822      196.36187      197.35803      331.35137    
     17000  -90490.27       495.62511     -89994.645      196.34372      197.32921      331.50413    
     17100  -90475.807      501.0498      -89974.757      196.32691      197.30475      331.6569     
     17200  -90461.356      500.25936     -89961.097      196.30785      197.28025      331.80967    
     17300  -90441.552      492.59079     -89948.961      196.29148      197.25924      331.96243    
     17400  -90427.371      492.49323     -89934.878      196.2738       197.23929      332.1152     
     17500  -90414.538      493.73848     -89920.799      196.2497       197.21658      332.26797    
     17600  -90400.856      489.82556     -89911.03       196.22411      197.19316      332.42073    
     17700  -90387.39       490.86023     -89896.53       196.19925      197.17431      332.5735     
     17800  -90370.862      497.12563     -89873.736      196.17598      197.15947      332.72627    
     17900  -90352.045      497.57035     -89854.475      196.15327      197.1453       332.87903    
     18000  -90339.817      498.98457     -89840.832      196.13224      197.13418      333.0318     
     18100  -90325.852      494.12276     -89831.729      196.11181      197.12507      333.18457    
     18200  -90306.628      486.69546     -89819.933      196.08469      197.10904      333.33733    
     18300  -90290.849      493.89835     -89796.951      196.0576       197.09176      333.4901     
     18400  -90274.504      499.3231      -89775.181      196.03707      197.07893      333.64287    
     18500  -90263.201      501.19596     -89762.005      196.01575      197.06272      333.79564    
     18600  -90248.132      495.34903     -89752.783      195.99532      197.04462      333.9484     
     18700  -90233.618      494.35861     -89739.26       195.98357      197.0312       334.10117    
     18800  -90211.812      493.39887     -89718.413      195.97035      197.01503      334.25394    
     18900  -90195.023      500.8486      -89694.174      195.95844      196.99244      334.4067     
     19000  -90177.896      498.24325     -89679.652      195.95196      196.97417      334.55947    
     19100  -90163.152      496.24459     -89666.908      195.94278      196.95251      334.71224    
     19200  -90149.911      494.69139     -89655.219      195.92883      196.92842      334.865      
     19300  -90138.507      495.15299     -89643.354      195.91894      196.90811      335.01777    
     19400  -90116.494      492.58935     -89623.905      195.90948      196.88818      335.17054    
     19500  -90096.064      498.29077     -89597.773      195.89934      196.86841      335.3233     
     19600  -90076.98       494.26351     -89582.716      195.89419      196.85084      335.47607    
     19700  -90069.982      497.04056     -89572.941      195.88904      196.83638      335.62884    
     19800  -90051.323      493.12489     -89558.198      195.87804      196.81584      335.7816     
     19900  -90034.327      495.48531     -89538.841      195.86505      196.79699      335.93437    
     20000  -90015.952      495.63498     -89520.317      195.85695      196.78451      336.08714    
     20100  -89996.071      497.34658     -89498.724      195.84405      196.7688       336.23991    
     20200  -89976.229      498.93529     -89477.294      195.8284       196.75654      336.39267    
     20300  -89962.531      496.96031     -89465.57       195.81888      196.75066      336.54544    
     20400  -89950.317      494.46406     -89455.853      195.80374      196.74213      336.69821    
     20500  -89927.447      489.14227     -89438.304      195.78357      196.72962      336.85097    
     20600  -89909.166      493.21538     -89415.951      195.7629       196.71804      337.00374    
     20700  -89892.979      496.95763     -89396.021      195.74174      196.70936      337.15651    
     20800  -89877.089      496.64834     -89380.441      195.7199       196.70071      337.30927    
     20900  -89865.521      490.87914     -89374.642      195.70103      196.69551      337.46204    
     21000  -89847.484      490.84462     -89356.639      195.68743      196.69503      337.61481    
     21100  -89822.93       491.66372     -89331.266      195.66955      196.69515      337.76757    
     21200  -89806.217      496.41297     -89309.804      195.65057      196.6932       337.92034    
     21300  -89791.227      497.7103      -89293.516      195.63529      196.69231      338.07311    
     21400  -89768.689      490.19314     -89278.495      195.62023      196.68765      338.22588    
     21500  -89756.558      490.837       -89265.721      195.60653      196.68063      338.37864    
     21600  -89745.604      495.88938     -89249.715      195.59699      196.67418      338.53141    
     21700  -89714.348      490.32592     -89224.022      195.58517      196.66631      338.68418    
     21800  -89697.715      497.013       -89200.702      195.57339      196.65406      338.83694    
     21900  -89678.802      495.54303     -89183.258      195.56168      196.64019      338.98971    
     22000  -89665.469      494.8882      -89170.581      195.54916      196.62654      339.14248    
     22100  -89649.897      493.11368     -89156.783      195.53936      196.61201      339.29524    
     22200  -89627.552      492.75033     -89134.802      195.52951      196.59812      339.44801    
     22300  -89605.046      497.29298     -89107.753      195.51999      196.58492      339.60078    
     22400  -89591.105      500.86889     -89090.236      195.51001      196.57169      339.75354    
     22500  -89573.061      493.40998     -89079.651      195.49786      196.55935      339.90631    
     22600  -89556.034      490.68472     -89065.349      195.48485      196.5483       340.05908    
     22700  -89539.629      494.46219     -89045.167      195.47411      196.53779      340.21184    
     22800  -89522.68       499.51575     -89023.165      195.46329      196.52743      340.36461    
     22900  -89499.417      501.0299      -88998.387      195.45254      196.51414      340.51738    
     23000  -89476.458      502.45125     -88974.007      195.44606      196.50418      340.67015    
     23100  -89460.023      496.41333     -88963.61       195.43483      196.49299      340.82291    
     23200  -89447.357      496.26448     -88951.093      195.41997      196.48033      340.97568    
     23300  -89428.899      492.78965     -88936.11       195.40858      196.47289      341.12845    
     23400  -89410.366      491.63261     -88918.733      195.39478      196.46601      341.28121    
     23500  -89389.925      493.70125     -88896.224      195.38014      196.45843      341.43398    
     23600  -89371.985      502.03072     -88869.955      195.36871      196.45311      341.58675    
     23700  -89346.255      494.07581     -88852.179      195.35375      196.44592      341.73951    
     23800  -89329.639      492.03775     -88837.601      195.33578      196.4338       341.89228    
     23900  -89322.189      495.62313     -88826.566      195.32032      196.42381      342.04505    
     24000  -89302.99       486.6957      -88816.294      195.30263      196.41068      342.19781    
     24100  -89283.644      490.82734     -88792.817      195.28741      196.39898      342.35058    
     24200  -89255.602      489.98721     -88765.614      195.27593      196.39122      342.50335    
     24300  -89236.943      495.98343     -88740.96       195.26455      196.37956      342.65611    
     24400  -89216.019      496.47234     -88719.547      195.2519       196.36653      342.80888    
     24500  -89193.682      494.74801     -88698.934      195.24162      196.35608      342.96165    
     24600  -89179.512      499.29903     -88680.213      195.22899      196.34227      343.11442    
     24700  -89157.913      493.13418     -88664.779      195.21627      196.32963      343.26718    
     24800  -89141.212      491.10435     -88650.108      195.20852      196.32002      343.41995    
     24900  -89122.327      491.76949     -88630.557      195.19967      196.30591      343.57272    
     25000  -89100.266      498.70359     -88601.562      195.1919       196.29061      343.72548    
     25100  -89078.128      499.06067     -88579.067      195.18776      196.27549      343.87825    
     25200  -89062.651      500.61906     -88562.032      195.17942      196.25756      344.03102    
     25300  -89042.797      495.39661     -88547.4        195.16762      196.23777      344.18378    
     25400  -89027.012      491.47441     -88535.538      195.15925      196.22403      344.33655    
     25500  -89003.243      488.06675     -88515.176      195.14855      196.21294      344.48932    
     25600  -88987.863      495.99459     -88491.869      195.13524      196.20056      344.64208    
     25700  -88959.381      491.57824     -88467.803      195.12171      196.1892       344.79485    
     25800  -88938.621      495.67752     -88442.943      195.10377      196.17546      344.94762    
     25900  -88919.702      497.21522     -88422.487      195.08505      196.163        345.10038    
     26000  -88903.863      493.70615     -88410.157      195.06772      196.15588      345.25315    
     26100  -88884.328      487.35804     -88396.97       195.0511       196.14858      345.40592    
     26200  -88861.626      487.77767     -88373.848      195.03359      196.14157      345.55869    
     26300  -88840.252      492.98444     -88347.267      195.01349      196.13321      345.71145    
     26400  -88817.884      494.64284     -88323.241      194.99266      196.12405      345.86422    
     26500  -88801.363      499.1342      -88302.228      194.9721       196.1168       346.01699    
     26600  -88776.225      492.16643     -88284.058      194.95523      196.11069      346.16975    
     26700  -88762.258      491.15017     -88271.107      194.93911      196.10526      346.32252    
     26800  -88740.672      488.64359     -88252.028      194.9233       196.09933      346.47529    
     26900  -88712.681      490.80852     -88221.873      194.90556      196.09077      346.62805    
     27000  -88699.364      500.95948     -88198.404      194.88407      196.07992      346.78082    
     27100  -88673.27       493.63267     -88179.637      194.86871      196.06979      346.93359    
     27200  -88651.129      488.13371     -88162.995      194.85436      196.05897      347.08635    
     27300  -88636.174      492.12454     -88144.05       194.83795      196.04124      347.23912    
     27400  -88611.807      492.95256     -88118.855      194.82582      196.0261       347.39189    
     27500  -88587.205      496.61399     -88090.591      194.81296      196.01361      347.54465    
     27600  -88565.543      497.13721     -88068.406      194.80014      195.99482      347.69742    
     27700  -88549.126      496.58642     -88052.54       194.78937      195.97627      347.85019    
     27800  -88527.401      488.59457     -88038.806      194.77876      195.95728      348.00296    
     27900  -88508.592      491.39903     -88017.193      194.76678      195.93642      348.15572    
     28000  -88488.304      496.24221     -87992.062      194.75457      195.91967      348.30849    
     28100  -88465.86       499.02979     -87966.83       194.74383      195.90273      348.46126    
     28200  -88441.533      495.52653     -87946.006      194.73116      195.88741      348.61402    
     28300  -88422.017      495.64536     -87926.372      194.71806      195.87209      348.76679    
     28400  -88405.374      491.39347     -87913.981      194.7059       195.85577      348.91956    
     28500  -88383.501      488.86389     -87894.637      194.68993      195.84059      349.07232    
     28600  -88359.85       493.59741     -87866.252      194.67159      195.82257      349.22509    
     28700  -88333.613      493.22992     -87840.383      194.65215      195.80824      349.37786    
     28800  -88313.079      494.66868     -87818.41       194.63221      195.7977       349.53062    
     28900  -88294.735      493.85357     -87800.881      194.61305      195.78695      349.68339    
     29000  -88279.263      491.75832     -87787.505      194.59121      195.77502      349.83616    
     29100  -88259.572      488.35677     -87771.216      194.57264      195.76073      349.98892    
     29200  -88230.034      488.10426     -87741.93       194.55167      195.74547      350.14169    
     29300  -88211.196      498.14707     -87713.049      194.52675      195.72997      350.29446    
     29400  -88191.802      500.86136     -87690.94       194.50726      195.71875      350.44723    
     29500  -88168.236      495.55091     -87672.686      194.48503      195.71219      350.59999    
     29600  -88142.069      486.92469     -87655.144      194.45932      195.69975      350.75276    
     29700  -88123.951      490.4589      -87633.492      194.43322      195.68745      350.90553    
     29800  -88100.809      496.76393     -87604.045      194.41086      195.6782       351.05829    
     29900  -88077.569      499.03926     -87578.529      194.38887      195.6655       351.21106    
     30000  -88056.714      496.11444     -87560.6        194.3673       195.65114      351.36383    
     30100  -88033.998      489.89758     -87544.101      194.34922      195.63529      351.51659    
     30200  -88019.59       497.0718      -87522.518      194.32924      195.61988      351.66936    
     30300  -87995.523      496.05715     -87499.466      194.31064      195.60222      351.82213    
     30400  -87973.01       496.55179     -87476.458      194.29286      195.58643      351.97489    
     30500  -87947.869      498.39351     -87449.476      194.27821      195.5716       352.12766    
     30600  -87918.924      498.84881     -87420.075      194.26831      195.55377      352.28043    
     30700  -87901.287      500.62022     -87400.667      194.25584      195.53563      352.43319    
     30800  -87884.045      498.19134     -87385.854      194.2468       195.5161       352.58596    
     30900  -87866.635      500.23716     -87366.397      194.23219      195.49554      352.73873    
     31000  -87839.124      493.0689      -87346.055      194.2116       195.46986      352.8915     
     31100  -87814.067      492.37445     -87321.692      194.19149      195.44416      353.04426    
     31200  -87793.328      501.35584     -87291.972      194.17203      195.42642      353.19703    
     31300  -87762.891      495.03921     -87267.852      194.1553       195.40746      353.3498     
     31400  -87743.979      494.75461     -87249.225      194.1374       195.39081      353.50256    
     31500  -87722.997      491.31327     -87231.684      194.11997      195.37553      353.65533    
     31600  -87703.244      493.46867     -87209.776      194.09832      195.35616      353.8081     
     31700  -87680.562      494.76807     -87185.794      194.0707       195.33582      353.96086    
     31800  -87655.262      496.21324     -87159.048      194.04744      195.31697      354.11363    
     31900  -87627.346      495.45242     -87131.893      194.02417      195.30135      354.2664     
     32000  -87614.707      501.63676     -87113.07       193.99839      195.28485      354.41916    
     32100  -87594.419      493.08499     -87101.334      193.97459      195.2705       354.57193    
     32200  -87570.927      492.5737      -87078.353      193.95163      195.25669      354.7247     
     32300  -87546.395      497.28404     -87049.111      193.92691      195.23842      354.87747    
     32400  -87515.465      492.12785     -87023.337      193.90608      195.22396      355.03023    
     32500  -87499.577      497.93569     -87001.642      193.88653      195.20942      355.183      
     32600  -87476.414      490.90501     -86985.509      193.86374      195.19122      355.33577    
     32700  -87453.712      484.62953     -86969.082      193.84613      195.17579      355.48853    
     32800  -87435.703      494.87545     -86940.827      193.83013      195.15847      355.6413     
     32900  -87407.658      494.63095     -86913.027      193.80966      195.1324       355.79407    
     33000  -87384.656      496.58648     -86888.069      193.79335      195.10738      355.94683    
     33100  -87358.316      495.19285     -86863.123      193.78057      195.08522      356.0996     
     33200  -87340.088      503.43006     -86836.658      193.76376      195.0571       356.25237    
     33300  -87312.684      500.13727     -86812.546      193.74922      195.03254      356.40513    
     33400  -87290.403      494.10229     -86796.3        193.73365      195.01         356.5579     
     33500  -87271.666      491.9087      -86779.757      193.71093      194.97992      356.71067    
     33600  -87249.162      491.88754     -86757.274      193.69136      194.95442      356.86343    
     33700  -87222.735      493.56033     -86729.174      193.67472      194.93187      357.0162     
     33800  -87195.534      497.27261     -86698.261      193.65113      194.90388      357.16897    
     33900  -87173.521      497.974       -86675.547      193.63286      194.87966      357.32174    
     34000  -87148.329      493.33213     -86654.996      193.61722      194.8598       357.4745     
     34100  -87131.36       496.40846     -86634.951      193.59627      194.83588      357.62727    
     34200  -87108.578      492.09721     -86616.481      193.57463      194.81579      357.78004    
     34300  -87088.997      491.11985     -86597.877      193.55188      194.79872      357.9328     
     34400  -87064.782      489.91595     -86574.866      193.52378      194.77724      358.08557    
     34500  -87041.084      498.16057     -86542.924      193.49945      194.7586       358.23834    
     34600  -87012.985      497.52269     -86515.462      193.47982      194.74223      358.3911     
     34700  -86989.693      496.70402     -86492.989      193.45846      194.72341      358.54387    
     34800  -86970.11       494.01199     -86476.098      193.43755      194.70401      358.69664    
     34900  -86944.283      487.87776     -86456.406      193.41397      194.68523      358.8494     
     35000  -86921.855      496.60598     -86425.249      193.39009      194.66527      359.00217    
     35100  -86892.587      498.12227     -86394.465      193.36651      194.64718      359.15494    
     35200  -86868.887      495.72252     -86373.164      193.34445      194.62842      359.3077     
     35300  -86845.048      490.02132     -86355.027      193.32447      194.60823      359.46047    
     35400  -86824.343      491.152       -86333.191      193.30694      194.58739      359.61324    
     35500  -86800.21       497.9413      -86302.268      193.28826      194.56279      359.76601    
     35600  -86775.276      501.7662      -86273.51       193.27011      194.53673      359.91877    
     35700  -86754.316      500.96039     -86253.355      193.25459      194.51205      360.07154    
     35800  -86726.843      492.05408     -86234.789      193.23803      194.48596      360.22431    
     35900  -86711.738      499.08275     -86212.655      193.21865      194.45647      360.37707    
     36000  -86682.131      493.56211     -86188.568      193.19858      194.42999      360.52984    
     36100  -86654.51       492.18332     -86162.327      193.17645      194.40431      360.68261    
     36200  -86624.51       495.21281     -86129.297      193.1546       194.37623      360.83537    
     36300  -86598.209      497.2908      -86100.918      193.13519      194.35325      360.98814    
     36400  -86588.319      505.25601     -86083.063      193.11685      194.33171      361.14091    
     36500  -86560.513      495.27906     -86065.234      193.0949       194.30943      361.29367    
     36600  -86540.934      495.15457     -86045.779      193.06927      194.28824      361.44644    
     36700  -86513.654      491.61051     -86022.043      193.04576      194.26863      361.59921    
     36800  -86489.628      499.88196     -85989.746      193.01985      194.25122      361.75197    
     36900  -86465.197      500.97039     -85964.227      192.994        194.23624      361.90474    
     37000  -86441.646      497.9374      -85943.709      192.96789      194.22146      362.05751    
     37100  -86417.405      494.45307     -85922.952      192.93922      194.20825      362.21028    
     37200  -86389.276      487.88811     -85901.388      192.91154      194.19264      362.36304    
     37300  -86370.741      489.52994     -85881.211      192.88275      194.17549      362.51581    
     37400  -86347.955      492.20123     -85855.754      192.85602      194.15896      362.66858    
     37500  -86322.264      498.23351     -85824.031      192.83366      194.14416      362.82134    
     37600  -86294.385      496.48514     -85797.9        192.81111      194.12914      362.97411    
     37700  -86270.697      496.20134     -85774.496      192.78829      194.11077      363.12688    
     37800  -86251.034      492.94352     -85758.091      192.76733      194.09352      363.27964    
     37900  -86225.254      486.94857     -85738.305      192.74559      194.0757       363.43241    
     38000  -86201.29       493.11847     -85708.171      192.7212       194.0527       363.58518    
     38100  -86173.197      493.75969     -85679.438      192.69609      194.03175      363.73794    
     38200  -86146.736      493.79671     -85652.939      192.67664      194.01252      363.89071    
     38300  -86125.54       496.52867     -85629.011      192.65682      193.98922      364.04348    
     38400  -86107.903      497.92629     -85609.977      192.63477      193.96383      364.19624    
     38500  -86082.24       489.71713     -85592.523      192.61573      193.94128      364.34901    
     38600  -86057.388      492.07462     -85565.313      192.59395      193.91775      364.50178    
     38700  -86031.884      497.34185     -85534.542      192.56868      193.8909       364.65455    
     38800  -86004.994      494.9667      -85510.027      192.54922      193.86821      364.80731    
     38900  -85980.69       494.34544     -85486.344      192.53221      193.84941      364.96008    
     39000  -85960.264      498.87264     -85461.391      192.51123      193.82538      365.11285    
     39100  -85927.328      494.35353     -85432.975      192.49019      193.80199      365.26561    
     39200  -85898.473      494.88093     -85403.592      192.47095      193.78189      365.41838    
     39300  -85880.426      497.52435     -85382.902      192.45285      193.76215      365.57115    
     39400  -85859.2        493.33843     -85365.862      192.43267      193.74339      365.72391    
     39500  -85834.972      492.29349     -85342.679      192.41627      193.72874      365.87668    
     39600  -85812.552      496.36869     -85316.183      192.40114      193.71635      366.02945    
     39700  -85779.163      490.0749      -85289.088      192.38121      193.69929      366.18221    
     39800  -85759.272      497.11543     -85262.157      192.36048      193.67761      366.33498    
     39900  -85727.866      492.31407     -85235.551      192.34066      193.65871      366.48775    
     40000  -85706.014      496.91578     -85209.098      192.31885      193.63946      366.64051    
     40100  -85676.262      497.81454     -85178.448      192.29722      193.61684      366.79328    
     40200  -85653.088      499.09316     -85153.995      192.27926      193.59816      366.94605    
     40300  -85633.918      496.44027     -85137.478      192.26373      193.58077      367.09882    
     40400  -85609.437      493.55401     -85115.883      192.24277      193.55607      367.25158    
     40500  -85583.226      493.84397     -85089.382      192.22132      193.53242      367.40435    
     40600  -85557.938      498.51483     -85059.423      192.20403      193.51271      367.55712    
     40700  -85530.683      504.31465     -85026.368      192.18348      193.48683      367.70988    
     40800  -85506.655      502.30541     -85004.349      192.16387      193.46184      367.86265    
     40900  -85482.376      493.01412     -84989.362      192.15011      193.43939      368.01542    
     41000  -85462.338      496.22998     -84966.108      192.13421      193.41517      368.16818    
     41100  -85436.322      493.91277     -84942.409      192.11878      193.38919      368.32095    
     41200  -85408.821      492.26322     -84916.557      192.10441      193.36339      368.47372    
     41300  -85386.903      498.97731     -84887.925      192.08871      193.34041      368.62648    
     41400  -85353.861      493.59994     -84860.261      192.07568      193.31872      368.77925    
     41500  -85337.313      497.77292     -84839.54       192.05977      193.299        368.93202    
     41600  -85316.74       494.71739     -84822.023      192.04648      193.27996      369.08479    
     41700  -85288.36       492.73796     -84795.622      192.03695      193.2628       369.23755    
     41800  -85259.675      494.7205      -84764.955      192.02001      193.24465      369.39032    
     41900  -85234.056      496.11902     -84737.937      192.00129      193.22661      369.54309    
     42000  -85208.552      495.3658      -84713.186      191.98254      193.21215      369.69585    
     42100  -85181.981      494.4356      -84687.546      191.95871      193.19304      369.84862    
     42200  -85155.332      497.32285     -84658.01       191.9376       193.17302      370.00139    
     42300  -85131.698      504.18552     -84627.513      191.9199       193.15747      370.15415    
     42400  -85103.433      497.19008     -84606.243      191.89659      193.13779      370.30692    
     42500  -85086.614      496.60775     -84590.007      191.87318      193.12116      370.45969    
     42600  -85060.717      494.59438     -84566.123      191.85378      193.11001      370.61245    
     42700  -85031.832      493.47393     -84538.359      191.83179      193.09395      370.76522    
     42800  -85003.564      496.97867     -84506.585      191.81115      193.08126      370.91799    
     42900  -84975.021      497.75899     -84477.262      191.79509      193.07316      371.07075    
     43000  -84955.794      496.83039     -84458.964      191.77492      193.05855      371.22352    
     43100  -84934.426      492.22603     -84442.2        191.75452      193.04291      371.37629    
     43200  -84904.672      490.69927     -84413.973      191.73909      193.02795      371.52906    
     43300  -84877.096      495.086       -84382.01       191.71991      193.00817      371.68182    
     43400  -84854.527      499.50819     -84355.019      191.70096      192.99055      371.83459    
     43500  -84826.072      492.46038     -84333.612      191.68464      192.97661      371.98736    
     43600  -84805.462      490.28142     -84315.18       191.66156      192.95677      372.14012    
     43700  -84785.107      491.46572     -84293.641      191.64107      192.93795      372.29289    
     43800  -84755.229      493.16301     -84262.066      191.628        192.92157      372.44566    
     43900  -84729.305      499.80003     -84229.505      191.61087      192.90017      372.59842    
     44000  -84702.664      498.53203     -84204.132      191.59774      192.87982      372.75119    
     44100  -84672.849      491.28801     -84181.561      191.58782      192.8663       372.90396    
     44200  -84654.858      492.22601     -84162.632      191.56924      192.84838      373.05672    
     44300  -84630.393      489.32805     -84141.065      191.55307      192.83238      373.20949    
     44400  -84600.159      493.59958     -84106.559      191.538        192.82188      373.36226    
     44500  -84574.926      498.72849     -84076.198      191.52042      192.80394      373.51502    
     44600  -84546.02       494.0716      -84051.949      191.50432      192.78749      373.66779    
     44700  -84525.946      493.6793      -84032.267      191.49093      192.77445      373.82056    
     44800  -84501.954      491.85209     -84010.101      191.47439      192.75529      373.97333    
     44900  -84475.63       492.21899     -83983.411      191.45475      192.7348       374.12609    
     45000  -84441.857      494.22464     -83947.632      191.43936      192.71886      374.27886    
     45100  -84420.229      500.0542      -83920.175      191.42425      192.70246      374.43163    
     45200  -84401.288      500.33062     -83900.957      191.40748      192.68387      374.58439    
     45300  -84374.011      494.48155     -83879.529      191.39313      192.66686      374.73716    
     45400  -84346.141      493.3801      -83852.761      191.37608      192.65032      374.88993    
     45500  -84319.194      494.64175     -83824.553      191.35652      192.63393      375.04269    
     45600  -84290.244      497.4584      -83792.786      191.33746      192.61968      375.19546    
     45700  -84270.968      509.76164     -83761.207      191.31797      192.60485      375.34823    
     45800  -84240.347      497.34337     -83743.004      191.30206      192.58966      375.50099    
     45900  -84216.735      492.77139     -83723.963      191.28508      192.57416      375.65376    
     46000  -84194.27       493.40621     -83700.864      191.266        192.55756      375.80653    
     46100  -84167.055      491.30318     -83675.752      191.24904      192.54749      375.95929    
     46200  -84140.683      494.34082     -83646.342      191.23081      192.53913      376.11206    
     46300  -84117.633      502.7549      -83614.878      191.2086       192.52487      376.26483    
     46400  -84087.885      497.36665     -83590.518      191.18922      192.51403      376.4176     
     46500  -84067.408      492.29439     -83575.114      191.17489      192.50459      376.57036    
     46600  -84041.122      491.6811      -83549.441      191.15723      192.49202      376.72313    
     46700  -84011.995      494.1224      -83517.873      191.14008      192.48085      376.8759     
     46800  -83986.314      498.28837     -83488.026      191.12675      192.4712       377.02866    
     46900  -83966.517      502.80631     -83463.711      191.1086       192.45954      377.18143    
     47000  -83941.862      494.80976     -83447.053      191.08742      192.4403       377.3342     
     47100  -83912.233      487.31586     -83424.917      191.07079      192.42311      377.48696    
     47200  -83883.983      491.00884     -83392.974      191.05636      192.40967      377.63973    
     47300  -83855.215      494.20819     -83361.007      191.04167      192.38996      377.7925     
     47400  -83834.725      500.42268     -83334.302      191.02759      192.37308      377.94526    
     47500  -83807.523      493.66524     -83313.858      191.01511      192.35663      378.09803    
     47600  -83785.952      494.32621     -83291.626      191.00179      192.33522      378.2508     
     47700  -83754.353      490.51158     -83263.841      190.98948      192.31686      378.40356    
     47800  -83724.654      495.83676     -83228.818      190.97973      192.3004       378.55633    
     47900  -83702.109      501.53954     -83200.569      190.96903      192.28497      378.7091     
     48000  -83677.424      496.54516     -83180.879      190.95915      192.27029      378.86187    
     48100  -83653.596      493.9814      -83159.615      190.94785      192.25151      379.01463    
     48200  -83626.514      493.44505     -83133.069      190.93295      192.23212      379.1674     
     48300  -83596.299      492.37121     -83103.927      190.92082      192.21517      379.32017    
     48400  -83567.47       495.53418     -83071.935      190.90605      192.19724      379.47293    
     48500  -83541.399      505.29271     -83036.107      190.88652      192.17772      379.6257     
     48600  -83519.333      503.7544      -83015.579      190.87209      192.16243      379.77847    
     48700  -83489.915      493.77569     -82996.14       190.85866      192.15069      379.93123    
     48800  -83471.748      495.5539      -82976.194      190.84274      192.13529      380.084      
     48900  -83446.792      493.08752     -82953.705      190.82766      192.12143      380.23677    
     49000  -83420.437      492.817       -82927.62       190.81429      192.11079      380.38953    
     49100  -83392.039      496.23164     -82895.807      190.8001       192.09762      380.5423     
     49200  -83360.385      498.2714      -82862.114      190.78029      192.08466      380.69507    
     49300  -83332.407      494.85545     -82837.552      190.7594       192.07246      380.84783    
     49400  -83315.437      498.42921     -82817.008      190.73872      192.06105      381.0006     
     49500  -83290.67       498.11385     -82792.557      190.71555      192.04968      381.15337    
     49600  -83259.722      491.60421     -82768.118      190.69619      192.03706      381.30614    
     49700  -83236.105      492.26171     -82743.843      190.68034      192.02589      381.4589     
     49800  -83214.747      492.68911     -82722.058      190.66478      192.01319      381.61167    
     49900  -83189.931      490.94393     -82698.987      190.64659      191.99623      381.76444    
     50000  -83160.147      493.53104     -82666.616      190.62793      191.97962      381.9172     
     50100  -83131.548      498.6155      -82632.933      190.61497      191.96409      382.06997    
     50200  -83101.979      495.5647      -82606.415      190.6026       191.9489       382.22274    
     50300  -83074.544      490.84348     -82583.701      190.59099      191.93364      382.3755     
     50400  -83053.419      489.28438     -82564.135      190.58363      191.91976      382.52827    
     50500  -83028.062      490.26516     -82537.797      190.57424      191.90254      382.68104    
     50600  -83003.339      495.13845     -82508.201      190.56385      191.88041      382.8338     
     50700  -82974.552      496.79388     -82477.758      190.55488      191.86115      382.98657    
     50800  -82947.416      499.14938     -82448.267      190.54649      191.84248      383.13934    
     50900  -82920.102      497.23076     -82422.871      190.53793      191.82297      383.29211    
     51000  -82899.159      493.96684     -82405.193      190.52827      191.80415      383.44487    
     51100  -82873.196      492.65132     -82380.545      190.51477      191.78406      383.59764    
     51200  -82846.052      495.85094     -82350.201      190.50037      191.7664       383.75041    
     51300  -82817.509      500.0589      -82317.45       190.48808      191.75158      383.90317    
     51400  -82789.441      499.41792     -82290.023      190.47064      191.73486      384.05594    
     51500  -82765.846      491.80458     -82274.042      190.45226      191.71718      384.20871    
     51600  -82738.742      490.15664     -82248.585      190.43946      191.70334      384.36147    
     51700  -82721.105      501.83799     -82219.267      190.42391      191.6883       384.51424    
     51800  -82688.282      500.81599     -82187.466      190.40657      191.67086      384.66701    
     51900  -82655.402      498.0458      -82157.356      190.39048      191.65892      384.81977    
     52000  -82629.048      492.33485     -82136.714      190.37176      191.64552      384.97254    
     52100  -82609.803      493.65994     -82116.143      190.34889      191.63033      385.12531    
     52200  -82583.382      493.35639     -82090.025      190.33003      191.61961      385.27807    
     52300  -82557.551      496.92239     -82060.629      190.31316      191.60921      385.43084    
     52400  -82525.932      498.4686      -82027.464      190.29371      191.59417      385.58361    
     52500  -82499.777      503.49582     -81996.282      190.27656      191.57953      385.73638    
     52600  -82475.097      497.7261      -81977.371      190.26185      191.56743      385.88914    
     52700  -82451.319      496.01007     -81955.309      190.24475      191.5535       386.04191    
     52800  -82424.933      496.13107     -81928.802      190.22734      191.54133      386.19468    
     52900  -82397.588      497.5221      -81900.066      190.21089      191.53113      386.34744    
     53000  -82367.263      493.87783     -81873.385      190.1934       191.52098      386.50021    
     53100  -82345.212      493.12673     -81852.085      190.17526      191.51202      386.65298    
     53200  -82321.702      492.90572     -81828.796      190.1578       191.50014      386.80574    
     53300  -82295.763      497.10271     -81798.661      190.14197      191.48628      386.95851    
     53400  -82260.427      498.71548     -81761.712      190.12877      191.47312      387.11128    
     53500  -82237.738      503.3639      -81734.374      190.11396      191.45417      387.26404    
     53600  -82208.07       496.17304     -81711.897      190.09679      191.43403      387.41681    
     53700  -82184.854      495.61513     -81689.239      190.08158      191.41625      387.56958    
     53800  -82158.092      493.56256     -81664.529      190.065        191.39594      387.72234    
     53900  -82135.283      496.8704      -81638.412      190.04992      191.37578      387.87511    
     54000  -82102.363      489.26186     -81613.101      190.03944      191.35517      388.02788    
     54100  -82081.208      489.4557      -81591.752      190.02623      191.33259      388.18065    
     54200  -82056.367      493.07844     -81563.288      190.01209      191.31033      388.33341    
     54300  -82024.553      496.90352     -81527.649      189.99841      191.29         388.48618    
     54400  -81994.877      498.1739      -81496.703      189.98153      191.27137      388.63895    
     54500  -81963.827      492.77577     -81471.051      189.96584      191.25435      388.79171    
     54600  -81944.449      496.3087      -81448.141      189.94902      191.23939      388.94448    
     54700  -81915.897      493.90944     -81421.988      189.93336      191.22629      389.09725    
     54800  -81892.481      498.10448     -81394.377      189.91905      191.21342      389.25001    
     54900  -81864.631      495.1116      -81369.52       189.90273      191.20006      389.40278    
     55000  -81838.967      490.57887     -81348.388      189.88649      191.18689      389.55555    
     55100  -81812.707      490.8432      -81321.864      189.8672       191.17541      389.70831    
     55200  -81784.489      500.00483     -81284.484      189.84497      191.16367      389.86108    
     55300  -81749.557      498.65863     -81250.898      189.8245       191.15571      390.01385    
     55400  -81730.861      500.77075     -81230.091      189.80518      191.14814      390.16661    
     55500  -81705.454      496.60266     -81208.852      189.78544      191.13461      390.31938    
     55600  -81677.484      492.15284     -81185.331      189.76583      191.11997      390.47215    
     55700  -81648.22       489.54156     -81158.679      189.74856      191.10517      390.62492    
     55800  -81624.889      495.60444     -81129.285      189.73053      191.09066      390.77768    
     55900  -81595.472      498.93763     -81096.534      189.7114       191.07616      390.93045    
     56000  -81567.775      498.84784     -81068.927      189.69286      191.06103      391.08322    
     56100  -81543.277      494.26029     -81049.016      189.67566      191.04499      391.23598    
     56200  -81520.873      496.41353     -81024.459      189.65859      191.0256       391.38875    
     56300  -81485.75       489.35866     -80996.391      189.64048      191.0048       391.54152    
     56400  -81462.869      494.21197     -80968.657      189.62341      190.98455      391.69428    
     56500  -81438.611      494.78017     -80943.83       189.60866      190.96687      391.84705    
     56600  -81415.476      495.09225     -80920.384      189.59011      190.94704      391.99982    
     56700  -81388.527      495.37843     -80893.148      189.57236      190.92686      392.15258    
     56800  -81354.741      495.92671     -80858.814      189.55905      190.90879      392.30535    
     56900  -81323.964      500.60203     -80823.362      189.54383      190.88589      392.45812    
     57000  -81300.494      501.39531     -80799.099      189.53174      190.86146      392.61088    
     57100  -81276.095      500.11131     -80775.984      189.52287      190.84013      392.76365    
     57200  -81247.169      494.80863     -80752.36       189.51194      190.81656      392.91642    
     57300  -81222.707      494.48381     -80728.223      189.50067      190.79661      393.06919    
     57400  -81196.351      494.39724     -80701.954      189.48862      190.77819      393.22195    
     57500  -81167.956      493.42631     -80674.53       189.47414      190.75836      393.37472    
     57600  -81144.859      494.46481     -80650.394      189.46125      190.74156      393.52749    
     57700  -81120.223      495.71867     -80624.505      189.44931      190.72379      393.68025    
     57800  -81085.682      493.40775     -80592.274      189.43538      190.70488      393.83302    
     57900  -81052.003      498.36853     -80553.634      189.42152      190.68586      393.98579    
     58000  -81029.355      503.83052     -80525.525      189.40525      190.66687      394.13855    
     58100  -80998.65       496.47554     -80502.174      189.3863       190.64902      394.29132    
     58200  -80972.66       496.38451     -80476.275      189.36976      190.63463      394.44409    
     58300  -80944.883      493.95259     -80450.93       189.34949      190.62232      394.59685    
     58400  -80922.218      497.12752     -80425.09       189.32765      190.60902      394.74962    
     58500  -80891.014      493.24029     -80397.773      189.30652      190.59409      394.90239    
     58600  -80870.3        500.25702     -80370.043      189.28488      190.57862      395.05515    
     58700  -80840.705      494.20853     -80346.496      189.26302      190.56207      395.20792    
     58800  -80815.872      490.74744     -80325.125      189.24056      190.54834      395.36069    
     58900  -80786.425      495.37101     -80291.054      189.21922      190.53519      395.51346    
     59000  -80752.497      497.37804     -80255.118      189.1935       190.52128      395.66622    
     59100  -80725.553      500.02515     -80225.528      189.16699      190.50487      395.81899    
     59200  -80701.867      497.20272     -80204.664      189.14292      190.48816      395.97176    
     59300  -80672.675      495.82251     -80176.853      189.12024      190.47274      396.12452    
     59400  -80643.374      495.65059     -80147.723      189.09889      190.4564       396.27729    
     59500  -80618.008      498.28594     -80119.722      189.07984      190.4437       396.43006    
     59600  -80590.405      493.49304     -80096.912      189.06072      190.43066      396.58282    
     59700  -80563.149      492.74563     -80070.403      189.04002      190.41517      396.73559    
     59800  -80529.591      491.59167     -80038          189.02173      190.39699      396.88836    
     59900  -80505.842      500.48829     -80005.354      189.008        190.37967      397.04112    
     60000  -80480.229      502.89213     -79977.337      188.99399      190.3593       397.19389    
     60100  -80451.164      495.0189      -79956.145      188.97881      190.33663      397.34666    
     60200  -80419.44       493.70435     -79925.736      188.96518      190.31531      397.49942    
     60300  -80393.515      498.32281     -79895.192      188.95117      190.29274      397.65219    
     60400  -80360.684      492.07702     -79868.607      188.93613      190.26938      397.80496    
     60500  -80336.361      493.28006     -79843.081      188.92365      190.24488      397.95773    
     60600  -80304.394      490.9762      -79813.418      188.91111      190.22207      398.11049    
     60700  -80278.157      496.20826     -79781.949      188.89908      190.19868      398.26326    
     60800  -80253.863      501.82448     -79752.039      188.88423      190.17604      398.41603    
     60900  -80220.269      495.52025     -79724.749      188.86616      190.15414      398.56879    
     61000  -80193.261      495.12924     -79698.132      188.85094      190.13475      398.72156    
     61100  -80163.403      492.26491     -79671.138      188.8319       190.11621      398.87433    
     61200  -80132.585      491.14047     -79641.445      188.81141      190.09762      399.02709    
     61300  -80102.572      493.40564     -79609.166      188.79398      190.085        399.17986    
     61400  -80072.979      495.49206     -79577.487      188.7702       190.07032      399.33263    
     61500  -80051.48       500.13445     -79551.346      188.74376      190.05359      399.48539    
     61600  -80015.74       491.17138     -79524.569      188.71889      190.0419       399.63816    
     61700  -79992.957      497.37579     -79495.581      188.69305      190.02795      399.79093    
     61800  -79959.78       493.66908     -79466.111      188.66847      190.01624      399.9437     
     61900  -79934.365      492.15466     -79442.21       188.64538      190.0038       400.09646    
     62000  -79907.864      493.67038     -79414.194      188.62157      189.98726      400.24923    
     62100  -79875.656      496.7728      -79378.883      188.59819      189.97161      400.402      
     62200  -79846.251      502.41175     -79343.839      188.57489      189.95252      400.55476    
     62300  -79808.304      491.88878     -79316.415      188.55216      189.93305      400.70753    
     62400  -79788.16       495.5659      -79292.594      188.53602      189.91836      400.8603     
     62500  -79756.578      494.462       -79262.116      188.51887      189.89937      401.01306    
     62600  -79724.566      493.52191     -79231.044      188.50095      189.87822      401.16583    
     62700  -79692.754      492.0791      -79200.674      188.48776      189.86061      401.3186     
     62800  -79671.017      495.47314     -79175.544      188.47194      189.84072      401.47136    
     62900  -79642.124      496.91162     -79145.212      188.45596      189.81739      401.62413    
     63000  -79605.629      496.29736     -79109.332      188.44196      189.79682      401.7769     
     63100  -79570.145      496.14621     -79073.999      188.42886      189.7759       401.92966    
     63200  -79546.186      499.11237     -79047.074      188.41531      189.75389      402.08243    
     63300  -79510.808      490.76753     -79020.041      188.40136      189.73313      402.2352     
     63400  -79481.348      490.6012      -78990.747      188.38654      189.71267      402.38797    
     63500  -79456.177      494.88117     -78961.296      188.36774      189.68839      402.54073    
     63600  -79423.822      492.98246     -78930.84       188.34826      189.66417      402.6935     
     63700  -79396.9        496.2653      -78900.635      188.33319      189.64579      402.84627    
     63800  -79370.22       494.37139     -78875.848      188.3169       189.62824      402.99903    
     63900  -79334.751      492.92658     -78841.825      188.29752      189.6096       403.1518     
     64000  -79302.221      499.08382     -78803.138      188.2772       189.59082      403.30457    
     64100  -79266.674      500.61078     -78766.063      188.25774      189.56974      403.45733    
     64200  -79227.839      488.28307     -78739.556      188.23847      189.5467       403.6101     
     64300  -79208.103      497.46564     -78710.637      188.22204      189.52827      403.76287    
     64400  -79176.389      496.76812     -78679.621      188.20636      189.5116       403.91563    
     64500  -79141.163      492.72987     -78648.433      188.18636      189.49152      404.0684     
     64600  -79108.767      491.91668     -78616.85       188.16556      189.47074      404.22117    
     64700  -79076.663      492.68377     -78583.979      188.14565      189.45183      404.37393    
     64800  -79047.608      493.74394     -78553.864      188.12377      189.4311       404.5267     
     64900  -79019.771      490.38478     -78529.386      188.10378      189.41452      404.67947    
     65000  -78982.131      491.38213     -78490.749      188.08569      189.39958      404.83224    
     65100  -78945.867      494.40845     -78451.459      188.06415      189.38119      404.985      
     65200  -78915.124      499.7374      -78415.386      188.04236      189.36587      405.13777    
     65300  -78886.662      499.20206     -78387.46       188.02232      189.34885      405.29054    
     65400  -78847.719      492.52142     -78355.198      188.00198      189.33397      405.4433     
     65500  -78823.053      500.39009     -78322.663      187.9849       189.32005      405.59607    
     65600  -78790.483      499.30708     -78291.176      187.96568      189.30488      405.74884    
     65700  -78751.464      493.86296     -78257.601      187.94908      189.28885      405.9016     
     65800  -78715.365      493.71516     -78221.65       187.93248      189.26933      406.05437    
     65900  -78689.373      501.5131      -78187.86       187.91146      189.2462       406.20714    
     66000  -78649.421      495.63685     -78153.784      187.8955       189.22777      406.3599     
     66100  -78619.619      499.33108     -78120.288      187.87619      189.21083      406.51267    
     66200  -78582.62       497.93104     -78084.689      187.85397      189.18922      406.66544    
     66300  -78553.324      501.2189      -78052.105      187.83581      189.17234      406.8182     
     66400  -78518.29       498.78226     -78019.508      187.81665      189.15011      406.97097    
     66500  -78479.909      494.8253      -77985.083      187.79666      189.12446      407.12374    
     66600  -78450.088      499.39396     -77950.694      187.78198      189.10448      407.27651    
     66700  -78406.426      490.57018     -77915.856      187.76539      189.08334      407.42927    
     66800  -78380.832      500.15853     -77880.674      187.74491      189.061        407.58204    
     66900  -78347.8        501.58013     -77846.22       187.72867      189.04238      407.73481    
     67000  -78315.021      503.09776     -77811.923      187.71069      189.02331      407.88757    
     67100  -78271.925      495.85708     -77776.067      187.69257      189.00264      408.04034    
     67200  -78243.932      503.70465     -77740.227      187.67488      188.98529      408.19311    
     67300  -78203.201      498.4936      -77704.707      187.65871      188.97048      408.34587    
     67400  -78167.004      497.89466     -77669.109      187.64004      188.95425      408.49864    
     67500  -78132.888      499.21981     -77633.668      187.61953      188.93616      408.65141    
     67600  -78095.156      498.94671     -77596.209      187.59997      188.91875      408.80417    
     67700  -78058.051      496.81629     -77561.235      187.57966      188.90352      408.95694    
     67800  -78024.301      500.2027      -77524.098      187.56004      188.88831      409.10971    
     67900  -77985.238      496.42074     -77488.817      187.54049      188.87576      409.26247    
     68000  -77950.327      499.14544     -77451.182      187.52064      188.86062      409.41524    
     68100  -77909.072      494.10684     -77414.965      187.4984       188.84264      409.56801    
     68200  -77879.415      501.0978      -77378.317      187.47639      188.82623      409.72078    
     68300  -77841.542      500.21124     -77341.331      187.45698      188.80845      409.87354    
     68400  -77802.279      498.60591     -77303.673      187.43851      188.79192      410.02631    
     68500  -77766.911      500.4713      -77266.439      187.41986      188.77313      410.17908    
     68600  -77728.406      499.62946     -77228.777      187.4009       188.75515      410.33184    
     68700  -77689.32       499.06055     -77190.26       187.38363      188.73653      410.48461    
     68800  -77649.999      497.97279     -77152.026      187.36237      188.71509      410.63738    
     68900  -77616.12       500.99753     -77115.122      187.34502      188.69628      410.79014    
     69000  -77576.204      497.46065     -77078.743      187.33027      188.67887      410.94291    
     69100  -77542.399      501.32674     -77041.072      187.31035      188.65718      411.09568    
     69200  -77498.925      497.31455     -77001.611      187.29397      188.63662      411.24844    
     69300  -77461.218      498.46006     -76962.758      187.27646      188.61674      411.40121    
     69400  -77420.842      496.59357     -76924.248      187.25775      188.59549      411.55398    
     69500  -77381.471      497.09497     -76884.376      187.24234      188.57821      411.70674    
     69600  -77343.671      499.70562     -76843.965      187.22784      188.56337      411.85951    
     69700  -77304.263      499.07127     -76805.192      187.21036      188.54557      412.01228    
     69800  -77267.358      501.29658     -76766.061      187.19345      188.52822      412.16505    
     69900  -77233.358      506.93075     -76726.427      187.1779       188.51363      412.31781    
     70000  -77187.112      499.10489     -76688.007      187.15979      188.49748      412.47058    
     70100  -77148.337      501.42656     -76646.911      187.14182      188.47961      412.62335    
     70200  -77107.139      501.99094     -76605.148      187.12558      188.46138      412.77611    
     70300  -77070.672      506.34014     -76564.332      187.10719      188.44127      412.92888    
     70400  -77024.446      499.60588     -76524.84       187.08917      188.42162      413.08165    
     70500  -76984.877      501.38152     -76483.495      187.07068      188.40406      413.23441    
     70600  -76946.667      501.50447     -76445.162      187.04899      188.38502      413.38718    
     70700  -76909.878      505.05865     -76404.819      187.02898      188.36762      413.53995    
     70800  -76861.353      497.68663     -76363.667      187.00869      188.35101      413.69271    
     70900  -76824.735      502.49483     -76322.24       186.98867      188.33382      413.84548    
     71000  -76780.88       500.1573      -76280.723      186.97083      188.31894      413.99825    
     71100  -76747.84       507.70151     -76240.139      186.95088      188.302        414.15102    
     71200  -76698.601      502.48552     -76196.115      186.93152      188.28496      414.30378    
     71300  -76660.784      507.35145     -76153.433      186.91426      188.26998      414.45655    
     71400  -76613.174      502.72541     -76110.449      186.89493      188.25122      414.60932    
     71500  -76574.087      505.21728     -76068.87       186.87674      188.23185      414.76208    
     71600  -76531.712      505.13393     -76026.578      186.86129      188.21382      414.91485    
     71700  -76484.838      500.91765     -75983.92       186.84754      188.19378      415.06762    
     71800  -76449.29       508.23965     -75941.051      186.83295      188.17375      415.22038    
     71900  -76404.128      506.46594     -75897.662      186.81817      188.15495      415.37315    
     72000  -76364.988      513.10521     -75851.883      186.8019       188.13507      415.52592    
     72100  -76314.86       506.92901     -75807.931      186.78506      188.11586      415.67868    
     72200  -76275.721      510.9221      -75764.799      186.77038      188.09841      415.83145    
     72300  -76230.004      510.68032     -75719.323      186.75512      188.08151      415.98422    
     72400  -76192.764      515.42309     -75677.341      186.73673      188.06252      416.13698    
     72500  -76145.347      512.86814     -75632.479      186.71763      188.0453       416.28975    
     72600  -76101.806      512.99713     -75588.809      186.70034      188.02879      416.44252    
     72700  -76054.7        511.89497     -75542.805      186.68276      188.01136      416.59529    
     72800  -76009.32       512.19446     -75497.125      186.66491      187.99386      416.74805    
     72900  -75965.951      516.70441     -75449.246      186.64674      187.97567      416.90082    
     73000  -75918.081      516.23673     -75401.844      186.62607      187.9592       417.05359    
     73100  -75872.503      514.60054     -75357.902      186.60684      187.94295      417.20635    
     73200  -75829.524      516.75012     -75312.774      186.587        187.92743      417.35912    
     73300  -75780.074      513.39247     -75266.682      186.56706      187.9092       417.51189    
     73400  -75735.783      518.48408     -75217.299      186.54822      187.8897       417.66465    
     73500  -75686.44       516.41564     -75170.024      186.53078      187.87381      417.81742    
     73600  -75640.754      516.74452     -75124.009      186.51426      187.85818      417.97019    
     73700  -75591.702      517.76662     -75073.935      186.49525      187.84043      418.12295    
     73800  -75549.675      520.38412     -75029.291      186.47972      187.82164      418.27572    
     73900  -75501.291      518.61144     -74982.679      186.46469      187.80345      418.42849    
     74000  -75463.9        529.77781     -74934.122      186.4483       187.78438      418.58125    
     74100  -75407.517      521.66978     -74885.848      186.43085      187.76595      418.73402    
     74200  -75367.437      530.06442     -74837.373      186.41154      187.74794      418.88679    
     74300  -75309.506      525.11748     -74784.388      186.39266      187.72712      419.03956    
     74400  -75267.118      534.53962     -74732.578      186.37446      187.7064       419.19232    
     74500  -75217.61       534.47897     -74683.131      186.3591       187.68799      419.34509    
     74600  -75167.363      530.61015     -74636.753      186.34197      187.66927      419.49786    
     74700  -75124.766      532.91372     -74591.852      186.32519      187.65058      419.65062    
     74800  -75075.369      534.08951     -74541.28       186.30918      187.63224      419.80339    
     74900  -75021.515      528.9421      -74492.573      186.29123      187.61234      419.95616    
     75000  -74977.911      534.50249     -74443.408      186.27378      187.59403      420.10892    
     75100  -74931.422      535.74237     -74395.679      186.25571      187.57684      420.26169    
     75200  -74883.308      541.03849     -74342.27       186.23789      187.55855      420.41446    
     75300  -74832.579      537.88171     -74294.697      186.21908      187.53947      420.56722    
     75400  -74787.128      546.62237     -74240.506      186.20083      187.51983      420.71999    
     75500  -74723.56       535.97148     -74187.589      186.18229      187.50103      420.87276    
     75600  -74676.202      544.27091     -74131.931      186.16218      187.48188      421.02552    
     75700  -74633.05       557.59607     -74075.454      186.14185      187.46256      421.17829    
     75800  -74566.456      544.9407      -74021.515      186.12135      187.4448       421.33106    
     75900  -74558.372      587.48034     -73970.892      186.10233      187.42703      421.48383    
     76000  -74731.504      782.55069     -73948.953      186.08411      187.4109       421.63659    
     76100  -75246.038      1173.0328     -74073.005      186.0685       187.40128      421.78936    
     76200  -76092.592      1622.3622     -74470.229      186.05589      187.39344      421.94213    
     76300  -77325.967      2047.6641     -75278.303      186.04393      187.38344      422.09489    
     76400  -78969.124      2326.87       -76642.254      186.05016      187.38472      422.24766    
     76500  -80529.247      2257.3507     -78271.896      186.08669      187.40475      422.40043    
     76600  -81863.921      2011.769      -79852.152      186.13966      187.43812      422.55319    
     76700  -82969.631      1750.2555     -81219.376      186.19457      187.47519      422.70596    
     76800  -83951.213      1558.9909     -82392.222      186.24336      187.50728      422.85873    
     76900  -84766.316      1378.3455     -83387.97       186.29285      187.54225      423.01149    
     77000  -85488.259      1246.9708     -84241.289      186.34802      187.58374      423.16426    
     77100  -86143.897      1152.0987     -84991.798      186.39811      187.6201       423.31703    
     77200  -86744.921      1079.0204     -85665.901      186.44615      187.65294      423.46979    
     77300  -87299.574      1018.0859     -86281.488      186.4967       187.68979      423.62256    
     77400  -87814.728      967.67604     -86847.052      186.54509      187.72865      423.77533    
     77500  -88297.897      925.58823     -87372.309      186.59387      187.76907      423.9281     
     77600  -88752.462      889.7403      -87862.722      186.64302      187.81113      424.08086    
     77700  -89188.445      862.35615     -88326.089      186.69135      187.85241      424.23363    
     77800  -89606.65       838.96013     -88767.689      186.73837      187.89291      424.3864     
     77900  -90010.133      819.80792     -89190.325      186.78453      187.93382      424.53916    
     78000  -90394.324      796.28187     -89598.042      186.82917      187.97385      424.69193    
     78100  -90714.368      743.35754     -89971.011      186.87405      188.01466      424.8447     
     78200  -90984.188      689.05824     -90295.13       186.92156      188.05596      424.99746    
     78300  -91210.5        639.31149     -90571.189      186.96979      188.09687      425.15023    
     78400  -91396.501      593.58855     -90802.912      187.02016      188.13746      425.303      
     78500  -91546.402      553.81996     -90992.582      187.07463      188.17978      425.45576    
     78600  -91659.625      516.92298     -91142.702      187.13076      188.22325      425.60853    
     78700  -91737.504      486.89079     -91250.613      187.18835      188.26833      425.7613     
     78800  -91774.035      462.83613     -91311.199      187.24832      188.31723      425.91406    
     78900  -91772.027      460.43114     -91311.596      187.31004      188.36667      426.06683    
     79000  -91736.559      481.42142     -91255.138      187.36748      188.41161      426.2196     
     79100  -91665.264      483.47913     -91181.785      187.42131      188.45231      426.37237    
     79200  -91554.088      451.13034     -91102.958      187.47112      188.4882       426.52513    
     79300  -91421.407      424.31771     -90997.089      187.51393      188.5163       426.6779     
     79400  -91339.172      466.81299     -90872.359      187.54475      188.53309      426.83067    
     79500  -91298.938      535.81208     -90763.126      187.55967      188.5347       426.98343    
     79600  -91257.208      524.33795     -90732.87       187.55873      188.52412      427.1362     
     79700  -91226.887      470.8424      -90756.045      187.56857      188.52905      427.28897    
     79800  -91179.715      446.9014      -90732.813      187.60382      188.56466      427.44173    
     79900  -91138.619      494.52857     -90644.09       187.64773      188.61493      427.5945     
     80000  -91095.682      522.05295     -90573.629      187.68331      188.66936      427.74727    
     80100  -91078.441      517.54675     -90560.894      187.70962      188.7146       427.90003    
     80200  -91079.74       486.75077     -90592.989      187.74634      188.75816      428.0528     
     80300  -91086.486      474.71814     -90611.768      187.78495      188.79739      428.20557    
     80400  -91084.506      488.63546     -90595.871      187.82908      188.83659      428.35833    
     80500  -91075.788      507.63119     -90568.157      187.88093      188.87047      428.5111     
     80600  -91087.994      516.39049     -90571.604      187.93521      188.8983       428.66387    
     80700  -91095.397      483.2641      -90612.133      187.98429      188.91595      428.81664    
     80800  -91121.708      481.68616     -90640.022      188.01599      188.92599      428.9694     
     80900  -91129.15       491.49745     -90637.652      188.05404      188.94903      429.12217    
     81000  -91136.476      508.94959     -90627.527      188.10467      188.98146      429.27494    
     81100  -91161.991      517.28997     -90644.701      188.16421      189.01393      429.4277     
     81200  -91190.721      492.40006     -90698.321      188.21536      189.03835      429.58047    
     81300  -91213.746      468.86404     -90744.882      188.27147      189.06657      429.73324    
     81400  -91221.982      474.75031     -90747.232      188.33069      189.08815      429.886      
     81500  -91218.632      499.07976     -90719.553      188.38464      189.10839      430.03877    
     81600  -91223.029      519.84763     -90703.181      188.43513      189.13709      430.19154    
     81700  -91251.923      515.78464     -90736.138      188.48711      189.1733       430.3443     
     81800  -91279.506      483.16081     -90796.345      188.54394      189.20958      430.49707    
     81900  -91302.36       472.85449     -90829.506      188.59551      189.24589      430.64984    
     82000  -91297.43       476.93768     -90820.492      188.63394      189.27514      430.80261    
     82100  -91280.509      500.90467     -90779.604      188.67417      189.30232      430.95537    
     82200  -91288.968      533.91306     -90755.055      188.71308      189.32737      431.10814    
     82300  -91298.061      505.87553     -90792.186      188.75572      189.35338      431.26091    
     82400  -91320.943      475.42968     -90845.513      188.78999      189.38556      431.41367    
     82500  -91327.67       468.32028     -90859.349      188.81978      189.41083      431.56644    
     82600  -91309.546      486.02146     -90823.525      188.85617      189.44137      431.71921    
     82700  -91302.029      525.30479     -90776.724      188.88739      189.47249      431.87197    
     82800  -91303.642      521.77119     -90781.871      188.90828      189.50412      432.02474    
     82900  -91326.056      491.43903     -90834.617      188.92523      189.53211      432.17751    
     83000  -91351.255      473.57173     -90877.684      188.95408      189.56188      432.33027    
     83100  -91361.273      476.64949     -90884.623      188.99678      189.59924      432.48304    
     83200  -91360.635      497.66987     -90862.965      189.03003      189.63086      432.63581    
     83300  -91375.049      519.32768     -90855.721      189.05197      189.65164      432.78857    
     83400  -91375.96       486.21636     -90889.743      189.06786      189.66708      432.94134    
     83500  -91376.759      467.51277     -90909.246      189.08705      189.68424      433.09411    
     83600  -91372.006      488.3471      -90883.659      189.12235      189.70342      433.24688    
     83700  -91356.814      511.53142     -90845.282      189.16172      189.71778      433.39964    
     83800  -91347.434      511.02784     -90836.406      189.19828      189.7262       433.55241    
     83900  -91352.285      494.81553     -90857.469      189.23716      189.73622      433.70518    
     84000  -91359.567      481.4938      -90878.074      189.27832      189.74629      433.85794    
     84100  -91358.166      484.56858     -90873.597      189.32389      189.75201      434.01071    
     84200  -91354.418      505.71967     -90848.699      189.36893      189.75822      434.16348    
     84300  -91347.208      511.15064     -90836.057      189.41522      189.76782      434.31624    
     84400  -91341.951      491.77689     -90850.174      189.45182      189.77778      434.46901    
     84500  -91352.935      489.95668     -90862.978      189.48777      189.78658      434.62178    
     84600  -91364.701      494.59659     -90870.104      189.53053      189.79394      434.77454    
     84700  -91362.53       487.80199     -90874.728      189.57419      189.7982       434.92731    
     84800  -91370.256      498.7359      -90871.52       189.61532      189.8043       435.08008    
     84900  -91369.229      499.68446     -90869.544      189.65771      189.81024      435.23284    
     85000  -91367.239      491.47599     -90875.763      189.69702      189.81386      435.38561    
     85100  -91361.531      485.20637     -90876.325      189.73968      189.83316      435.53838    
     85200  -91354.962      494.54583     -90860.417      189.77165      189.85068      435.69115    
     85300  -91345.301      502.66009     -90842.641      189.80337      189.87259      435.84391    
     85400  -91339.332      502.28825     -90837.044      189.83562      189.90122      435.99668    
     85500  -91339.056      492.51354     -90846.542      189.85206      189.91958      436.14945    
     85600  -91336.267      486.1202      -90850.147      189.86959      189.94224      436.30221    
     85700  -91328.102      491.44633     -90836.655      189.88749      189.9737       436.45498    
     85800  -91320.936      501.249       -90819.687      189.89558      189.99588      436.60775    
     85900  -91316.801      501.93083     -90814.87       189.90054      190.01626      436.76051    
     86000  -91320.237      498.30619     -90821.93       189.90367      190.03272      436.91328    
     86100  -91330.715      495.07334     -90835.642      189.90515      190.04824      437.06605    
     86200  -91336.611      491.29748     -90845.313      189.90959      190.0667       437.21881    
     86300  -91338.725      492.16302     -90846.562      189.91811      190.08879      437.37158    
     86400  -91342.265      495.35962     -90846.906      189.93057      190.11384      437.52435    
     86500  -91345.242      498.94941     -90846.292      189.94249      190.13209      437.67711    
     86600  -91351.061      500.40687     -90850.654      189.95794      190.15698      437.82988    
     86700  -91354.928      495.22754     -90859.7        189.97147      190.17994      437.98265    
     86800  -91356.944      490.92452     -90866.019      189.97899      190.19679      438.13542    
     86900  -91354.337      490.05553     -90864.281      189.996        190.22085      438.28818    
     87000  -91350.767      497.90351     -90852.863      190.01485      190.24365      438.44095    
     87100  -91349.019      502.52874     -90846.49       190.03398      190.26806      438.59372    
     87200  -91347.542      495.55348     -90851.988      190.05126      190.29244      438.74648    
     87300  -91358.295      493.42017     -90864.874      190.06796      190.31839      438.89925    
     87400  -91358.662      486.76252     -90871.9        190.08315      190.34231      439.05202    
     87500  -91348.197      484.98571     -90863.211      190.09721      190.37238      439.20478    
     87600  -91343.576      498.15081     -90845.425      190.11105      190.40678      439.35755    
     87700  -91340.583      506.95658     -90833.627      190.12007      190.4359       439.51032    
     87800  -91342.862      501.40194     -90841.46       190.12284      190.46036      439.66308    
     87900  -91351.62       490.68488     -90860.935      190.12428      190.48213      439.81585    
     88000  -91353.375      486.22458     -90867.15       190.1307       190.51073      439.96862    
     88100  -91347.314      493.57858     -90853.735      190.13765      190.53832      440.12138    
     88200  -91338.598      501.83289     -90836.765      190.14645      190.56508      440.27415    
     88300  -91341.072      505.89897     -90835.173      190.16018      190.59338      440.42692    
     88400  -91346.536      495.05393     -90851.482      190.17293      190.61611      440.57969    
     88500  -91353.518      486.50819     -90867.01       190.18413      190.63611      440.73245    
     88600  -91348.631      483.3915      -90865.24       190.19705      190.66255      440.88522    
     88700  -91339.844      494.7729      -90845.071      190.21082      190.68695      441.03799    
     88800  -91334.52       508.61588     -90825.904      190.22286      190.70802      441.19075    
     88900  -91326.768      499.59796     -90827.17       190.23834      190.73019      441.34352    
     89000  -91336.816      490.09857     -90846.717      190.2553       190.74818      441.49629    
     89100  -91350.387      487.02587     -90863.361      190.27149      190.76342      441.64905    
     89200  -91344.687      486.08668     -90858.6        190.29427      190.77774      441.80182    
     89300  -91339.304      502.11536     -90837.189      190.32133      190.79371      441.95459    
     89400  -91339.369      512.59854     -90826.77       190.34644      190.81073      442.10735    
     89500  -91343.777      500.40424     -90843.373      190.37401      190.82744      442.26012    
     89600  -91358.097      489.88072     -90868.216      190.39357      190.8365       442.41289    
     89700  -91358.004      482.07204     -90875.932      190.41479      190.84399      442.56565    
     89800  -91343.328      486.53359     -90856.795      190.44215      190.85638      442.71842    
     89900  -91330.118      504.86367     -90825.255      190.47064      190.86673      442.87119    
     90000  -91315.753      506.52932     -90809.223      190.49779      190.87713      443.02396    
     90100  -91330.31       503.68573     -90826.625      190.52958      190.8885       443.17672    
     90200  -91345.703      487.2588      -90858.444      190.56736      190.90056      443.32949    
     90300  -91354.339      481.86261     -90872.477      190.60286      190.90638      443.48226    
     90400  -91338.002      483.35848     -90854.644      190.63723      190.90811      443.63502    
     90500  -91329.018      504.89391     -90824.124      190.67483      190.91107      443.78779    
     90600  -91331.078      515.30537     -90815.773      190.71754      190.92142      443.94056    
     90700  -91341.505      499.32024     -90842.185      190.76527      190.93313      444.09332    
     90800  -91356.277      482.45363     -90873.824      190.80669      190.9352       444.24609    
     90900  -91361.954      480.47676     -90881.477      190.84766      190.93697      444.39886    
     91000  -91359.297      493.9835      -90865.314      190.88418      190.93649      444.55162    
     91100  -91347.206      501.85442     -90845.352      190.91558      190.93806      444.70439    
     91200  -91344.259      503.81145     -90840.447      190.94754      190.94655      444.85716    
     91300  -91348.488      495.08848     -90853.399      190.9819       190.95251      445.00993    
     91400  -91359.373      488.8449      -90870.528      191.02078      190.9647       445.16269    
     91500  -91354.691      481.67022     -90873.021      191.05712      190.97531      445.31546    
     91600  -91347.939      492.33669     -90855.602      191.08378      190.98206      445.46823    
     91700  -91342.324      506.46101     -90835.863      191.11164      190.99633      445.62099    
     91800  -91329.922      501.60061     -90828.321      191.13923      191.01413      445.77376    
     91900  -91331.939      492.57078     -90839.368      191.16341      191.02947      445.92653    
     92000  -91338.956      486.73205     -90852.224      191.18943      191.04476      446.07929    
     92100  -91342.497      491.19676     -90851.3        191.21883      191.05879      446.23206    
     92200  -91335.28       495.31134     -90839.969      191.24829      191.06925      446.38483    
     92300  -91330.323      499.9278      -90830.395      191.27785      191.076        446.53759    
     92400  -91331.638      498.25091     -90833.387      191.30656      191.08552      446.69036    
     92500  -91339.567      494.30223     -90845.265      191.33281      191.09661      446.84313    
     92600  -91351.918      493.56562     -90858.352      191.36209      191.1113       446.99589    
     92700  -91356.807      493.2959      -90863.511      191.39238      191.1269       447.14866    
     92800  -91344.279      489.22588     -90855.053      191.41863      191.13712      447.30143    
     92900  -91339.685      500.38341     -90839.302      191.44599      191.1525       447.4542     
     93000  -91338.1        503.1861      -90834.914      191.47992      191.17143      447.60696    
     93100  -91337.093      491.53547     -90845.558      191.50683      191.18381      447.75973    
     93200  -91344.839      484.77321     -90860.066      191.52832      191.19226      447.9125     
     93300  -91344.363      483.8489      -90860.514      191.55492      191.2032       448.06526    
     93400  -91342.407      498.2593      -90844.148      191.58141      191.21546      448.21803    
     93500  -91331.87       504.19495     -90827.675      191.60416      191.22758      448.3708     
     93600  -91333.258      505.86424     -90827.394      191.6286       191.2421       448.52356    
     93700  -91340.693      497.25836     -90843.435      191.65629      191.25347      448.67633    
     93800  -91345.521      488.0978      -90857.424      191.68103      191.261        448.8291     
     93900  -91342.713      484.98305     -90857.729      191.70668      191.27046      448.98186    
     94000  -91342.035      497.17467     -90844.86       191.73315      191.28066      449.13463    
     94100  -91332.072      500.91859     -90831.154      191.75887      191.29542      449.2874     
     94200  -91332.877      502.83928     -90830.038      191.78687      191.30912      449.44016    
     94300  -91335.351      495.84042     -90839.511      191.8118       191.32344      449.59293    
     94400  -91340.695      490.25117     -90850.444      191.83582      191.33653      449.7457     
     94500  -91343.775      491.1568      -90852.618      191.85722      191.34888      449.89847    
     94600  -91336.945      494.78189     -90842.163      191.87346      191.36015      450.05123    
     94700  -91327.932      499.64894     -90828.283      191.88888      191.37132      450.204      
     94800  -91326.885      504.16929     -90822.716      191.90709      191.38443      450.35677    
     94900  -91328.393      498.00171     -90830.392      191.92621      191.40025      450.50953    
     95000  -91335.9        492.69852     -90843.202      191.94149      191.41301      450.6623     
     95100  -91340.186      489.94692     -90850.239      191.95745      191.42852      450.81507    
     95200  -91340.423      493.44943     -90846.974      191.97177      191.44232      450.96783    
     95300  -91331.168      493.91861     -90837.25       191.9792       191.45221      451.1206     
     95400  -91328.014      499.6197      -90828.394      191.98986      191.46736      451.27337    
     95500  -91325.487      497.36228     -90828.125      192.00253      191.4848       451.42613    
     95600  -91336.971      498.623       -90838.348      192.01437      191.49811      451.5789     
     95700  -91332.872      484.5859      -90848.286      192.02912      191.51264      451.73167    
     95800  -91339.791      491.06918     -90848.722      192.04682      191.5269       451.88443    
     95900  -91331.593      491.46996     -90840.123      192.06224      191.53817      452.0372     
     96000  -91334.145      499.96758     -90834.177      192.08126      191.55435      452.18997    
     96100  -91334.527      498.37953     -90836.148      192.0997       191.56854      452.34274    
     96200  -91335.428      493.56391     -90841.864      192.1155       191.57974      452.4955     
     96300  -91333.983      488.84704     -90845.136      192.13576      191.59573      452.64827    
     96400  -91335.753      494.20549     -90841.547      192.15649      191.61332      452.80104    
     96500  -91334.373      496.52238     -90837.85       192.1752       191.62619      452.9538     
     96600  -91332.276      494.08382     -90838.192      192.19367      191.63703      453.10657    
     96700  -91331.694      491.50576     -90840.188      192.20999      191.64725      453.25934    
     96800  -91335.509      493.82727     -90841.682      192.2268       191.65418      453.4121     
     96900  -91332.185      489.82225     -90842.363      192.24801      191.66349      453.56487    
     97000  -91338.914      496.66613     -90842.247      192.26709      191.6676       453.71764    
     97100  -91337.584      494.8071      -90842.777      192.28468      191.67183      453.8704     
     97200  -91334.207      491.31989     -90842.887      192.30827      191.6805       454.02317    
     97300  -91340.174      500.51616     -90839.658      192.32753      191.68562      454.17594    
     97400  -91338.481      498.73051     -90839.751      192.34982      191.69121      454.3287     
     97500  -91337.477      493.33017     -90844.146      192.37724      191.69936      454.48147    
     97600  -91343.286      495.0144      -90848.271      192.40106      191.70049      454.63424    
     97700  -91337.729      491.28857     -90846.441      192.42368      191.70201      454.78701    
     97800  -91339.015      499.3258      -90839.689      192.44842      191.70265      454.93977    
     97900  -91331.362      493.78828     -90837.574      192.46714      191.70172      455.09254    
     98000  -91332.88       492.81198     -90840.068      192.48303      191.70181      455.24531    
     98100  -91337.431      494.70663     -90842.725      192.50406      191.70786      455.39807    
     98200  -91332.29       490.7053      -90841.585      192.52719      191.71586      455.55084    
     98300  -91333.665      496.10913     -90837.556      192.54442      191.72099      455.70361    
     98400  -91334.138      498.71        -90835.428      192.56547      191.72803      455.85637    
     98500  -91336.258      496.59525     -90839.663      192.59131      191.73821      456.00914    
     98600  -91338.738      492.30672     -90846.431      192.61182      191.74574      456.16191    
     98700  -91341.592      491.52495     -90850.067      192.62967      191.75218      456.31467    
     98800  -91338.432      490.53226     -90847.899      192.64827      191.76004      456.46744    
     98900  -91336.061      493.24885     -90842.812      192.6674       191.76779      456.62021    
     99000  -91331.035      494.03586     -90836.999      192.68339      191.77429      456.77297    
     99100  -91331.996      494.40156     -90837.594      192.70035      191.782        456.92574    
     99200  -91338.394      494.787       -90843.607      192.71631      191.78957      457.07851    
     99300  -91343.202      494.21488     -90848.987      192.7355       191.79956      457.23128    
     99400  -91342.095      493.87078     -90848.224      192.754        191.81034      457.38404    
     99500  -91335.184      492.57283     -90842.611      192.77119      191.81966      457.53681    
     99600  -91335.45       498.96399     -90836.486      192.79014      191.82924      457.68958    
     99700  -91339.264      500.96811     -90838.295      192.80941      191.83796      457.84234    
     99800  -91340.024      494.96014     -90845.064      192.82722      191.84294      457.99511    
     99900  -91340.473      488.72345     -90851.75       192.84895      191.84904      458.14788    
    100000  -91341.501      490.64162     -90850.86       192.87107      191.85672      458.30064    
Loop time of 3019.38 on 10 procs for 100000 steps with 12768 atoms

Performance: 2.862 ns/day, 8.387 hours/ns, 33.119 timesteps/s, 422.868 katom-step/s
93.5% CPU use with 10 MPI tasks x 1 OpenMP threads

MPI task timing breakdown:
Section |  min time  |  avg time  |  max time  |%varavg| %total
---------------------------------------------------------------
Pair    | 1879.5     | 2268.7     | 2716.6     | 577.1 | 75.14
Neigh   | 12.281     | 18.038     | 24.611     | 103.9 |  0.60
Comm    | 67.678     | 592.67     | 979.12     |1224.6 | 19.63
Output  | 0.78361    | 0.82832    | 0.8778     |   3.2 |  0.03
Modify  | 97.42      | 136.53     | 208.39     | 331.9 |  4.52
Other   |            | 2.654      |            |       |  0.09

Nlocal:         1276.8 ave        2512 max         379 min
Histogram: 2 1 1 2 0 0 1 2 0 1
Nghost:           1723 ave        2533 max         640 min
Histogram: 2 1 1 0 0 0 0 2 0 4
Neighs:              0 ave           0 max           0 min
Histogram: 10 0 0 0 0 0 0 0 0 0

Total # of neighbors = 0
Ave neighs/atom = 0
Neighbor list builds = 752
Dangerous builds = 0
Total wall time: 0:50:19
