LAMMPS (2 Aug 2023 - Update 3)
OMP_NUM_THREADS environment is not set. Defaulting to 1 thread. (src/comm.cpp:98)
  using 1 OpenMP thread(s) per MPI task

# 1------general---------------
units                             metal      #单位为lammps 中的metel 类型
dimension                    3          #模拟的维度 三维
boundary                    p p p      #周期边界条件
atom_style                  atomic   #原子类型自动
atom_modify              map array sort 100 2.0
neighbor                    3.0 bin
neigh_modify            every 1 delay 0 check yes
#2 -----global variable-------定义全局变量，方便统一修改；
variable temperature equal 300
variable tstep equal 0.001
variable pressure equal 0
variable thermalstep equal 100
variable dumpstep equal 1000
variable relaxtime equal 0
variable totaltime equal 100000
variable deformrate equal 5e-3
#3 -------model------------
#box tilt large
read_data     1.lmp
Reading data file ...
  orthogonal box = (-100 -100 -2.1416495) to (100 100 39.081159)
  4 by 3 by 1 MPI processor grid
  reading atoms ...
  1620 atoms
  read_data CPU = 0.708 seconds
group SR type 2 3
600 atoms in group SR
delete_atoms group SR
Deleted 600 atoms, new total = 1020
replicate 1 1 9
Replication is creating a 1x1x9 = 9 times larger system...
  orthogonal box = (-100 -100 -2.1416495) to (100 100 368.86363)
  2 by 2 by 3 MPI processor grid
  9180 atoms
  replicate CPU = 0.696 seconds
write_data h.data
System init for write_data ...
WARNING: Communication cutoff is 0.0. No ghost atoms will be generated. Atoms may get lost. (src/comm_brick.cpp:210)
pair_style hybrid airebo 3.0 airebo 3.0 airebo 3.0 lj/cut 10
pair_coeff * * airebo 1 CH.airebo C NULL NULL
Reading airebo potential file CH.airebo with DATE: 2011-10-25
pair_coeff * * airebo 2 CH.airebo NULL C NULL
Reading airebo potential file CH.airebo with DATE: 2011-10-25
pair_coeff * * airebo 3 CH.airebo NULL NULL C
Reading airebo potential file CH.airebo with DATE: 2011-10-25
pair_coeff 1 2 lj/cut 0.00456 3.431
pair_coeff 1 3 lj/cut 0.00456 3.431
pair_coeff 2 3 lj/cut 0.00456 3.431

# 5------minimize -----------
min_style      sd
minimize       1.0e-4 1.0e-6 100 1000
Neighbor list info ...
  update: every = 1 steps, delay = 0 steps, check = yes
  max neighbors/atom: 2000, page size: 100000
  master list distance cutoff = 13.2
  ghost atom cutoff = 13.2
  binsize = 6.6, bins = 31 31 57
  6 neighbor lists, perpetual/occasional/extra = 6 0 0
  (1) pair airebo, perpetual, skip from (5)
      attributes: full, newton on, ghost
      pair build: skip/ghost
      stencil: none
      bin: none
  (2) pair airebo, perpetual, skip from (5)
      attributes: full, newton on, ghost
      pair build: skip/ghost
      stencil: none
      bin: none
  (3) pair airebo, perpetual, skip from (5)
      attributes: full, newton on, ghost
      pair build: skip/ghost
      stencil: none
      bin: none
  (4) pair lj/cut, perpetual, skip from (6)
      attributes: half, newton on, cut 13
      pair build: skip
      stencil: none
      bin: none
  (5) neighbor class addition, perpetual
      attributes: full, newton on, ghost
      pair build: full/bin/ghost
      stencil: full/ghost/bin/3d
      bin: standard
  (6) neighbor class addition, perpetual
      attributes: half, newton on, cut 13
      pair build: half/bin/atomonly/newton
      stencil: half/bin/3d
      bin: standard
Per MPI rank memory allocation (min/avg/max) = 11.72 | 11.72 | 11.72 Mbytes
   Step          Temp          E_pair         E_mol          TotEng         Press     
         0   0             -68063.613      0             -68063.613     -58.353665    
         1   0             -68063.689      0             -68063.689     -58.244675    
Loop time of 1.041 on 12 procs for 1 steps with 9180 atoms

35.4% CPU use with 12 MPI tasks x 1 OpenMP threads

Minimization stats:
  Stopping criterion = energy tolerance
  Energy initial, next-to-last, final = 
     -68063.6126408727  -68063.6126408727  -68063.6894039066
  Force two-norm initial, final = 4.4290289 0.86435473
  Force max component initial, final = 0.046231127 0.0090219153
  Final line search alpha, max atom move = 1 0.0090219153
  Iterations, force evaluations = 1 2

MPI task timing breakdown:
Section |  min time  |  avg time  |  max time  |%varavg| %total
---------------------------------------------------------------
Pair    | 0.05011    | 0.069356   | 0.098937   |   5.0 |  6.66
Neigh   | 0          | 0          | 0          |   0.0 |  0.00
Comm    | 0.24083    | 0.28489    | 0.36588    |   7.0 | 27.37
Output  | 0          | 0          | 0          |   0.0 |  0.00
Modify  | 0          | 0          | 0          |   0.0 |  0.00
Other   |            | 0.6868     |            |       | 65.97

Nlocal:            765 ave         816 max         714 min
Histogram: 3 0 0 0 0 6 0 0 0 3
Nghost:           2955 ave        3006 max        2904 min
Histogram: 3 0 0 0 0 6 0 0 0 3
Neighs:              0 ave           0 max           0 min
Histogram: 12 0 0 0 0 0 0 0 0 0

Total # of neighbors = 0
Ave neighs/atom = 0
Neighbor list builds = 0
Dangerous builds = 0
#6----define computes------
variable nums equal count(all) #计算原子数目
variable toval equal 20.535*20.0413*lz #计算系统总体积，单层石墨烯厚度为0.335nm
variable vol equal ${toval} #体系的初始体积
variable vol equal 152686.516815992 
variable vatom equal v_vol/v_nums #单个原子体积
compute 1 all stress/atom NULL #计算体系中单原子应力
compute xalls all reduce sum c_1[1]
variable xstress equal (c_xalls)/(v_toval*10000)
compute yalls all reduce sum c_1[2]
variable ystress equal (c_yalls)/(v_toval*10000)
compute zalls all reduce sum c_1[3]
variable zstress equal (c_zalls)/(v_toval*10000)
#7---------relaxation-------------------------
timestep ${tstep}
timestep 0.001
velocity all create ${temperature} 231743 units box dist gaussian
velocity all create 300 231743 units box dist gaussian
dump   1 all atom 100 all-cy.lammpstrj
#fix    1 all npt temp 300 300  0.1 aniso 0 0 10 drag 1  #三个方向独立控压
fix  1 all npt temp ${temperature} ${temperature} 0.1 x ${pressure} ${pressure} 10 y ${pressure} ${pressure} 10
fix  1 all npt temp 300 ${temperature} 0.1 x ${pressure} ${pressure} 10 y ${pressure} ${pressure} 10
fix  1 all npt temp 300 300 0.1 x ${pressure} ${pressure} 10 y ${pressure} ${pressure} 10
fix  1 all npt temp 300 300 0.1 x 0 ${pressure} 10 y ${pressure} ${pressure} 10
fix  1 all npt temp 300 300 0.1 x 0 0 10 y ${pressure} ${pressure} 10
fix  1 all npt temp 300 300 0.1 x 0 0 10 y 0 ${pressure} 10
fix  1 all npt temp 300 300 0.1 x 0 0 10 y 0 0 10
compute  2 all pe/atom
compute  pe all reduce sum c_2
variable PE equal "c_pe"
fix    pe all print 100 "${PE} " file PE.txt screen no
thermo  ${thermalstep}
thermo  100
#thermo_style  custom step pe ke etotal lx ly lz
run   ${relaxtime}
run   0
Per MPI rank memory allocation (min/avg/max) = 12.34 | 12.44 | 12.73 Mbytes
   Step          Temp          E_pair         E_mol          TotEng         Press          Volume    
         1   300           -68063.689      0             -67707.746     -32.625787      14840211     
Loop time of 0.0479994 on 12 procs for 0 steps with 9180 atoms

34.0% CPU use with 12 MPI tasks x 1 OpenMP threads

MPI task timing breakdown:
Section |  min time  |  avg time  |  max time  |%varavg| %total
---------------------------------------------------------------
Pair    | 0          | 0          | 0          |   0.0 |  0.00
Neigh   | 0          | 0          | 0          |   0.0 |  0.00
Comm    | 0          | 0          | 0          |   0.0 |  0.00
Output  | 0          | 0          | 0          |   0.0 |  0.00
Modify  | 0          | 0          | 0          |   0.0 |  0.00
Other   |            | 0.048      |            |       |100.00

Nlocal:            765 ave         816 max         714 min
Histogram: 6 0 0 0 0 0 0 0 0 6
Nghost:           2955 ave        3006 max        2904 min
Histogram: 6 0 0 0 0 0 0 0 0 6
Neighs:              0 ave           0 max           0 min
Histogram: 12 0 0 0 0 0 0 0 0 0

Total # of neighbors = 0
Ave neighs/atom = 0
Neighbor list builds = 0
Dangerous builds = 0
#8 -------tension-----------------------------
unfix  1
undump  1
unfix  pe
reset_timestep 0
fix avestress all ave/atom 1 ${dumpstep} ${dumpstep} c_1[1] c_1[2] c_1[3] c_1[4] c_1[5] c_1[6]
fix avestress all ave/atom 1 1000 ${dumpstep} c_1[1] c_1[2] c_1[3] c_1[4] c_1[5] c_1[6]
fix avestress all ave/atom 1 1000 1000 c_1[1] c_1[2] c_1[3] c_1[4] c_1[5] c_1[6]

#-----calculation of strain and Cumulative compression--------
variable                tmp equal "lz"
variable                L0 equal ${tmp}
variable                L0 equal 371.005281
variable                strain equal "(lz - v_L0)/v_L0"
variable                Cumulativels equal "(lz - v_L0)/10"
fix Step all print 100 "${strain} ${Cumulativels} ${zstress}" file grapoten.txt screen no

dump 2 all custom ${dumpstep} tension.xyz type x y z f_avestress[1] f_avestress[2] f_avestress[3] f_avestress[4] f_avestress[5] f_avestress[6]
dump 2 all custom 1000 tension.xyz type x y z f_avestress[1] f_avestress[2] f_avestress[3] f_avestress[4] f_avestress[5] f_avestress[6]

fix  1 all npt temp ${temperature} ${temperature} 0.1 y ${pressure} ${pressure} 10 x ${pressure} ${pressure} 10
fix  1 all npt temp 300 ${temperature} 0.1 y ${pressure} ${pressure} 10 x ${pressure} ${pressure} 10
fix  1 all npt temp 300 300 0.1 y ${pressure} ${pressure} 10 x ${pressure} ${pressure} 10
fix  1 all npt temp 300 300 0.1 y 0 ${pressure} 10 x ${pressure} ${pressure} 10
fix  1 all npt temp 300 300 0.1 y 0 0 10 x ${pressure} ${pressure} 10
fix  1 all npt temp 300 300 0.1 y 0 0 10 x 0 ${pressure} 10
fix  1 all npt temp 300 300 0.1 y 0 0 10 x 0 0 10

thermo_style custom step pe ke etotal lx ly lz
fix   2 all deform 1 z erate ${deformrate} remap x units box
fix   2 all deform 1 z erate 0.005 remap x units box
fix   3 all ave/time 2 500 1000 v_xstress v_ystress v_zstress file pressure.out
run   ${totaltime}
run   100000
WARNING: Dump 2 includes no atom IDs and is not sorted by ID. This may complicate post-processing tasks or visualization (src/dump.cpp:221)
Per MPI rank memory allocation (min/avg/max) = 13.84 | 13.94 | 14.23 Mbytes
   Step         PotEng         KinEng         TotEng           Lx             Ly             Lz      
         0  -68063.689      355.94366     -67707.746      200            200            371.00528    
       100  -67855.98       174.79374     -67681.186      199.99317      199.99167      371.19078    
       200  -67860.478      216.13856     -67644.339      199.99108      199.98846      371.37629    
       300  -67828.595      228.24319     -67600.352      200.00053      199.99662      371.56179    
       400  -67810.37       258.25006     -67552.12       199.9932       199.98716      371.74729    
       500  -67782.381      280.93719     -67501.444      199.99284      199.98446      371.93279    
       600  -67759.437      308.97393     -67450.463      200.00273      199.99244      372.1183     
       700  -67734.427      331.96848     -67402.459      199.9946       199.98154      372.3038     
       800  -67710.987      349.43758     -67361.549      199.99389      199.9771       372.4893     
       900  -67697.217      363.4213      -67333.796      200.00503      199.98507      372.6748     
      1000  -67691.37       365.16867     -67326.201      199.99707      199.97286      372.86031    
      1100  -67704.406      363.22894     -67341.177      199.99567      199.96585      373.04581    
      1200  -67709.28       350.87443     -67358.406      200.00625      199.97046      373.23131    
      1300  -67707.399      346.17397     -67361.225      199.9991       199.95639      373.41682    
      1400  -67703.186      353.62196     -67349.564      200.00015      199.94994      373.60232    
      1500  -67693.643      361.01862     -67332.624      200.01147      199.95263      373.78782    
      1600  -67688.219      364.36902     -67323.85       200.00658      199.93797      373.97332    
      1700  -67692.671      363.29009     -67329.381      200.00713      199.92798      374.15883    
      1800  -67695.052      355.56034     -67339.491      200.01771      199.92789      374.34433    
      1900  -67690.877      347.04107     -67343.836      200.01595      199.91327      374.52983    
      2000  -67688.528      350.1868      -67338.341      200.01683      199.90127      374.71533    
      2100  -67682.956      358.4858      -67324.47       200.02633      199.89773      374.90084    
      2200  -67673.122      360.78314     -67312.339      200.02602      199.88302      375.08634    
      2300  -67671.214      359.26194     -67311.952      200.02815      199.87028      375.27184    
      2400  -67671.634      351.7136      -67319.92       200.03615      199.8636       375.45734    
      2500  -67680.715      355.79823     -67324.917      200.03725      199.84963      375.64285    
      2600  -67668.028      347.22888     -67320.799      200.03901      199.83544      375.82835    
      2700  -67662.045      354.20153     -67307.844      200.04611      199.82685      376.01385    
      2800  -67658.964      363.29542     -67295.668      200.0475       199.81256      376.19935    
      2900  -67657.428      364.84058     -67292.587      200.04831      199.79846      376.38486    
      3000  -67651.31       353.5264      -67297.783      200.05388      199.78851      376.57036    
      3100  -67652.653      350.51362     -67302.139      200.05421      199.7742       376.75586    
      3200  -67652.027      354.26624     -67297.761      200.05322      199.75908      376.94137    
      3300  -67642.307      355.90908     -67286.398      200.05767      199.75038      377.12687    
      3400  -67635.101      360.33287     -67274.769      200.05762      199.73686      377.31237    
      3500  -67630.114      360.13196     -67269.982      200.05559      199.72167      377.49787    
      3600  -67624.743      351.75034     -67272.993      200.05784      199.71214      377.68338    
      3700  -67627.827      351.82076     -67276.007      200.05533      199.69898      377.86888    
      3800  -67625.177      352.64119     -67272.536      200.05193      199.68451      378.05438    
      3900  -67615.758      353.20866     -67262.55       200.05331      199.67515      378.23988    
      4000  -67609.558      358.42973     -67251.129      200.04924      199.6619       378.42539    
      4100  -67605.063      361.28315     -67243.78       200.04322      199.64708      378.61089    
      4200  -67601.338      358.0994      -67243.238      200.04394      199.63789      378.79639    
      4300  -67595.006      349.22542     -67245.781      200.03999      199.62549      378.98189    
      4400  -67599.364      354.60454     -67244.759      200.03236      199.61107      379.1674     
      4500  -67589.028      352.00117     -67237.026      200.03054      199.6018       379.3529     
      4600  -67578.123      354.23819     -67223.885      200.02503      199.58921      379.5384     
      4700  -67570.25       357.33262     -67212.917      200.01632      199.5753       379.72391    
      4800  -67566.543      355.93013     -67210.613      200.01333      199.56687      379.90941    
      4900  -67568.677      355.51214     -67213.165      200.00587      199.55353      380.09491    
      5000  -67566.257      352.87467     -67213.382      199.99579      199.53798      380.28041    
      5100  -67560.494      354.31792     -67206.176      199.99163      199.5292       380.46592    
      5200  -67549.571      357.17938     -67192.391      199.9836       199.51635      380.65142    
      5300  -67539.071      358.19056     -67180.88       199.97395      199.50106      380.83692    
      5400  -67534.672      357.82154     -67176.85       199.96808      199.49086      381.02242    
      5500  -67531.546      354.0745      -67177.472      199.95846      199.47697      381.20793    
      5600  -67529.182      353.14488     -67176.037      199.94783      199.46041      381.39343    
      5700  -67523.745      354.99597     -67168.749      199.94231      199.44912      381.57893    
      5800  -67512.567      356.44719     -67156.12       199.93309      199.43515      381.76443    
      5900  -67502.455      357.50003     -67144.955      199.92168      199.41781      381.94994    
      6000  -67498.367      359.32931     -67139.037      199.91553      199.40401      382.13544    
      6100  -67494.377      356.55579     -67137.821      199.90723      199.38894      382.32094    
      6200  -67492.673      356.25252     -67136.42       199.89613      199.36996      382.50644    
      6300  -67483.531      352.92248     -67130.608      199.8895       199.35442      382.69195    
      6400  -67476.768      357.89918     -67118.869      199.88164      199.33734      382.87745    
      6500  -67463.205      357.82556     -67105.379      199.87048      199.31664      383.06295    
      6600  -67456.933      361.16002     -67095.773      199.8642       199.29958      383.24846    
      6700  -67447.769      355.17289     -67092.596      199.85725      199.2814       383.43396    
      6800  -67448.032      356.109       -67091.923      199.84578      199.25791      383.61946    
      6900  -67436.498      349.05023     -67087.448      199.83826      199.23738      383.80496    
      7000  -67436.209      359.5531      -67076.656      199.83285      199.21827      383.99047    
      7100  -67421.649      359.56185     -67062.087      199.82163      199.1927       384.17597    
      7200  -67409.33       358.16117     -67051.169      199.81427      199.17048      384.36147    
      7300  -67404.766      358.45395     -67046.312      199.80864      199.14853      384.54697    
      7400  -67397.236      352.60046     -67044.636      199.79807      199.12075      384.73248    
      7500  -67393.367      352.75734     -67040.61       199.7909       199.09599      384.91798    
      7600  -67385.345      354.61276     -67030.732      199.78533      199.0723       385.10348    
      7700  -67374.844      358.02587     -67016.818      199.77504      199.04247      385.28898    
      7800  -67367.926      363.1946      -67004.731      199.76695      199.01521      385.47449    
      7900  -67354.659      357.10031     -66997.559      199.76073      198.98986      385.65999    
      8000  -67350.989      356.82004     -66994.169      199.74999      198.95835      385.84549    
      8100  -67345.661      354.86115     -66990.8        199.74077      198.92916      386.03099    
      8200  -67336.902      354.81121     -66982.091      199.73304      198.90159      386.2165     
      8300  -67320.687      353.65032     -66967.036      199.72122      198.86949      386.402      
      8400  -67311.897      359.68929     -66952.208      199.71175      198.83993      386.5875     
      8500  -67300.906      357.67898     -66943.227      199.70256      198.81126      386.77301    
      8600  -67294.954      355.29463     -66939.659      199.68882      198.7774       386.95851    
      8700  -67288.689      352.66574     -66936.023      199.67745      198.74513      387.14401    
      8800  -67283.861      356.99253     -66926.869      199.66689      198.71531      387.32951    
      8900  -67266.769      353.69336     -66913.076      199.65236      198.68138      387.51502    
      9000  -67260.646      361.27786     -66899.368      199.63975      198.64864      387.70052    
      9100  -67248.811      359.02007     -66889.791      199.62755      198.61748      387.88602    
      9200  -67240.252      356.04302     -66884.209      199.61066      198.58272      388.07152    
      9300  -67233.962      354.32668     -66879.635      199.59544      198.54871      388.25703    
      9400  -67223.911      352.40725     -66871.504      199.58245      198.51714      388.44253    
      9500  -67213.282      354.5879      -66858.694      199.56413      198.48201      388.62803    
      9600  -67198.122      354.83745     -66843.284      199.5447       198.44669      388.81353    
      9700  -67188.35       358.66545     -66829.684      199.52921      198.41424      388.99904    
      9800  -67182.503      360.68933     -66821.813      199.51088      198.38062      389.18454    
      9900  -67171.175      353.11302     -66818.062      199.4898       198.34484      389.37004    
     10000  -67165.238      353.49732     -66811.741      199.47136      198.311        389.55555    
     10100  -67156.975      356.95162     -66800.024      199.45058      198.27524      389.74105    
     10200  -67144.276      360.16566     -66784.11       199.42854      198.23936      389.92655    
     10300  -67133.726      363.27381     -66770.453      199.40785      198.20545      390.11205    
     10400  -67117.756      356.09623     -66761.659      199.38537      198.16842      390.29756    
     10500  -67108.517      349.91706     -66758.6        199.3607       198.13009      390.48306    
     10600  -67105.346      355.05522     -66750.291      199.339        198.09558      390.66856    
     10700  -67087.308      352.026       -66735.282      199.31464      198.05785      390.85406    
     10800  -67075.431      354.95467     -66720.476      199.28917      198.01852      391.03957    
     10900  -67063.39       355.56748     -66707.823      199.2661       197.98272      391.22507    
     11000  -67050.925      354.05823     -66696.867      199.23976      197.9433       391.41057    
     11100  -67044.723      355.08052     -66689.642      199.21316      197.90245      391.59607    
     11200  -67033.819      350.27823     -66683.541      199.18952      197.86459      391.78158    
     11300  -67018.376      349.25491     -66669.121      199.16248      197.82341      391.96708    
     11400  -67006.952      355.54883     -66651.403      199.13535      197.78098      392.15258    
     11500  -66994.308      355.27273     -66639.036      199.11231      197.74188      392.33808    
     11600  -66982.73       354.30768     -66628.422      199.08459      197.69812      392.52359    
     11700  -66977.913      357.40534     -66620.508      199.05631      197.65334      392.70909    
     11800  -66962.158      346.79521     -66615.363      199.03256      197.61142      392.89459    
     11900  -66950.304      349.36095     -66600.943      199.00473      197.56494      393.0801     
     12000  -66943.739      360.5398      -66583.2        198.97635      197.51773      393.2656     
     12100  -66924.142      354.86634     -66569.275      198.95266      197.47438      393.4511     
     12200  -66914.332      358.93627     -66555.396      198.92575      197.42631      393.6366     
     12300  -66897.467      355.32046     -66542.146      198.89679      197.3759       393.82211    
     12400  -66886.116      354.51852     -66531.598      198.87228      197.32963      394.00761    
     12500  -66880.948      356.6609      -66524.287      198.84672      197.28016      394.19311    
     12600  -66871.253      356.27093     -66514.982      198.81861      197.22773      394.37861    
     12700  -66853.506      354.52116     -66498.985      198.79261      197.17813      394.56412    
     12800  -66840.148      361.40089     -66478.747      198.76778      197.12781      394.74962    
     12900  -66822.059      356.34988     -66465.709      198.73965      197.0728       394.93512    
     13000  -66814.622      358.30658     -66456.315      198.71342      197.02053      395.12062    
     13100  -66803.156      354.78626     -66448.369      198.6901       196.97078      395.30613    
     13200  -66793.44       356.963       -66436.477      198.66242      196.91469      395.49163    
     13300  -66777.173      355.73809     -66421.435      198.63571      196.85989      395.67713    
     13400  -66760.476      353.77543     -66406.701      198.61198      196.80906      395.86263    
     13500  -66748.336      357.0992      -66391.237      198.58528      196.75382      396.04814    
     13600  -66733.501      357.39514     -66376.105      198.55873      196.69807      396.23364    
     13700  -66721.579      358.19673     -66363.383      198.53498      196.64621      396.41914    
     13800  -66711.753      357.39143     -66354.361      198.50738      196.5907       396.60465    
     13900  -66697.915      352.8007      -66345.114      198.48056      196.53555      396.79015    
     14000  -66681.431      350.5814      -66330.849      198.45836      196.48467      396.97565    
     14100  -66668.073      359.65457     -66308.418      198.43072      196.43044      397.16115    
     14200  -66650.796      357.76233     -66293.033      198.40294      196.37558      397.34666    
     14300  -66639.791      357.33088     -66282.46       198.38002      196.32511      397.53216    
     14400  -66629.859      356.64781     -66273.211      198.35206      196.27197      397.71766    
     14500  -66614.49       354.22251     -66260.267      198.32337      196.21876      397.90316    
     14600  -66599.108      360.88378     -66238.224      198.30007      196.17056      398.08867    
     14700  -66583.754      363.9677      -66219.786      198.27267      196.12028      398.27417    
     14800  -66566.659      356.7399      -66209.919      198.24306      196.06904      398.45967    
     14900  -66555.203      353.95759     -66201.245      198.21759      196.02205      398.64517    
     15000  -66543.247      355.97813     -66187.269      198.1898       195.97383      398.83068    
     15100  -66527.357      357.70701     -66169.65       198.16035      195.92583      399.01618    
     15200  -66507.875      359.95679     -66147.919      198.13261      195.88112      399.20168    
     15300  -66487.676      356.26663     -66131.409      198.10479      195.8355       399.38718    
     15400  -66475.304      355.85936     -66119.445      198.07493      195.79024      399.57269    
     15500  -66466.465      358.1027      -66108.362      198.04662      195.74765      399.75819    
     15600  -66451.639      354.79009     -66096.848      198.01822      195.70504      399.94369    
     15700  -66435.865      352.13843     -66083.727      197.98896      195.66169      400.1292     
     15800  -66422.969      356.9087      -66066.061      197.96028      195.62166      400.3147     
     15900  -66404.033      359.52164     -66044.511      197.93159      195.5822       400.5002     
     16000  -66386.504      357.41229     -66029.091      197.90255      195.5412       400.6857     
     16100  -66377.279      357.75992     -66019.519      197.87394      195.50262      400.87121    
     16200  -66360.082      351.4738      -66008.608      197.84592      195.46631      401.05671    
     16300  -66348.728      356.5432      -65992.184      197.81683      195.4283       401.24221    
     16400  -66331.281      356.94625     -65974.335      197.78881      195.39114      401.42771    
     16500  -66313.562      357.48406     -65956.078      197.76127      195.35616      401.61322    
     16600  -66294.007      355.48959     -65938.517      197.73241      195.32043      401.79872    
     16700  -66282.225      361.35308     -65920.871      197.70671      195.28554      401.98422    
     16800  -66265.282      358.56412     -65906.718      197.68129      195.25193      402.16972    
     16900  -66252.845      356.55436     -65896.291      197.65333      195.21632      402.35523    
     17000  -66236.011      352.21839     -65883.792      197.62883      195.18302      402.54073    
     17100  -66221.162      354.12201     -65867.04       197.60665      195.15118      402.72623    
     17200  -66199.075      355.00268     -65844.073      197.58078      195.11676      402.91174    
     17300  -66184.071      358.66967     -65825.401      197.55687      195.08394      403.09724    
     17400  -66167.2        355.99573     -65811.204      197.53611      195.05217      403.28274    
     17500  -66153.903      356.06876     -65797.834      197.51317      195.0189       403.46824    
     17600  -66134.734      351.58271     -65783.151      197.49221      194.98808      403.65375    
     17700  -66119.445      352.97134     -65766.473      197.47262      194.95684      403.83925    
     17800  -66108.133      359.07904     -65749.054      197.45265      194.92436      404.02475    
     17900  -66085.115      352.76837     -65732.347      197.43503      194.89505      404.21025    
     18000  -66072.548      356.13174     -65716.417      197.41632      194.86415      404.39576    
     18100  -66056.179      356.59854     -65699.581      197.39853      194.83183      404.58126    
     18200  -66039.253      357.62178     -65681.632      197.38386      194.8037       404.76676    
     18300  -66020.368      357.46961     -65662.898      197.36703      194.77353      404.95226    
     18400  -66001.136      357.34109     -65643.795      197.35025      194.74167      405.13777    
     18500  -65984.345      357.2091      -65627.136      197.33833      194.71461      405.32327    
     18600  -65974.645      358.8516      -65615.794      197.32385      194.68555      405.50877    
     18700  -65953.993      351.40818     -65602.585      197.30796      194.6547       405.69427    
     18800  -65934.863      351.98853     -65582.875      197.29787      194.62814      405.87978    
     18900  -65917.604      359.49367     -65558.11       197.28534      194.60024      406.06528    
     19000  -65898.828      358.0179      -65540.81       197.27042      194.57034      406.25078    
     19100  -65882.728      355.79583     -65526.932      197.26057      194.54361      406.43629    
     19200  -65868.192      354.99252     -65513.2        197.24937      194.51706      406.62179    
     19300  -65852.326      355.1931      -65497.133      197.23586      194.4886       406.80729    
     19400  -65829.725      352.70934     -65477.016      197.22537      194.46274      406.99279    
     19500  -65816.046      362.89185     -65453.154      197.21528      194.4378       407.1783     
     19600  -65795.264      361.4151      -65433.849      197.20206      194.41118      407.3638     
     19700  -65778.558      358.2905      -65420.267      197.19011      194.38647      407.5493     
     19800  -65759.109      350.66455     -65408.444      197.18027      194.36297      407.7348     
     19900  -65741.293      351.49929     -65389.794      197.16759      194.33877      407.92031    
     20000  -65719.636      350.54883     -65369.087      197.15499      194.31617      408.10581    
     20100  -65706.835      357.75017     -65349.084      197.14452      194.29481      408.29131    
     20200  -65688.199      358.56783     -65329.631      197.1323       194.27301      408.47681    
     20300  -65665.385      356.05154     -65309.334      197.11794      194.25137      408.66232    
     20400  -65646.403      360.2422      -65286.161      197.10657      194.23279      408.84782    
     20500  -65628.874      360.06314     -65268.811      197.09503      194.21387      409.03332    
     20600  -65615.097      356.83147     -65258.265      197.07946      194.19307      409.21882    
     20700  -65597.463      355.45781     -65242.005      197.06588      194.17564      409.40433    
     20800  -65580.408      358.22831     -65222.18       197.05472      194.15945      409.58983    
     20900  -65558.481      359.47091     -65199.01       197.04076      194.1421       409.77533    
     21000  -65536.226      361.01564     -65175.211      197.0255       194.12589      409.96084    
     21100  -65516.872      356.68998     -65160.182      197.01302      194.1112       410.14634    
     21200  -65505.316      355.42713     -65149.889      196.99775      194.09479      410.33184    
     21300  -65484.542      353.52395     -65131.018      196.9821       194.07998      410.51734    
     21400  -65463.156      354.82781     -65108.329      196.96947      194.06839      410.70285    
     21500  -65442.565      357.42885     -65085.136      196.95399      194.05327      410.88835    
     21600  -65426.786      360.77908     -65066.007      196.93751      194.03903      411.07385    
     21700  -65408.539      352.71942     -65055.819      196.92414      194.0287       411.25935    
     21800  -65391.894      352.84391     -65039.05       196.90862      194.01484      411.44486    
     21900  -65369.454      354.39487     -65015.06       196.89184      194.00061      411.63036    
     22000  -65346.433      354.86087     -64991.572      196.87861      193.9911       411.81586    
     22100  -65328.98       357.38348     -64971.596      196.8637       193.97925      412.00136    
     22200  -65311.218      357.6001      -64953.618      196.84697      193.96445      412.18687    
     22300  -65292.545      350.49328     -64942.052      196.83326      193.95391      412.37237    
     22400  -65280.58       355.59722     -64924.982      196.81849      193.94229      412.55787    
     22500  -65249.652      348.68703     -64900.965      196.8025       193.92788      412.74338    
     22600  -65228.819      350.9127      -64877.907      196.78881      193.9166       412.92888    
     22700  -65211.5        355.47743     -64856.023      196.77566      193.90571      413.11438    
     22800  -65193.163      360.1537      -64833.009      196.75911      193.89048      413.29988    
     22900  -65167.4        358.14117     -64809.259      196.74582      193.87793      413.48539    
     23000  -65148.173      361.50522     -64786.668      196.73458      193.86786      413.67089    
     23100  -65131.937      359.60926     -64772.328      196.7195       193.85296      413.85639    
     23200  -65109.195      350.16416     -64759.031      196.70494      193.83777      414.04189    
     23300  -65094.826      354.24048     -64740.585      196.69427      193.82638      414.2274     
     23400  -65076.205      357.82138     -64718.384      196.68124      193.81193      414.4129     
     23500  -65051.479      358.9841      -64692.495      196.66692      193.79473      414.5984     
     23600  -65029.329      358.84978     -64670.479      196.65711      193.78217      414.7839     
     23700  -65016.972      360.00545     -64656.967      196.64552      193.76687      414.96941    
     23800  -64997.562      354.04959     -64643.512      196.63294      193.74897      415.15491    
     23900  -64974.136      353.44741     -64620.688      196.62371      193.73496      415.34041    
     24000  -64950.166      355.33858     -64594.827      196.61336      193.71838      415.52591    
     24100  -64931.434      359.24119     -64572.193      196.60203      193.69959      415.71142    
     24200  -64909.366      356.86531     -64552.5        196.59365      193.68382      415.89692    
     24300  -64892.102      354.87298     -64537.229      196.58538      193.66694      416.08242    
     24400  -64874.364      350.91939     -64523.445      196.57445      193.64682      416.26793    
     24500  -64851.504      352.04027     -64499.464      196.56604      193.62928      416.45343    
     24600  -64826.674      352.68742     -64473.987      196.55898      193.61257      416.63893    
     24700  -64811.183      360.81018     -64450.373      196.54916      193.5922       416.82443    
     24800  -64784.902      357.42198     -64427.48       196.5412       193.5736       417.00994    
     24900  -64761.945      357.10933     -64404.836      196.53427      193.55655      417.19544    
     25000  -64741.143      358.45206     -64382.691      196.52442      193.53581      417.38094    
     25100  -64724.003      360.24108     -64363.762      196.51621      193.51665      417.56644    
     25200  -64704.481      355.82091     -64348.66       196.50934      193.5          417.75195    
     25300  -64683.963      353.97359     -64329.989      196.49963      193.47964      417.93745    
     25400  -64658.356      353.11996     -64305.236      196.49051      193.45973      418.12295    
     25500  -64637.596      360.39633     -64277.2        196.48365      193.44363      418.30845    
     25600  -64611.595      355.29718     -64256.298      196.47263      193.4233       418.49396    
     25700  -64590.812      353.23731     -64237.575      196.46125      193.40244      418.67946    
     25800  -64573.064      353.96419     -64219.099      196.45434      193.3875       418.86496    
     25900  -64550.13       349.06097     -64201.069      196.44291      193.36955      419.05046    
     26000  -64536.528      353.46238     -64183.066      196.42947      193.34857      419.23597    
     26100  -64512.221      355.51756     -64156.703      196.42013      193.33273      419.42147    
     26200  -64485.223      355.64315     -64129.58       196.40877      193.31705      419.60697    
     26300  -64464.855      357.81205     -64107.043      196.39359      193.29697      419.79248    
     26400  -64442.274      354.22815     -64088.046      196.38162      193.28073      419.97798    
     26500  -64423.916      351.40466     -64072.511      196.36883      193.26618      420.16348    
     26600  -64407.288      353.3415      -64053.947      196.35144      193.24707      420.34898    
     26700  -64380.918      357.44758     -64023.47       196.33812      193.23164      420.53449    
     26800  -64353.485      355.23648     -63998.249      196.32578      193.21899      420.71999    
     26900  -64328.852      353.14733     -63975.705      196.30591      193.20007      420.90549    
     27000  -64310.379      354.51766     -63955.862      196.29037      193.18447      421.09099    
     27100  -64296.671      357.4357      -63939.235      196.27797      193.17343      421.2765     
     27200  -64271.709      351.19136     -63920.518      196.25806      193.15673      421.462      
     27300  -64248.418      356.12156     -63892.296      196.23935      193.13987      421.6475     
     27400  -64223.045      358.44294     -63864.602      196.22623      193.12926      421.833      
     27500  -64202.261      359.11703     -63843.144      196.20752      193.11489      422.01851    
     27600  -64180.011      354.46588     -63825.545      196.18675      193.09703      422.20401    
     27700  -64160.453      352.93754     -63807.516      196.17198      193.08592      422.38951    
     27800  -64140.855      357.54794     -63783.307      196.15401      193.0729       422.57502    
     27900  -64108.585      356.70231     -63751.883      196.13201      193.05464      422.76052    
     28000  -64085.475      355.88901     -63729.586      196.1151       193.04142      422.94602    
     28100  -64069.834      358.31643     -63711.518      196.09881      193.0303       423.13152    
     28200  -64046.448      353.20103     -63693.247      196.07701      193.01257      423.31703    
     28300  -64022.858      351.30772     -63671.55       196.05887      192.99753      423.50253    
     28400  -63996.589      356.1392      -63640.45       196.04319      192.98599      423.68803    
     28500  -63975.085      359.86598     -63615.219      196.02229      192.96879      423.87353    
     28600  -63955.71       359.6185      -63596.092      196.00207      192.95082      424.05904    
     28700  -63930.524      352.57729     -63577.947      195.98606      192.93721      424.24454    
     28800  -63909.077      353.48111     -63555.596      195.96694      192.92082      424.43004    
     28900  -63880.146      356.15019     -63523.996      195.9472       192.90183      424.61554    
     29000  -63860.728      361.78228     -63498.946      195.93076      192.88681      424.80105    
     29100  -63839.681      359.11296     -63480.568      195.91281      192.86995      424.98655    
     29200  -63816.49       353.87211     -63462.618      195.89332      192.8498       425.17205    
     29300  -63796.202      355.70444     -63440.497      195.87654      192.83206      425.35755    
     29400  -63769.901      355.27447     -63414.626      195.8599       192.81425      425.54306    
     29500  -63749.05       359.87797     -63389.172      195.84146      192.79373      425.72856    
     29600  -63718.225      351.65836     -63366.567      195.82396      192.77338      425.91406    
     29700  -63699.147      355.37883     -63343.768      195.80726      192.75326      426.09957    
     29800  -63678.054      357.32929     -63320.725      195.79054      192.73214      426.28507    
     29900  -63654.088      356.14712     -63297.941      195.77442      192.71077      426.47057    
     30000  -63632.985      355.97287     -63277.012      195.7589       192.68966      426.65607    
     30100  -63610.87       354.7904      -63256.079      195.74162      192.66606      426.84158    
     30200  -63586.7        356.45019     -63230.249      195.72579      192.64284      427.02708    
     30300  -63557.365      356.64761     -63200.717      195.71195      192.62127      427.21258    
     30400  -63536.706      360.36572     -63176.34       195.69616      192.59744      427.39808    
     30500  -63510.637      353.70868     -63156.928      195.68057      192.57234      427.58359    
     30600  -63490.86       353.66087     -63137.2        195.66592      192.54852      427.76909    
     30700  -63466.285      352.10569     -63114.18       195.65122      192.52399      427.95459    
     30800  -63442.541      353.38203     -63089.159      195.63595      192.49785      428.14009    
     30900  -63419.481      356.9         -63062.581      195.62139      192.47293      428.3256     
     31000  -63394.015      358.69042     -63035.324      195.60662      192.44785      428.5111     
     31100  -63367.513      357.69632     -63009.817      195.59105      192.42158      428.6966     
     31200  -63344.262      355.10427     -62989.157      195.57705      192.39653      428.8821     
     31300  -63323.594      350.69051     -62972.903      195.56213      192.37154      429.06761    
     31400  -63301.492      352.46263     -62949.029      195.5453       192.34418      429.25311    
     31500  -63274.586      354.59198     -62919.994      195.53081      192.31941      429.43861    
     31600  -63250.127      356.67334     -62893.454      195.51621      192.29551      429.62412    
     31700  -63230.223      360.58467     -62869.639      195.49804      192.26816      429.80962    
     31800  -63206.475      360.45567     -62846.019      195.48085      192.24238      429.99512    
     31900  -63178.369      355.65142     -62822.717      195.46561      192.21958      430.18062    
     32000  -63152.249      352.14661     -62800.102      195.44681      192.1939       430.36613    
     32100  -63128.64       352.51064     -62776.129      195.42717      192.16741      430.55163    
     32200  -63103.86       354.97458     -62748.885      195.41054      192.1454       430.73713    
     32300  -63077.527      356.4043      -62721.123      195.39195      192.12205      430.92263    
     32400  -63054.934      357.2899      -62697.644      195.36893      192.09463      431.10814    
     32500  -63034.926      354.28067     -62680.646      195.34818      192.07121      431.29364    
     32600  -63011.95       352.40403     -62659.546      195.3298       192.04992      431.47914    
     32700  -62986.858      355.53425     -62631.324      195.30662      192.0253       431.66464    
     32800  -62959.826      356.8075      -62603.019      195.28296      192.00172      431.85015    
     32900  -62936.635      358.29175     -62578.343      195.26303      191.98117      432.03565    
     33000  -62909.783      355.11955     -62554.663      195.23941      191.95866      432.22115    
     33100  -62885.277      354.52304     -62530.754      195.21357      191.93476      432.40666    
     33200  -62861.858      353.47654     -62508.381      195.19215      191.91437      432.59216    
     33300  -62841.852      357.53448     -62484.318      195.16802      191.89294      432.77766    
     33400  -62809.888      354.53054     -62455.357      195.14067      191.86945      432.96316    
     33500  -62785.373      358.11753     -62427.255      195.11747      191.84938      433.14867    
     33600  -62755.732      352.13249     -62403.599      195.09359      191.82959      433.33417    
     33700  -62742.532      355.6027      -62386.929      195.06459      191.80622      433.51967    
     33800  -62718.909      353.19456     -62365.715      195.03996      191.78626      433.70517    
     33900  -62689.03       352.27894     -62336.751      195.01656      191.76745      433.89068    
     34000  -62663.2        355.2797      -62307.92       194.98772      191.74464      434.07618    
     34100  -62639.845      357.87999     -62281.965      194.96104      191.72314      434.26168    
     34200  -62614.237      356.88922     -62257.348      194.93798      191.70483      434.44718    
     34300  -62588.857      354.75277     -62234.104      194.90995      191.68277      434.63269    
     34400  -62566.635      353.08809     -62213.547      194.88168      191.65964      434.81819    
     34500  -62543.177      353.06588     -62190.111      194.85868      191.64071      435.00369    
     34600  -62515.125      356.34655     -62158.779      194.83209      191.61878      435.18919    
     34700  -62485.078      354.74075     -62130.337      194.80364      191.59424      435.3747     
     34800  -62463.615      358.59958     -62105.015      194.78002      191.57375      435.5602     
     34900  -62434.328      351.7437      -62082.585      194.75527      191.55263      435.7457     
     35000  -62417.712      354.24385     -62063.468      194.72684      191.52648      435.93121    
     35100  -62391.689      350.4735      -62041.216      194.70314      191.50409      436.11671    
     35200  -62364.121      355.5679      -62008.554      194.67987      191.48246      436.30221    
     35300  -62335.576      356.06756     -61979.508      194.65213      191.45507      436.48771    
     35400  -62314.803      361.15768     -61953.645      194.62738      191.42999      436.67322    
     35500  -62289.08       359.80381     -61929.276      194.60529      191.40733      436.85872    
     35600  -62258.742      353.42522     -61905.317      194.57867      191.37958      437.04422    
     35700  -62235.993      355.71218     -61880.28       194.55375      191.3521       437.22972    
     35800  -62210.662      356.92888     -61853.733      194.5337       191.32928      437.41523    
     35900  -62182.768      357.18282     -61825.586      194.50953      191.30201      437.60073    
     36000  -62155.748      356.56934     -61799.178      194.48453      191.27194      437.78623    
     36100  -62138.255      360.59644     -61777.659      194.46479      191.24609      437.97173    
     36200  -62108.296      349.96595     -61758.33       194.44306      191.2186       438.15724    
     36300  -62084.661      352.06532     -61732.596      194.41873      191.18734      438.34274    
     36400  -62057.281      357.47246     -61699.809      194.40013      191.1598       438.52824    
     36500  -62030.599      359.25875     -61671.34       194.38003      191.13221      438.71374    
     36600  -62003.679      355.69124     -61647.988      194.35655      191.09993      438.89925    
     36700  -61984.093      356.9647      -61627.129      194.33664      191.06983      439.08475    
     36800  -61960.361      356.29427     -61604.067      194.31811      191.04246      439.27025    
     36900  -61932.988      359.68988     -61573.298      194.29611      191.01095      439.45576    
     37000  -61898.571      356.98996     -61541.581      194.27585      190.97952      439.64126    
     37100  -61877.082      358.92905     -61518.153      194.25789      190.95208      439.82676    
     37200  -61855.447      357.6564      -61497.791      194.2369       190.92107      440.01226    
     37300  -61829.181      354.75689     -61474.424      194.21562      190.88879      440.19777    
     37400  -61804.05       357.80582     -61446.244      194.19766      190.86166      440.38327    
     37500  -61767.265      356.19439     -61411.071      194.17764      190.83211      440.56877    
     37600  -61744.922      357.99008     -61386.932      194.15554      190.80012      440.75427    
     37700  -61726.546      360.07599     -61366.47       194.13561      190.77182      440.93978    
     37800  -61697.202      353.95654     -61343.245      194.11518      190.74255      441.12528    
     37900  -61668.686      353.48747     -61315.199      194.09355      190.71186      441.31078    
     38000  -61641.974      360.64261     -61281.332      194.07317      190.68415      441.49628    
     38100  -61616.243      360.82589     -61255.417      194.05236      190.65615      441.68179    
     38200  -61591.685      358.43136     -61233.254      194.02939      190.62619      441.86729    
     38300  -61567.956      356.77312     -61211.183      194.00762      190.59905      442.05279    
     38400  -61538.74       352.98674     -61185.753      193.98588      190.57213      442.23829    
     38500  -61517.047      358.5793      -61158.467      193.96177      190.54349      442.4238     
     38600  -61483.81       352.11242     -61131.697      193.93828      190.51682      442.6093     
     38700  -61462.189      356.74023     -61105.449      193.91656      190.49235      442.7948     
     38800  -61433.755      355.09348     -61078.661      193.89144      190.46527      442.98031    
     38900  -61407.644      359.36539     -61048.279      193.86518      190.43827      443.16581    
     39000  -61382.419      363.16843     -61019.25       193.8426       190.41567      443.35131    
     39100  -61352.263      353.88857     -60998.374      193.8175       190.39108      443.53681    
     39200  -61335.919      358.26214     -60977.657      193.78911      190.3642       443.72232    
     39300  -61304.41       353.01475     -60951.395      193.76498      190.34202      443.90782    
     39400  -61277.015      355.16835     -60921.847      193.74065      190.32028      444.09332    
     39500  -61250.623      358.44321     -60892.18       193.7117       190.29449      444.27882    
     39600  -61222.426      360.2365      -60862.189      193.68465      190.27173      444.46433    
     39700  -61193.923      364.32337     -60829.6        193.66098      190.252        444.64983    
     39800  -61167.059      358.74232     -60808.317      193.63323      190.22869      444.83533    
     39900  -61145.001      356.17401     -60788.827      193.60486      190.20501      445.02083    
     40000  -61120.11       354.91609     -60765.194      193.58026      190.18496      445.20634    
     40100  -61092.199      352.2057      -60739.993      193.55402      190.16368      445.39184    
     40200  -61067.008      355.95863     -60711.049      193.52556      190.14036      445.57734    
     40300  -61040.219      361.95443     -60678.265      193.49977      190.1201       445.76285    
     40400  -61010.163      359.35135     -60650.812      193.47466      190.10008      445.94835    
     40500  -60987.304      357.09933     -60630.205      193.44716      190.07808      446.13385    
     40600  -60961.364      353.05319     -60608.311      193.42058      190.05715      446.31935    
     40700  -60937.014      356.1279      -60580.886      193.39587      190.03707      446.50486    
     40800  -60907.528      356.22756     -60551.3        193.36954      190.0164       446.69036    
     40900  -60878.075      357.71976     -60520.355      193.34216      189.99332      446.87586    
     41000  -60848.232      356.61384     -60491.618      193.31804      189.9737       447.06136    
     41100  -60822.854      352.11239     -60470.742      193.29425      189.95496      447.24687    
     41200  -60800.536      350.28127     -60450.255      193.26639      189.93113      447.43237    
     41300  -60775.624      353.76476     -60421.859      193.24076      189.90831      447.61787    
     41400  -60747.71       358.43154     -60389.278      193.21854      189.89002      447.80337    
     41500  -60718.794      357.82277     -60360.971      193.19369      189.86704      447.98888    
     41600  -60691.199      355.93023     -60335.269      193.1673       189.84206      448.17438    
     41700  -60666.186      355.12072     -60311.066      193.14507      189.82251      448.35988    
     41800  -60647.524      355.78899     -60291.735      193.12355      189.80126      448.54538    
     41900  -60619.567      349.758       -60269.809      193.09845      189.77501      448.73089    
     42000  -60593.465      356.79473     -60236.67       193.07512      189.75171      448.91639    
     42100  -60555.6        350.90544     -60204.695      193.05654      189.7316       449.10189    
     42200  -60531.789      357.2672      -60174.522      193.03463      189.70682      449.2874     
     42300  -60505.211      357.96428     -60147.247      193.01048      189.68068      449.4729     
     42400  -60480.571      357.12745     -60123.444      192.99182      189.65875      449.6584     
     42500  -60456.425      353.40134     -60103.024      192.97378      189.63584      449.8439     
     42600  -60428.309      351.39593     -60076.913      192.95162      189.60965      450.02941    
     42700  -60393.826      351.22836     -60042.598      192.93256      189.58549      450.21491    
     42800  -60370.623      357.85232     -60012.771      192.91647      189.56262      450.40041    
     42900  -60343.964      356.34409     -59987.619      192.89675      189.53729      450.58591    
     43000  -60316.103      351.32076     -59964.782      192.87804      189.51201      450.77142    
     43100  -60294.193      353.63711     -59940.556      192.86255      189.48771      450.95692    
     43200  -60270.152      359.90396     -59910.248      192.84408      189.46301      451.14242    
     43300  -60230.82       355.13449     -59875.685      192.82609      189.43698      451.32792    
     43400  -60208.829      360.01937     -59848.81       192.81155      189.41287      451.51343    
     43500  -60182.386      355.36811     -59827.018      192.79506      189.3892       451.69893    
     43600  -60157.533      353.67502     -59803.858      192.77754      189.36303      451.88443    
     43700  -60133.484      357.80302     -59775.681      192.76228      189.33753      452.06993    
     43800  -60101.526      355.30816     -59746.218      192.74731      189.31515      452.25544    
     43900  -60075.825      358.61379     -59717.211      192.72988      189.289        452.44094    
     44000  -60047.026      357.3148      -59689.711      192.71347      189.26283      452.62644    
     44100  -60016.858      353.99072     -59662.867      192.69868      189.24097      452.81195    
     44200  -59992.497      356.26418     -59636.233      192.68275      189.21655      452.99745    
     44300  -59968.568      359.31578     -59609.253      192.66405      189.18975      453.18295    
     44400  -59938.44       355.57259     -59582.867      192.64875      189.16849      453.36845    
     44500  -59913.431      357.63991     -59555.791      192.6338       189.14621      453.55396    
     44600  -59879.252      351.80842     -59527.443      192.61412      189.12013      453.73946    
     44700  -59855.585      357.43672     -59498.148      192.59651      189.09856      453.92496    
     44800  -59827.709      358.99192     -59468.718      192.5824       189.07876      454.11046    
     44900  -59799.866      355.72737     -59444.139      192.56397      189.05568      454.29597    
     45000  -59779.295      355.81958     -59423.476      192.54321      189.03293      454.48147    
     45100  -59754.529      357.55137     -59396.977      192.52813      189.01403      454.66697    
     45200  -59722.441      357.34376     -59365.097      192.51029      188.9939       454.85247    
     45300  -59693.615      358.93387     -59334.681      192.48839      188.97214      455.03798    
     45400  -59661.697      353.81763     -59307.88       192.47109      188.95326      455.22348    
     45500  -59641.834      360.07693     -59281.757      192.45413      188.93628      455.40898    
     45600  -59613.119      356.4416      -59256.677      192.43228      188.91611      455.59449    
     45700  -59588.549      354.94179     -59233.607      192.41285      188.89737      455.77999    
     45800  -59563.027      352.42163     -59210.605      192.39609      188.8823       455.96549    
     45900  -59531.767      349.74951     -59182.018      192.37509      188.8637       456.15099    
     46000  -59503.435      357.45251     -59145.983      192.35335      188.84456      456.3365     
     46100  -59474.62       358.70966     -59115.911      192.33506      188.82992      456.522      
     46200  -59445.078      355.18534     -59089.893      192.31561      188.81474      456.7075     
     46300  -59422.738      355.71668     -59067.021      192.29366      188.79676      456.893      
     46400  -59397.271      353.83524     -59043.436      192.27335      188.78167      457.07851    
     46500  -59368.982      355.03607     -59013.946      192.2548       188.76848      457.26401    
     46600  -59335.679      357.85459     -58977.825      192.23283      188.75176      457.44951    
     46700  -59299.512      350.2555      -58949.256      192.21098      188.7366       457.63501    
     46800  -59283.349      357.87606     -58925.473      192.1915       188.7232       457.82052    
     46900  -59257.247      354.55276     -58902.695      192.17066      188.70855      458.00602    
     47000  -59227.311      352.49939     -58874.811      192.14908      188.69361      458.19152    
     47100  -59201.348      356.69115     -58844.657      192.1288       188.68033      458.37702    
     47200  -59168.218      352.8781      -58815.34       192.10739      188.66559      458.56253    
     47300  -59147.165      359.13647     -58788.028      192.08642      188.65155      458.74803    
     47400  -59118.445      356.15051     -58762.294      192.06649      188.63817      458.93353    
     47500  -59092.359      353.43085     -58738.928      192.04589      188.62413      459.11904    
     47600  -59065.873      351.69177     -58714.181      192.02362      188.60869      459.30454    
     47700  -59036.879      355.30158     -58681.577      192.0046       188.59495      459.49004    
     47800  -59005.345      358.39224     -58646.953      191.98533      188.58158      459.67554    
     47900  -58975.615      356.44834     -58619.167      191.96332      188.56492      459.86105    
     48000  -58952.602      356.52202     -58596.079      191.94415      188.55011      460.04655    
     48100  -58924.959      352.68241     -58572.277      191.92648      188.53736      460.23205    
     48200  -58895.803      352.01845     -58543.784      191.90623      188.52152      460.41755    
     48300  -58873.392      359.53783     -58513.854      191.88609      188.50474      460.60306    
     48400  -58837.263      352.9314      -58484.331      191.86899      188.49086      460.78856    
     48500  -58816.49       357.96396     -58458.526      191.85157      188.47621      460.97406    
     48600  -58791.308      352.25048     -58439.058      191.83225      188.45851      461.15956    
     48700  -58765.353      353.76852     -58411.585      191.81456      188.4421       461.34507    
     48800  -58735.157      356.96228     -58378.194      191.80005      188.42852      461.53057    
     48900  -58702.093      355.35769     -58346.736      191.78326      188.41079      461.71607    
     49000  -58671.374      354.06848     -58317.305      191.76439      188.39205      461.90157    
     49100  -58642.874      353.78633     -58289.088      191.75067      188.37635      462.08708    
     49200  -58622.868      355.71471     -58267.154      191.73636      188.35909      462.27258    
     49300  -58596.81       354.95449     -58241.855      191.72038      188.34034      462.45808    
     49400  -58567.36       357.4035      -58209.957      191.70776      188.32364      462.64359    
     49500  -58530.608      355.25025     -58175.358      191.69453      188.30569      462.82909    
     49600  -58506.612      360.08449     -58146.528      191.67935      188.28645      463.01459    
     49700  -58480.221      359.63792     -58120.583      191.66738      188.26867      463.20009    
     49800  -58452.386      357.41493     -58094.971      191.65451      188.25053      463.3856     
     49900  -58427.702      358.41427     -58069.288      191.63945      188.22945      463.5711     
     50000  -58398.116      356.18916     -58041.926      191.62767      188.21003      463.7566     
     50100  -58366.793      354.52005     -58012.273      191.61716      188.19298      463.9421     
     50200  -58333.508      352.9348      -57980.573      191.60354      188.17248      464.12761    
     50300  -58309.669      357.10233     -57952.566      191.58956      188.15037      464.31311    
     50400  -58286.649      356.8638      -57929.785      191.5786       188.13234      464.49861    
     50500  -58261.904      357.22602     -57904.678      191.56721      188.11395      464.68411    
     50600  -58228.012      353.00092     -57875.011      191.55327      188.09143      464.86962    
     50700  -58199.52       358.42563     -57841.094      191.54055      188.07206      465.05512    
     50800  -58169.326      365.02138     -57804.305      191.53056      188.05433      465.24062    
     50900  -58136.119      361.32194     -57774.798      191.5169       188.03266      465.42613    
     51000  -58113.698      357.1192      -57756.578      191.50248      188.01192      465.61163    
     51100  -58089.094      356.46005     -57732.634      191.49285      187.99476      465.79713    
     51200  -58058.424      349.78247     -57708.642      191.48042      187.97584      465.98263    
     51300  -58036.081      355.29569     -57680.786      191.4646       187.95383      466.16814    
     51400  -58005.039      357.5342      -57647.505      191.45331      187.93591      466.35364    
     51500  -57973.545      358.76599     -57614.779      191.44268      187.9189       466.53914    
     51600  -57948.063      357.82751     -57590.235      191.4271       187.8985       466.72464    
     51700  -57921.491      353.05299     -57568.438      191.4131       187.87881      466.91015    
     51800  -57896.002      357.34017     -57538.662      191.40255      187.86275      467.09565    
     51900  -57865.458      359.30248     -57506.155      191.38845      187.84474      467.28115    
     52000  -57832.464      357.34853     -57475.116      191.3745       187.82595      467.46665    
     52100  -57807.904      357.15971     -57450.745      191.36172      187.80977      467.65216    
     52200  -57782.661      354.9433      -57427.718      191.34776      187.79282      467.83766    
     52300  -57750.442      351.36987     -57399.072      191.33307      187.77558      468.02316    
     52400  -57722.601      355.92777     -57366.674      191.31807      187.7595       468.20866    
     52500  -57693.92       362.17718     -57331.743      191.30285      187.7434       468.39417    
     52600  -57663.121      361.62807     -57301.493      191.28731      187.72697      468.57967    
     52700  -57635.34       353.02679     -57282.313      191.27177      187.71233      468.76517    
     52800  -57607.427      351.49697     -57255.93       191.25673      187.69766      468.95068    
     52900  -57583.535      356.413       -57227.122      191.23906      187.68151      469.13618    
     53000  -57546.946      350.02536     -57196.921      191.22129      187.66624      469.32168    
     53100  -57521.011      356.14922     -57164.862      191.20444      187.65288      469.50718    
     53200  -57494.706      358.6987      -57136.007      191.18863      187.6397       469.69269    
     53300  -57468.71       355.12152     -57113.588      191.16926      187.62522      469.87819    
     53400  -57439.616      353.01802     -57086.598      191.14987      187.61062      470.06369    
     53500  -57413.185      356.38939     -57056.795      191.13355      187.59896      470.24919    
     53600  -57386.79       360.53903     -57026.251      191.11504      187.58615      470.4347     
     53700  -57353.462      355.70753     -56997.755      191.09357      187.57027      470.6202     
     53800  -57328.164      355.93712     -56972.226      191.07539      187.55812      470.8057     
     53900  -57299.268      353.45189     -56945.816      191.05816      187.54751      470.9912     
     54000  -57270.137      352.38315     -56917.754      191.03727      187.53312      471.17671    
     54100  -57242.603      356.25248     -56886.351      191.01766      187.52008      471.36221    
     54200  -57208.694      358.27857     -56850.416      191.00078      187.50916      471.54771    
     54300  -57180.069      358.20713     -56821.862      190.98147      187.49673      471.73321    
     54400  -57158.146      359.6709      -56798.475      190.96009      187.48231      471.91872    
     54500  -57127.98       356.67827     -56771.301      190.94148      187.46997      472.10422    
     54600  -57099.345      355.38491     -56743.96       190.9232       187.45823      472.28972    
     54700  -57075.699      358.64385     -56717.055      190.90349      187.44482      472.47523    
     54800  -57044.984      352.59917     -56692.385      190.88513      187.43178      472.66073    
     54900  -57021.271      353.4567      -56667.815      190.86677      187.41897      472.84623    
     55000  -56988.454      354.06142     -56634.392      190.84809      187.40589      473.03173    
     55100  -56953.284      357.45209     -56595.832      190.82915      187.39146      473.21724    
     55200  -56924.372      357.35059     -56567.021      190.81082      187.37765      473.40274    
     55300  -56898.458      356.39205     -56542.066      190.79356      187.36518      473.58824    
     55400  -56870.614      354.97258     -56515.642      190.77522      187.35063      473.77374    
     55500  -56842.644      356.26216     -56486.382      190.75674      187.33584      473.95925    
     55600  -56814.813      359.54479     -56455.269      190.73993      187.3224       474.14475    
     55700  -56782.565      358.827       -56423.738      190.72275      187.30834      474.33025    
     55800  -56754.03       357.61654     -56396.413      190.70346      187.29144      474.51575    
     55900  -56727.882      356.01849     -56371.864      190.68685      187.27726      474.70126    
     56000  -56701.101      357.08347     -56344.018      190.67185      187.2634       474.88676    
     56100  -56667.669      353.70976     -56313.959      190.6529       187.24569      475.07226    
     56200  -56641.324      359.76636     -56281.558      190.63485      187.22865      475.25776    
     56300  -56605.611      357.80936     -56247.802      190.62155      187.215        475.44327    
     56400  -56578.738      356.11776     -56222.621      190.60423      187.19778      475.62877    
     56500  -56557.174      359.53439     -56197.639      190.58535      187.17894      475.81427    
     56600  -56524.379      355.11139     -56169.268      190.57275      187.16461      475.99978    
     56700  -56494.941      353.59656     -56141.345      190.55734      187.14798      476.18528    
     56800  -56464.336      349.37049     -56114.966      190.5388       187.12757      476.37078    
     56900  -56440.903      351.22018     -56089.682      190.52491      187.11119      476.55628    
     57000  -56413.903      350.52865     -56063.374      190.51163      187.09425      476.74179    
     57100  -56382.801      355.01461     -56027.787      190.49432      187.07383      476.92729    
     57200  -56350.41       361.00274     -55989.408      190.47891      187.05479      477.11279    
     57300  -56323.193      362.69801     -55960.495      190.46658      187.0373       477.29829    
     57400  -56289.952      354.57337     -55935.379      190.45213      187.01869      477.4838     
     57500  -56264.402      357.36021     -55907.042      190.43581      186.99746      477.6693     
     57600  -56234.92       356.82847     -55878.091      190.42353      186.97875      477.8548     
     57700  -56204.494      352.94102     -55851.553      190.41151      186.96186      478.0403     
     57800  -56176.814      353.06804     -55823.746      190.39513      186.9397       478.22581    
     57900  -56144.57       352.84212     -55791.728      190.38145      186.91861      478.41131    
     58000  -56119.079      359.63015     -55759.449      190.37085      186.90249      478.59681    
     58100  -56090.204      359.80479     -55730.399      190.35592      186.88179      478.78232    
     58200  -56058.991      353.57363     -55705.417      190.33993      186.85834      478.96782    
     58300  -56027.602      352.45081     -55675.152      190.32896      186.84208      479.15332    
     58400  -56000.736      357.48534     -55643.25       190.31561      186.82256      479.33882    
     58500  -55968.85       356.19054     -55612.66       190.2981       186.79844      479.52433    
     58600  -55938.679      353.19021     -55585.488      190.28507      186.78053      479.70983    
     58700  -55915.436      354.75799     -55560.678      190.27326      186.76281      479.89533    
     58800  -55884.798      355.95235     -55528.846      190.25585      186.74006      480.08083    
     58900  -55850.885      355.98432     -55494.901      190.24189      186.72118      480.26634    
     59000  -55823.485      359.40663     -55464.078      190.22937      186.70379      480.45184    
     59100  -55796.184      356.797       -55439.387      190.21118      186.68231      480.63734    
     59200  -55762.65       353.31878     -55409.332      190.19581      186.66184      480.82284    
     59300  -55731.922      354.42112     -55377.501      190.18269      186.64573      481.00835    
     59400  -55704.526      356.37096     -55348.155      190.16437      186.6246       481.19385    
     59500  -55680.56       357.6698      -55322.89       190.14769      186.60459      481.37935    
     59600  -55643.44       352.81348     -55290.627      190.13467      186.58917      481.56485    
     59700  -55612.835      354.28564     -55258.549      190.11604      186.56919      481.75036    
     59800  -55583.811      355.17183     -55228.639      190.09596      186.54754      481.93586    
     59900  -55556.485      353.43093     -55203.054      190.08224      186.53236      482.12136    
     60000  -55525.352      350.55897     -55174.793      190.06518      186.51533      482.30687    
     60100  -55492.396      351.57542     -55140.82       190.04351      186.49411      482.49237    
     60200  -55463.167      358.03217     -55105.135      190.02705      186.47716      482.67787    
     60300  -55431.12       357.60147     -55073.519      190.01087      186.46253      482.86337    
     60400  -55406.347      356.82885     -55049.518      189.99065      186.44355      483.04888    
     60500  -55375.707      356.83046     -55018.877      189.97256      186.42587      483.23438    
     60600  -55343.614      355.46879     -54988.146      189.95534      186.41087      483.41988    
     60700  -55312.154      353.36878     -54958.785      189.93359      186.3921       483.60538    
     60800  -55283.662      354.05505     -54929.607      189.91565      186.37565      483.79089    
     60900  -55254.317      355.37734     -54898.94       189.8986       186.36158      483.97639    
     61000  -55229.06       355.33958     -54873.72       189.87574      186.34314      484.16189    
     61100  -55191.831      350.95704     -54840.874      189.85646      186.32597      484.34739    
     61200  -55157.597      354.13393     -54803.463      189.8398       186.3131       484.5329     
     61300  -55127.857      358.50473     -54769.352      189.81598      186.29417      484.7184     
     61400  -55095.113      352.60548     -54742.507      189.79416      186.27559      484.9039     
     61500  -55072.781      359.21197     -54713.569      189.77893      186.26455      485.0894     
     61600  -55035.655      354.29979     -54681.355      189.75702      186.24763      485.27491    
     61700  -55006.342      356.09595     -54650.247      189.73235      186.22703      485.46041    
     61800  -54976.671      356.70705     -54619.964      189.71494      186.21408      485.64591    
     61900  -54947.781      357.20774     -54590.573      189.69587      186.20042      485.83142    
     62000  -54914.753      353.47343     -54561.28       189.67083      186.17972      486.01692    
     62100  -54885.087      359.48446     -54525.602      189.65067      186.16453      486.20242    
     62200  -54850.8        360.25235     -54490.547      189.63212      186.15081      486.38792    
     62300  -54815.539      356.35868     -54459.18       189.60714      186.13068      486.57343    
     62400  -54784.524      355.87427     -54428.65       189.5862       186.11419      486.75893    
     62500  -54753.725      357.02813     -54396.697      189.56984      186.10153      486.94443    
     62600  -54716.468      352.6566      -54363.812      189.54574      186.08138      487.12993    
     62700  -54686.145      353.92568     -54332.219      189.52293      186.06336      487.31544    
     62800  -54660.193      359.84131     -54300.352      189.50659      186.04998      487.50094    
     62900  -54625.326      357.27805     -54268.047      189.485        186.03137      487.68644    
     63000  -54590.842      355.03538     -54235.806      189.46196      186.01201      487.87194    
     63100  -54563.325      359.22356     -54204.101      189.44444      185.99621      488.05745    
     63200  -54528.56       355.44149     -54173.118      189.42573      185.97953      488.24295    
     63300  -54497.728      357.36759     -54140.36       189.40356      185.96037      488.42845    
     63400  -54463.015      355.9198      -54107.095      189.38551      185.94282      488.61396    
     63500  -54434.566      359.65546     -54074.911      189.36656      185.92448      488.79946    
     63600  -54402.213      360.89979     -54041.313      189.34563      185.90552      488.98496    
     63700  -54366.79       359.74562     -54007.044      189.32743      185.88776      489.17046    
     63800  -54333.078      358.68503     -53974.393      189.30883      185.86899      489.35597    
     63900  -54298.64       357.65573     -53940.984      189.28908      185.84993      489.54147    
     64000  -54266.4        358.87786     -53907.522      189.27075      185.832        489.72697    
     64100  -54233.468      358.51317     -53874.955      189.25211      185.81253      489.91247    
     64200  -54200.934      358.98826     -53841.945      189.23297      185.7925       490.09798    
     64300  -54171.245      362.38631     -53808.858      189.21486      185.77377      490.28348    
     64400  -54135.792      360.52338     -53775.269      189.19664      185.75445      490.46898    
     64500  -54099.266      358.38295     -53740.883      189.17865      185.73455      490.65448    
     64600  -54065.691      359.8154      -53705.875      189.16064      185.7146       490.83999    
     64700  -54028.604      356.92031     -53671.684      189.14178      185.69417      491.02549    
     64800  -53994.578      356.58161     -53637.997      189.12446      185.67424      491.21099    
     64900  -53960.81       356.90509     -53603.905      189.10762      185.65405      491.39649    
     65000  -53927.922      357.45113     -53570.47       189.08932      185.6335       491.582      
     65100  -53893.655      357.35144     -53536.304      189.07205      185.61339      491.7675     
     65200  -53857.796      356.50958     -53501.287      189.05477      185.59235      491.953      
     65300  -53825.426      359.46192     -53465.965      189.03795      185.57244      492.13851    
     65400  -53792.199      361.25222     -53430.947      189.02112      185.55304      492.32401    
     65500  -53753.938      357.59542     -53396.343      189.00342      185.53173      492.50951    
     65600  -53716.548      355.80727     -53360.741      188.9866       185.51079      492.69501    
     65700  -53685.023      358.9699      -53326.053      188.97067      185.49128      492.88052    
     65800  -53648.096      357.32839     -53290.767      188.95403      185.47149      493.06602    
     65900  -53611.849      357.25899     -53254.59       188.93593      185.44915      493.25152    
     66000  -53576.616      358.87919     -53217.737      188.9207       185.42951      493.43702    
     66100  -53542.182      360.19192     -53181.99       188.90495      185.41052      493.62253    
     66200  -53501.629      355.22759     -53146.401      188.88738      185.38905      493.80803    
     66300  -53468.802      358.9084      -53109.894      188.87106      185.3681       493.99353    
     66400  -53434.638      360.49095     -53074.148      188.8561       185.34966      494.17903    
     66500  -53397.327      360.64445     -53036.682      188.83818      185.32919      494.36454    
     66600  -53357.905      358.56556     -52999.339      188.82142      185.30824      494.55004    
     66700  -53322.835      361.21116     -52961.624      188.80754      185.29055      494.73554    
     66800  -53285.105      360.08663     -52925.018      188.78893      185.26993      494.92104    
     66900  -53250.826      361.63587     -52889.19       188.77141      185.24983      495.10655    
     67000  -53212.879      361.18196     -52851.698      188.7575       185.23256      495.29205    
     67100  -53171.283      357.45255     -52813.831      188.73937      185.2126       495.47755    
     67200  -53135.383      358.53109     -52776.852      188.72062      185.1929       495.66306    
     67300  -53098.988      359.85145     -52739.137      188.70659      185.17628      495.84856    
     67400  -53057.526      356.22079     -52701.306      188.68908      185.15715      496.03406    
     67500  -53022.803      360.53841     -52662.265      188.66952      185.13771      496.21956    
     67600  -52985.247      362.00431     -52623.243      188.65481      185.12212      496.40507    
     67700  -52943.525      358.80855     -52584.717      188.63769      185.10388      496.59057    
     67800  -52907.043      361.41211     -52545.631      188.61902      185.08534      496.77607    
     67900  -52867.723      361.53363     -52506.19       188.60404      185.07003      496.96157    
     68000  -52830.978      362.5605      -52468.418      188.58692      185.05292      497.14708    
     68100  -52789.147      359.3796      -52429.768      188.56808      185.0344       497.33258    
     68200  -52750.743      360.58625     -52390.157      188.55323      185.02017      497.51808    
     68300  -52710.43       358.80193     -52351.628      188.5357       185.00411      497.70358    
     68400  -52670.032      358.40601     -52311.626      188.51673      184.98588      497.88909    
     68500  -52632.37       361.11572     -52271.254      188.50128      184.97201      498.07459    
     68600  -52593.079      361.4554      -52231.624      188.48475      184.9576       498.26009    
     68700  -52550.009      359.52514     -52190.484      188.46524      184.93972      498.4456     
     68800  -52511.448      361.3523      -52150.096      188.44937      184.92607      498.6311     
     68900  -52466.789      358.04855     -52108.741      188.43344      184.91269      498.8166     
     69000  -52430.821      362.07622     -52068.744      188.41398      184.89571      499.0021     
     69100  -52381.529      355.35051     -52026.178      188.39872      184.88266      499.18761    
     69200  -52347.886      363.27057     -51984.616      188.38272      184.86979      499.37311    
     69300  -52308.306      364.81481     -51943.491      188.36325      184.85342      499.55861    
     69400  -52261.705      360.67038     -51901.035      188.34797      184.84062      499.74411    
     69500  -52222.438      360.88818     -51861.55       188.33257      184.82824      499.92962    
     69600  -52180.41       361.53683     -51818.873      188.31311      184.81217      500.11512    
     69700  -52142.683      363.75111     -51778.932      188.29794      184.7996       500.30062    
     69800  -52099.236      362.91882     -51736.317      188.28362      184.78815      500.48612    
     69900  -52051.974      357.5175      -51694.456      188.26431      184.77245      500.67163    
     70000  -52012.493      361.76866     -51650.725      188.24818      184.75934      500.85713    
     70100  -51972.605      364.26577     -51608.339      188.23496      184.74883      501.04263    
     70200  -51925.856      360.18936     -51565.667      188.21681      184.734        501.22813    
     70300  -51884.368      361.83106     -51522.537      188.20073      184.72082      501.41364    
     70400  -51842.015      363.26512     -51478.75       188.18783      184.7105       501.59914    
     70500  -51798.766      362.5724      -51436.193      188.1701       184.69596      501.78464    
     70600  -51755.596      364.51789     -51391.078      188.15492      184.68339      501.97015    
     70700  -51713.336      365.01805     -51348.318      188.14275      184.67347      502.15565    
     70800  -51671.557      366.05424     -51305.503      188.12539      184.65888      502.34115    
     70900  -51622.22       362.23539     -51259.985      188.11053      184.64604      502.52665    
     71000  -51578.29       363.27522     -51215.015      188.0984       184.63614      502.71216    
     71100  -51533.597      363.14063     -51170.457      188.0827       184.62238      502.89766    
     71200  -51490.56       365.46896     -51125.091      188.0683       184.60941      503.08316    
     71300  -51445.708      364.63168     -51081.077      188.05628      184.59878      503.26866    
     71400  -51398.573      362.78437     -51035.789      188.04197      184.58609      503.45417    
     71500  -51358.831      366.83504     -50991.996      188.02776      184.57287      503.63967    
     71600  -51313.084      365.7664      -50947.317      188.01632      184.56202      503.82517    
     71700  -51265.338      366.11271     -50899.225      188.00316      184.55015      504.01067    
     71800  -51219.498      367.67812     -50851.82       187.98857      184.536        504.19618    
     71900  -51175.402      369.75428     -50805.648      187.9778       184.52589      504.38168    
     72000  -51126.282      367.43004     -50758.852      187.96543      184.51413      504.56718    
     72100  -51085.583      373.05451     -50712.529      187.95116      184.49995      504.75268    
     72200  -51037.956      374.46301     -50663.493      187.94041      184.48936      504.93819    
     72300  -50986.667      371.50534     -50615.162      187.92888      184.4777       505.12369    
     72400  -50935.886      366.32814     -50569.558      187.91552      184.4642       505.30919    
     72500  -50896.519      372.89293     -50523.626      187.90471      184.4532       505.4947     
     72600  -50846.893      369.73179     -50477.161      187.89377      184.44148      505.6802     
     72700  -50806.252      378.28301     -50427.969      187.88122      184.42832      505.8657     
     72800  -50756.132      375.77257     -50380.359      187.87038      184.41694      506.0512     
     72900  -50707.949      378.6391      -50329.31       187.85999      184.40564      506.23671    
     73000  -50659.284      375.65792     -50283.626      187.84791      184.39247      506.42221    
     73100  -50612.701      380.45536     -50232.246      187.83697      184.38067      506.60771    
     73200  -50563.713      380.20538     -50183.508      187.82722      184.36975      506.79321    
     73300  -50514.248      378.58939     -50135.658      187.8157       184.35692      506.97872    
     73400  -50464.055      375.87019     -50088.185      187.80488      184.34471      507.16422    
     73500  -50419.535      377.98543     -50041.55       187.79542      184.33391      507.34972    
     73600  -50366.133      374.63305     -49991.5        187.7847       184.32178      507.53522    
     73700  -50318.448      379.32772     -49939.12       187.77332      184.30876      507.72073    
     73800  -50264.56       375.56403     -49888.996      187.76419      184.2983       507.90623    
     73900  -50218.114      378.01239     -49840.102      187.75375      184.28638      508.09173    
     74000  -50172.7        381.31181     -49791.389      187.74211      184.27298      508.27723    
     74100  -50118.26       378.23184     -49740.028      187.73294      184.26252      508.46274    
     74200  -50071.535      383.36106     -49688.174      187.72291      184.25103      508.64824    
     74300  -50018.11       383.01463     -49635.096      187.7111       184.23754      508.83374    
     74400  -49963.985      379.84658     -49584.139      187.70172      184.22676      509.01925    
     74500  -49914.257      383.98757     -49530.27       187.69208      184.21588      509.20475    
     74600  -49865.508      385.39669     -49480.111      187.68032      184.20261      509.39025    
     74700  -49808.64       386.01672     -49422.623      187.67029      184.19091      509.57575    
     74800  -49762.159      390.73896     -49371.42       187.66092      184.18029      509.76126    
     74900  -49705.197      393.59896     -49311.598      187.64968      184.1675       509.94676    
     75000  -49650.223      396.68509     -49253.538      187.6389       184.15513      510.13226    
     75100  -49602.73       398.37214     -49204.358      187.6295       184.14452      510.31776    
     75200  -49543.64       393.69682     -49149.943      187.61857      184.13217      510.50327    
     75300  -49494.697      400.76051     -49093.937      187.60724      184.11927      510.68877    
     75400  -49443.483      405.23984     -49038.243      187.59763      184.10856      510.87427    
     75500  -49390.29       404.73714     -48985.553      187.58697      184.09658      511.05977    
     75600  -49338.033      410.55        -48927.483      187.57543      184.08355      511.24528    
     75700  -49278.82       406.46209     -48872.358      187.56525      184.07234      511.43078    
     75800  -49228.021      410.26589     -48817.755      187.55485      184.06069      511.61628    
     75900  -49174.896      416.95883     -48757.937      187.54302      184.04744      511.80179    
     76000  -49119.276      418.34563     -48700.93       187.53227      184.0358       511.98729    
     76100  -49051.499      410.22561     -48641.274      187.52207      184.02435      512.17279    
     76200  -49005.84       420.36932     -48585.471      187.51005      184.01105      512.35829    
     76300  -48948.558      424.47922     -48524.079      187.49808      183.99849      512.5438     
     76400  -48892.684      424.01249     -48468.672      187.48799      183.98719      512.7293     
     76500  -48838.874      421.58336     -48417.29       187.47594      183.97413      512.9148     
     76600  -48780.075      423.17831     -48356.897      187.46319      183.96089      513.1003     
     76700  -48733.169      430.57746     -48302.591      187.45277      183.94946      513.28581    
     76800  -48663.688      423.70361     -48239.984      187.44079      183.93668      513.47131    
     76900  -48613.821      428.36198     -48185.459      187.42764      183.92305      513.65681    
     77000  -48554.661      431.38425     -48123.277      187.41651      183.91121      513.84231    
     77100  -48496.924      436.6903      -48060.234      187.40458      183.89866      514.02782    
     77200  -48443.491      436.70003     -48006.791      187.39076      183.88459      514.21332    
     77300  -48387.529      445.54026     -47941.989      187.37891      183.87213      514.39882    
     77400  -48318.281      435.56528     -47882.716      187.36695      183.85973      514.58432    
     77500  -48267.371      445.04214     -47822.329      187.35277      183.8453       514.76983    
     77600  -48201.732      445.15641     -47756.575      187.33984      183.83204      514.95533    
     77700  -48150.149      455.79709     -47694.352      187.32782      183.81963      515.14083    
     77800  -48081.877      460.77236     -47621.105      187.3135       183.80508      515.32634    
     77900  -48018.156      461.55608     -47556.6        187.29942      183.79094      515.51184    
     78000  -47953.529      474.04653     -47479.483      187.28694      183.77802      515.69734    
     78100  -47909.771      489.77655     -47419.995      187.27281      183.76376      515.88284    
     78200  -48049.082      649.88841     -47399.193      187.25773      183.74903      516.06835    
     78300  -48633.002      1063.3065     -47569.695      187.24255      183.73627      516.25385    
     78400  -49833.049      1663.3612     -48169.688      187.23043      183.72636      516.43935    
     78500  -51786.902      2226.0498     -49560.852      187.22841      183.72897      516.62485    
     78600  -54069.729      2387.6239     -51682.105      187.2509       183.7548       516.81036    
     78700  -56340.059      2293.3297     -54046.73       187.3151       183.81566      516.99586    
     78800  -58333.503      2004.8005     -56328.703      187.39015      183.88737      517.18136    
     78900  -59935.895      1687.7831     -58248.112      187.46618      183.95757      517.36686    
     79000  -61207.793      1425.5388     -59782.254      187.53968      184.03259      517.55237    
     79100  -62293.817      1251.3137     -61042.504      187.60033      184.09756      517.73787    
     79200  -63178.011      1081.5643     -62096.447      187.65911      184.15893      517.92337    
     79300  -63870.792      927.09198     -62943.7        187.72312      184.22414      518.10887    
     79400  -64430.131      806.03586     -63624.095      187.7908       184.29317      518.29438    
     79500  -64886.759      710.72324     -64176.036      187.86329      184.36717      518.47988    
     79600  -65285.655      649.11547     -64636.54       187.93074      184.43642      518.66538    
     79700  -65666.47       619.42413     -65047.046      187.99109      184.49906      518.85089    
     79800  -66043.03       608.28866     -65434.742      188.05196      184.56323      519.03639    
     79900  -66382.495      576.27926     -65806.216      188.10919      184.6241       519.22189    
     80000  -66646.692      519.77119     -66126.921      188.16489      184.6832       519.40739    
     80100  -66848.222      462.7629      -66385.46       188.22161      184.74328      519.5929     
     80200  -66991.465      408.71009     -66582.755      188.27642      184.80132      519.7784     
     80300  -67081.419      360.49701     -66720.922      188.33325      184.86094      519.9639     
     80400  -67120.537      321.7241      -66798.813      188.39411      184.92375      520.1494     
     80500  -67107.511      302.62276     -66804.888      188.45425      184.98491      520.33491    
     80600  -67051.243      317.8801      -66733.363      188.50466      185.03556      520.52041    
     80700  -66940.45       306.67924     -66633.771      188.5497       185.08097      520.70591    
     80800  -66776.05       245.95524     -66530.095      188.59586      185.12771      520.89141    
     80900  -66673.113      251.0047      -66422.108      188.64111      185.1733       521.07692    
     81000  -66628.278      330.38797     -66297.89       188.66729      185.19961      521.26242    
     81100  -66626.07       422.41886     -66203.652      188.6732       185.20902      521.44792    
     81200  -66598.545      357.46608     -66241.079      188.68077      185.21978      521.63343    
     81300  -66622.47       330.55937     -66291.911      188.72662      185.27539      521.81893    
     81400  -66642.976      349.31455     -66293.662      188.78206      185.3354       522.00443    
     81500  -66664.596      381.14555     -66283.45       188.80941      185.36559      522.18993    
     81600  -66666.093      358.18979     -66307.903      188.83147      185.39775      522.37544    
     81700  -66675.86       344.81045     -66331.05       188.85757      185.43715      522.56094    
     81800  -66679.601      347.23799     -66332.363      188.89491      185.48026      522.74644    
     81900  -66676.724      357.97688     -66318.747      188.93886      185.52849      522.93194    
     82000  -66674.601      365.86113     -66308.74       188.9754       185.56614      523.11745    
     82100  -66680.982      367.06268     -66313.92       189.01092      185.60175      523.30295    
     82200  -66685.804      355.42624     -66330.378      189.0431       185.63749      523.48845    
     82300  -66702.998      357.17229     -66345.826      189.08313      185.67286      523.67395    
     82400  -66706.056      347.4203      -66358.636      189.11509      185.71067      523.85946    
     82500  -66719.812      356.87687     -66362.935      189.14966      185.74773      524.04496    
     82600  -66725.057      357.68176     -66367.376      189.18829      185.78444      524.23046    
     82700  -66732.35       354.58274     -66377.767      189.22507      185.82228      524.41596    
     82800  -66737.189      348.27118     -66388.918      189.25829      185.86061      524.60147    
     82900  -66747.282      355.67265     -66391.61       189.28403      185.88827      524.78697    
     83000  -66746.162      353.51929     -66392.643      189.30536      185.90788      524.97247    
     83100  -66749.929      356.88527     -66393.043      189.32874      185.92789      525.15798    
     83200  -66762.29       364.34331     -66397.947      189.35503      185.95214      525.34348    
     83300  -66770.726      354.74866     -66415.978      189.37945      185.98636      525.52898    
     83400  -66781.16       347.28339     -66433.876      189.40068      186.01124      525.71448    
     83500  -66782.93       347.46175     -66435.468      189.4239       186.0379       525.89999    
     83600  -66788.323      365.003       -66423.32       189.44336      186.0579       526.08549    
     83700  -66789.429      367.15448     -66422.274      189.45977      186.07929      526.27099    
     83800  -66793.154      356.01788     -66437.136      189.47371      186.09697      526.45649    
     83900  -66804.748      351.83932     -66452.909      189.47747      186.11188      526.642      
     84000  -66802.171      343.78024     -66458.39       189.4661       186.12616      526.8275     
     84100  -66802.948      360.24046     -66442.707      189.45396      186.14559      527.013      
     84200  -66794.08       363.74716     -66430.333      189.44469      186.17635      527.1985     
     84300  -66810.215      370.41218     -66439.803      189.42709      186.1967       527.38401    
     84400  -66821.441      350.71955     -66470.721      189.41653      186.21946      527.56951    
     84500  -66838.394      348.29762     -66490.097      189.40555      186.24766      527.75501    
     84600  -66839.901      349.66438     -66490.237      189.39374      186.27084      527.94051    
     84700  -66837.66       358.03904     -66479.621      189.38866      186.29456      528.12602    
     84800  -66842.845      365.77516     -66477.07       189.39266      186.31985      528.31152    
     84900  -66842.444      350.18182     -66492.262      189.39707      186.34276      528.49702    
     85000  -66855.121      352.3256      -66502.795      189.40408      186.36156      528.68253    
     85100  -66870.474      359.26221     -66511.212      189.41634      186.38676      528.86803    
     85200  -66872.357      352.77484     -66519.582      189.42988      186.40303      529.05353    
     85300  -66869.531      350.57162     -66518.959      189.44909      186.41698      529.23903    
     85400  -66862.499      353.68095     -66508.818      189.46699      186.42726      529.42454    
     85500  -66856.799      360.2311      -66496.567      189.48591      186.43202      529.61004    
     85600  -66846.797      357.04276     -66489.754      189.5118       186.43906      529.79554    
     85700  -66848.23       358.18883     -66490.041      189.54258      186.44872      529.98104    
     85800  -66842.992      350.44042     -66492.552      189.56957      186.45346      530.16655    
     85900  -66847.86       359.09115     -66488.769      189.60281      186.46654      530.35205    
     86000  -66852.161      367.56001     -66484.601      189.63325      186.47829      530.53755    
     86100  -66851.368      360.37797     -66490.99       189.65565      186.48254      530.72305    
     86200  -66853.362      351.76475     -66501.598      189.67334      186.48587      530.90856    
     86300  -66841.357      340.91809     -66500.438      189.6905       186.49039      531.09406    
     86400  -66836.805      356.47176     -66480.334      189.7061       186.49327      531.27956    
     86500  -66828.08       365.43455     -66462.646      189.72172      186.49948      531.46507    
     86600  -66824.259      363.73939     -66460.52       189.72425      186.49776      531.65057    
     86700  -66826.792      355.92918     -66470.862      189.72682      186.50023      531.83607    
     86800  -66837.148      356.6134      -66480.535      189.73058      186.50784      532.02157    
     86900  -66841.827      356.52509     -66485.302      189.73206      186.5153       532.20708    
     87000  -66836.545      349.2017      -66487.343      189.72856      186.52368      532.39258    
     87100  -66841.142      356.91743     -66484.225      189.7206       186.53131      532.57808    
     87200  -66842.016      362.4433      -66479.572      189.7155       186.53671      532.76358    
     87300  -66844.782      360.81874     -66483.963      189.71817      186.54812      532.94909    
     87400  -66852.999      353.12371     -66499.875      189.71953      186.55442      533.13459    
     87500  -66866.259      350.24882     -66516.011      189.72073      186.5606       533.32009    
     87600  -66876.916      354.65342     -66522.263      189.72757      186.57354      533.50559    
     87700  -66871.739      353.2459      -66518.493      189.7259       186.57577      533.6911     
     87800  -66871.263      358.6182      -66512.645      189.72946      186.58201      533.8766     
     87900  -66871.039      358.43815     -66512.601      189.74075      186.59623      534.0621     
     88000  -66875.532      356.23617     -66519.296      189.74849      186.60155      534.2476     
     88100  -66874.56       348.94844     -66525.611      189.754        186.60867      534.43311    
     88200  -66870.732      351.08108     -66519.651      189.76572      186.61952      534.61861    
     88300  -66865.422      359.14606     -66506.276      189.77954      186.63002      534.80411    
     88400  -66859.415      359.81132     -66499.604      189.78946      186.6364       534.98962    
     88500  -66860.9        356.85893     -66504.041      189.79648      186.644        535.17512    
     88600  -66862.039      352.19963     -66509.84       189.80473      186.65296      535.36062    
     88700  -66856.196      348.89826     -66507.297      189.81354      186.65994      535.54612    
     88800  -66856.487      359.50459     -66496.983      189.82141      186.66421      535.73163    
     88900  -66850.41       363.8414      -66486.569      189.82965      186.66809      535.91713    
     89000  -66850.72       360.941       -66489.779      189.83887      186.67332      536.10263    
     89100  -66858.784      356.17455     -66502.609      189.84501      186.67478      536.28813    
     89200  -66859.007      349.99706     -66509.01       189.85312      186.67895      536.47364    
     89300  -66857.38       351.98445     -66505.395      189.86275      186.68629      536.65914    
     89400  -66855.219      359.21332     -66496.005      189.86997      186.68768      536.84464    
     89500  -66849.273      359.72789     -66489.545      189.87729      186.68758      537.03014    
     89600  -66853.156      360.32432     -66492.831      189.88656      186.68993      537.21565    
     89700  -66857.727      353.87626     -66503.851      189.89706      186.69001      537.40115    
     89800  -66865.885      350.69694     -66515.188      189.90842      186.68716      537.58665    
     89900  -66873.759      354.00448     -66519.755      189.91701      186.68146      537.77215    
     90000  -66871.125      355.13395     -66515.991      189.92747      186.67635      537.95766    
     90100  -66864.266      358.2625      -66506.003      189.93692      186.67197      538.14316    
     90200  -66860.256      361.93934     -66498.317      189.9428       186.66837      538.32866    
     90300  -66864.508      360.63727     -66503.87       189.95253      186.66801      538.51417    
     90400  -66863.237      348.67509     -66514.562      189.96021      186.66498      538.69967    
     90500  -66871.519      354.52165     -66516.997      189.9613       186.66102      538.88517    
     90600  -66861.612      353.56077     -66508.052      189.97212      186.66467      539.07067    
     90700  -66858.578      361.0449      -66497.533      189.98376      186.67044      539.25618    
     90800  -66855.883      359.59411     -66496.289      189.98488      186.67175      539.44168    
     90900  -66862.569      358.02162     -66504.547      189.98644      186.67802      539.62718    
     91000  -66867.822      351.82843     -66515.993      189.98703      186.68655      539.81268    
     91100  -66875.828      353.11159     -66522.716      189.98428      186.69554      539.99819    
     91200  -66873.612      353.08364     -66520.529      189.98207      186.70572      540.18369    
     91300  -66862.407      350.66957     -66511.738      189.97747      186.71545      540.36919    
     91400  -66857.269      357.44893     -66499.82       189.97016      186.72416      540.55469    
     91500  -66856.298      361.29509     -66495.003      189.96506      186.73572      540.7402     
     91600  -66858.924      357.84408     -66501.08       189.95596      186.74528      540.9257     
     91700  -66864.369      353.46967     -66510.899      189.94725      186.75347      541.1112     
     91800  -66866.212      349.36874     -66516.843      189.94275      186.76449      541.2967     
     91900  -66863.695      350.48047     -66513.214      189.93418      186.77013      541.48221    
     92000  -66859.77       356.16494     -66503.605      189.92617      186.77481      541.66771    
     92100  -66864.467      364.47294     -66499.994      189.92392      186.78439      541.85321    
     92200  -66863.566      355.18178     -66508.384      189.91625      186.78981      542.03872    
     92300  -66873.4        353.04661     -66520.354      189.9109       186.79671      542.22422    
     92400  -66877.825      352.89529     -66524.93       189.90993      186.80974      542.40972    
     92500  -66870.013      351.63753     -66518.375      189.89965      186.81814      542.59522    
     92600  -66858.179      354.23969     -66503.94       189.88863      186.82916      542.78073    
     92700  -66854.651      363.80375     -66490.847      189.8833       186.84425      542.96623    
     92800  -66852.069      359.86857     -66492.2        189.87328      186.85458      543.15173    
     92900  -66861.068      355.508       -66505.56       189.86356      186.86358      543.33723    
     93000  -66867.04       347.75643     -66519.283      189.85663      186.87452      543.52274    
     93100  -66874.091      350.58378     -66523.507      189.84632      186.88391      543.70824    
     93200  -66871.74       352.50341     -66519.237      189.83454      186.89008      543.89374    
     93300  -66862.334      353.85649     -66508.477      189.82732      186.89677      544.07924    
     93400  -66864.708      362.01641     -66502.692      189.82033      186.90595      544.26475    
     93500  -66867.906      359.62907     -66508.277      189.81042      186.91219      544.45025    
     93600  -66872.46       353.92048     -66518.54       189.80072      186.91663      544.63575    
     93700  -66871.4        349.64672     -66521.753      189.79497      186.92023      544.82126    
     93800  -66863.475      348.63712     -66514.838      189.79098      186.92077      545.00676    
     93900  -66856.713      354.69507     -66502.018      189.78454      186.91785      545.19226    
     94000  -66856.727      363.15037     -66493.576      189.78067      186.91405      545.37776    
     94100  -66860.073      365.44625     -66494.627      189.77931      186.91079      545.56327    
     94200  -66861.189      354.46969     -66506.719      189.77916      186.90408      545.74877    
     94300  -66871.36       353.79219     -66517.567      189.77922      186.89156      545.93427    
     94400  -66865.275      348.23178     -66517.044      189.78618      186.88174      546.11977    
     94500  -66861.839      355.2875      -66506.552      189.79362      186.86984      546.30528    
     94600  -66864.155      365.77482     -66498.38       189.79983      186.85487      546.49078    
     94700  -66859.545      357.52809     -66502.017      189.80925      186.84077      546.67628    
     94800  -66871.376      357.44085     -66513.936      189.81776      186.82454      546.86178    
     94900  -66871.766      350.32366     -66521.443      189.82141      186.80658      547.04729    
     95000  -66867.314      349.40513     -66517.909      189.8285       186.79206      547.23279    
     95100  -66864.27       357.85661     -66506.413      189.83707      186.77905      547.41829    
     95200  -66863.362      364.52507     -66498.837      189.84068      186.76319      547.60379    
     95300  -66868.254      364.98764     -66503.267      189.84371      186.75044      547.7893     
     95400  -66870.148      351.18346     -66518.964      189.84942      186.73847      547.9748     
     95500  -66882.53       350.58321     -66531.947      189.85079      186.72527      548.1603     
     95600  -66880.348      351.06824     -66529.279      189.8503       186.71617      548.34581    
     95700  -66872.046      359.69434     -66512.351      189.84753      186.70895      548.53131    
     95800  -66863.127      367.40497     -66495.722      189.84202      186.70276      548.71681    
     95900  -66852.684      359.1635      -66493.521      189.83368      186.69546      548.90231    
     96000  -66868.257      359.31415     -66508.943      189.82806      186.6905       549.08782    
     96100  -66872.631      346.8445      -66525.787      189.82323      186.68585      549.27332    
     96200  -66870.371      342.47102     -66527.9        189.81543      186.6779       549.45882    
     96300  -66868.996      356.64526     -66512.351      189.81128      186.67165      549.64432    
     96400  -66855.885      363.786       -66492.099      189.80725      186.6659       549.82983    
     96500  -66856.5        370.03836     -66486.462      189.80169      186.65767      550.01533    
     96600  -66858.967      357.28661     -66501.681      189.79531      186.65019      550.20083    
     96700  -66867.493      344.39872     -66523.095      189.78408      186.64171      550.38633    
     96800  -66875.73       344.3497      -66531.381      189.7727       186.63553      550.57184    
     96900  -66869.371      351.60544     -66517.766      189.76201      186.6318       550.75734    
     97000  -66855.393      362.39972     -66492.993      189.74847      186.62675      550.94284    
     97100  -66847.698      368.38587     -66479.312      189.73381      186.62246      551.12834    
     97200  -66847.995      357.19381     -66490.801      189.72127      186.62527      551.31385    
     97300  -66864.442      348.80446     -66515.638      189.70231      186.62586      551.49935    
     97400  -66874.972      343.94671     -66531.025      189.6793       186.62619      551.68485    
     97500  -66875.873      349.62189     -66526.251      189.66028      186.63223      551.87036    
     97600  -66870.66       360.95517     -66509.705      189.63514      186.63656      552.05586    
     97700  -66865.288      364.08985     -66501.198      189.6068       186.63758      552.24136    
     97800  -66871.719      361.9791      -66509.739      189.58014      186.64195      552.42686    
     97900  -66879.757      353.66761     -66526.09       189.55392      186.64779      552.61237    
     98000  -66880.409      346.76862     -66533.64       189.5256       186.65081      552.79787    
     98100  -66879.259      356.17508     -66523.084      189.50059      186.65387      552.98337    
     98200  -66855.838      353.23        -66502.608      189.47709      186.65779      553.16887    
     98300  -66854.221      365.35366     -66488.868      189.45056      186.65533      553.35438    
     98400  -66851.897      357.4683      -66494.429      189.42611      186.65358      553.53988    
     98500  -66865.137      353.25125     -66511.885      189.40345      186.6517       553.72538    
     98600  -66866.865      341.26804     -66525.597      189.37853      186.64385      553.91088    
     98700  -66869.95       347.80138     -66522.149      189.35688      186.6357       554.09639    
     98800  -66862.16       358.15448     -66504.005      189.33946      186.62767      554.28189    
     98900  -66851.993      365.13753     -66486.855      189.32113      186.61553      554.46739    
     99000  -66855.556      367.28563     -66488.27       189.30769      186.6064       554.6529     
     99100  -66857.982      352.21527     -66505.767      189.29253      186.59641      554.8384     
     99200  -66872.047      349.86393     -66522.183      189.27764      186.58636      555.0239     
     99300  -66876.358      352.10007     -66524.258      189.26196      186.57721      555.2094     
     99400  -66864.574      353.99648     -66510.578      189.24735      186.56732      555.39491    
     99500  -66860.849      365.79072     -66495.059      189.23356      186.55683      555.58041    
     99600  -66853.362      361.0627      -66492.299      189.2199       186.54182      555.76591    
     99700  -66873.81       367.25899     -66506.551      189.20909      186.52542      555.95141    
     99800  -66873.773      347.64097     -66526.132      189.19991      186.50694      556.13692    
     99900  -66878.679      346.42203     -66532.257      189.1893       186.48412      556.32242    
    100000  -66874.716      354.28724     -66520.429      189.18316      186.46334      556.50792    
Loop time of 33651.7 on 12 procs for 100000 steps with 9180 atoms

Performance: 0.257 ns/day, 93.477 hours/ns, 2.972 timesteps/s, 27.279 katom-step/s
38.9% CPU use with 12 MPI tasks x 1 OpenMP threads

MPI task timing breakdown:
Section |  min time  |  avg time  |  max time  |%varavg| %total
---------------------------------------------------------------
Pair    | 2228.2     | 2399.1     | 2720.8     | 271.2 |  7.13
Neigh   | 9.0153     | 10.918     | 15.052     |  57.6 |  0.03
Comm    | 4780.8     | 5391.6     | 5719.8     | 312.5 | 16.02
Output  | 98.003     | 100.49     | 103.58     |  17.6 |  0.30
Modify  | 22614      | 22881      | 23158      | 112.5 | 67.99
Other   |            | 2868       |            |       |  8.52

Nlocal:            765 ave        1102 max         517 min
Histogram: 4 0 0 4 0 0 0 0 2 2
Nghost:        2727.17 ave        3514 max        2219 min
Histogram: 4 3 1 0 0 0 0 0 0 4
Neighs:              0 ave           0 max           0 min
Histogram: 12 0 0 0 0 0 0 0 0 0

Total # of neighbors = 0
Ave neighs/atom = 0
Neighbor list builds = 543
Dangerous builds = 0
Total wall time: 9:21:02
