LAMMPS (2 Aug 2023 - Update 3)
OMP_NUM_THREADS environment is not set. Defaulting to 1 thread. (src/comm.cpp:98)
  using 1 OpenMP thread(s) per MPI task

# 1------general---------------
units                             metal      #单位为lammps 中的metel 类型
dimension                    3          #模拟的维度 三维
boundary                    p p p      #周期边界条件
atom_style                  atomic   #原子类型自动
atom_modify              map array sort 100 2.0
neighbor                    3.0 bin
neigh_modify            every 1 delay 0 check yes
#2 -----global variable-------定义全局变量，方便统一修改；
variable temperature equal 300
variable tstep equal 0.001
variable pressure equal 0
variable thermalstep equal 100
variable dumpstep equal 1000
variable relaxtime equal 0
variable totaltime equal 200000
variable deformrate equal 5e-3
#3 -------model------------
#box tilt large
read_data     1.lmp
Reading data file ...
  orthogonal box = (-100 -100 -2.3312515) to (100 100 46.166171)
  3 by 4 by 1 MPI processor grid
  reading atoms ...
  1320 atoms
  read_data CPU = 0.010 seconds
replicate 1 1 5
Replication is creating a 1x1x5 = 5 times larger system...
  orthogonal box = (-100 -100 -2.3312515) to (100 100 240.15586)
  2 by 2 by 3 MPI processor grid
  6600 atoms
  replicate CPU = 0.060 seconds
write_data z.data
System init for write_data ...
WARNING: Communication cutoff is 0.0. No ghost atoms will be generated. Atoms may get lost. (src/comm_brick.cpp:210)
pair_style hybrid airebo 3.0 airebo 3.0 airebo 3.0 lj/cut 10
pair_coeff * * airebo 1 CH.airebo C NULL NULL
Reading airebo potential file CH.airebo with DATE: 2011-10-25
pair_coeff * * airebo 2 CH.airebo NULL C NULL
Reading airebo potential file CH.airebo with DATE: 2011-10-25
pair_coeff * * airebo 3 CH.airebo NULL NULL C
Reading airebo potential file CH.airebo with DATE: 2011-10-25
pair_coeff 1 2 lj/cut 0.00456 3.431
pair_coeff 1 3 lj/cut 0.00456 3.431
pair_coeff 2 3 lj/cut 0.00456 3.431

# 5------minimize -----------
min_style      sd
minimize       1.0e-4 1.0e-6 100 1000
Neighbor list info ...
  update: every = 1 steps, delay = 0 steps, check = yes
  max neighbors/atom: 2000, page size: 100000
  master list distance cutoff = 13.2
  ghost atom cutoff = 13.2
  binsize = 6.6, bins = 31 31 37
  6 neighbor lists, perpetual/occasional/extra = 6 0 0
  (1) pair airebo, perpetual, skip from (5)
      attributes: full, newton on, ghost
      pair build: skip/ghost
      stencil: none
      bin: none
  (2) pair airebo, perpetual, skip from (5)
      attributes: full, newton on, ghost
      pair build: skip/ghost
      stencil: none
      bin: none
  (3) pair airebo, perpetual, skip from (5)
      attributes: full, newton on, ghost
      pair build: skip/ghost
      stencil: none
      bin: none
  (4) pair lj/cut, perpetual, skip from (6)
      attributes: half, newton on, cut 13
      pair build: skip
      stencil: none
      bin: none
  (5) neighbor class addition, perpetual
      attributes: full, newton on, ghost
      pair build: full/bin/ghost
      stencil: full/ghost/bin/3d
      bin: standard
  (6) neighbor class addition, perpetual
      attributes: half, newton on, cut 13
      pair build: half/bin/atomonly/newton
      stencil: half/bin/3d
      bin: standard
Per MPI rank memory allocation (min/avg/max) = 11.61 | 11.8 | 11.99 Mbytes
   Step          Temp          E_pair         E_mol          TotEng         Press     
         0   0             -40338.473      0             -40338.473      5481.8219    
        30   0             -47717.666      0             -47717.666      34.778352    
Loop time of 3.00792 on 12 procs for 30 steps with 6600 atoms

71.9% CPU use with 12 MPI tasks x 1 OpenMP threads

Minimization stats:
  Stopping criterion = energy tolerance
  Energy initial, next-to-last, final = 
     -40338.4725402468  -47714.6203587053  -47717.6656816402
  Force two-norm initial, final = 4398.5172 22.120203
  Force max component initial, final = 534.82797 1.9411106
  Final line search alpha, max atom move = 0.051917894 0.10077838
  Iterations, force evaluations = 30 54

MPI task timing breakdown:
Section |  min time  |  avg time  |  max time  |%varavg| %total
---------------------------------------------------------------
Pair    | 0.42118    | 0.53351    | 0.73969    |  11.0 | 17.74
Neigh   | 0          | 0          | 0          |   0.0 |  0.00
Comm    | 0.8731     | 1.0542     | 1.198      |   7.4 | 35.05
Output  | 0          | 0          | 0          |   0.0 |  0.00
Modify  | 0          | 0          | 0          |   0.0 |  0.00
Other   |            | 1.42       |            |       | 47.22

Nlocal:            550 ave         586 max         515 min
Histogram: 3 0 0 0 2 4 0 0 0 3
Nghost:        2370.33 ave        2415 max        2328 min
Histogram: 2 0 1 2 2 0 2 0 2 1
Neighs:              0 ave           0 max           0 min
Histogram: 12 0 0 0 0 0 0 0 0 0

Total # of neighbors = 0
Ave neighs/atom = 0
Neighbor list builds = 0
Dangerous builds = 0
#6----define computes------
variable nums equal count(all) #计算原子数目
variable toval equal 16.0428*16.0428*lz #计算系统总体积，单层石墨烯厚度为0.335nm
variable vol equal ${toval} #体系的初始体积
variable vol equal 62409.2559903007 
variable vatom equal v_vol/v_nums #单个原子体积
compute 1 all stress/atom NULL #计算体系中单原子应力
compute xalls all reduce sum c_1[1]
variable xstress equal (c_xalls)/(v_toval*10000)
compute yalls all reduce sum c_1[2]
variable ystress equal (c_yalls)/(v_toval*10000)
compute zalls all reduce sum c_1[3]
variable zstress equal (c_zalls)/(v_toval*10000)
#7---------relaxation-------------------------
timestep ${tstep}
timestep 0.001
velocity all create ${temperature} 231743 units box dist gaussian
velocity all create 300 231743 units box dist gaussian
dump   1 all atom 100 all-cy.lammpstrj
#fix    1 all npt temp 300 300  0.1 aniso 0 0 10 drag 1  #三个方向独立控压
fix  1 all npt temp ${temperature} ${temperature} 0.1 x ${pressure} ${pressure} 10 y ${pressure} ${pressure} 10
fix  1 all npt temp 300 ${temperature} 0.1 x ${pressure} ${pressure} 10 y ${pressure} ${pressure} 10
fix  1 all npt temp 300 300 0.1 x ${pressure} ${pressure} 10 y ${pressure} ${pressure} 10
fix  1 all npt temp 300 300 0.1 x 0 ${pressure} 10 y ${pressure} ${pressure} 10
fix  1 all npt temp 300 300 0.1 x 0 0 10 y ${pressure} ${pressure} 10
fix  1 all npt temp 300 300 0.1 x 0 0 10 y 0 ${pressure} 10
fix  1 all npt temp 300 300 0.1 x 0 0 10 y 0 0 10
compute  2 all pe/atom
compute  pe all reduce sum c_2
variable PE equal "c_pe"
fix    pe all print 100 "${PE} " file PE.txt screen no
thermo  ${thermalstep}
thermo  100
#thermo_style  custom step pe ke etotal lx ly lz
run   ${relaxtime}
run   0
Per MPI rank memory allocation (min/avg/max) = 12.23 | 12.52 | 12.62 Mbytes
   Step          Temp          E_pair         E_mol          TotEng         Press          Volume    
        30   300           -47717.666      0             -47461.769      62.957928      9699484.6    
Loop time of 0.0315781 on 12 procs for 0 steps with 6600 atoms

56.8% CPU use with 12 MPI tasks x 1 OpenMP threads

MPI task timing breakdown:
Section |  min time  |  avg time  |  max time  |%varavg| %total
---------------------------------------------------------------
Pair    | 0          | 0          | 0          |   0.0 |  0.00
Neigh   | 0          | 0          | 0          |   0.0 |  0.00
Comm    | 0          | 0          | 0          |   0.0 |  0.00
Output  | 0          | 0          | 0          |   0.0 |  0.00
Modify  | 0          | 0          | 0          |   0.0 |  0.00
Other   |            | 0.03158    |            |       |100.00

Nlocal:            550 ave         554 max         543 min
Histogram: 1 1 0 0 3 1 0 0 1 5
Nghost:        2368.67 ave        2385 max        2358 min
Histogram: 3 2 2 1 0 0 0 0 3 1
Neighs:              0 ave           0 max           0 min
Histogram: 12 0 0 0 0 0 0 0 0 0

Total # of neighbors = 0
Ave neighs/atom = 0
Neighbor list builds = 0
Dangerous builds = 0
#8 -------tension-----------------------------
unfix  1
undump  1
unfix  pe
reset_timestep 0
fix avestress all ave/atom 1 ${dumpstep} ${dumpstep} c_1[1] c_1[2] c_1[3] c_1[4] c_1[5] c_1[6]
fix avestress all ave/atom 1 1000 ${dumpstep} c_1[1] c_1[2] c_1[3] c_1[4] c_1[5] c_1[6]
fix avestress all ave/atom 1 1000 1000 c_1[1] c_1[2] c_1[3] c_1[4] c_1[5] c_1[6]

#-----calculation of strain and Cumulative compression--------
variable                tmp equal "lz"
variable                L0 equal ${tmp}
variable                L0 equal 242.487115
variable                strain equal "(lz - v_L0)/v_L0"
variable                Cumulativels equal "(lz - v_L0)/10"
fix Step all print 100 "${strain} ${Cumulativels} ${zstress}" file grapoten.txt screen no

dump 2 all custom ${dumpstep} tension.xyz type x y z f_avestress[1] f_avestress[2] f_avestress[3] f_avestress[4] f_avestress[5] f_avestress[6]
dump 2 all custom 1000 tension.xyz type x y z f_avestress[1] f_avestress[2] f_avestress[3] f_avestress[4] f_avestress[5] f_avestress[6]

fix  1 all npt temp ${temperature} ${temperature} 0.1 y ${pressure} ${pressure} 10 x ${pressure} ${pressure} 10
fix  1 all npt temp 300 ${temperature} 0.1 y ${pressure} ${pressure} 10 x ${pressure} ${pressure} 10
fix  1 all npt temp 300 300 0.1 y ${pressure} ${pressure} 10 x ${pressure} ${pressure} 10
fix  1 all npt temp 300 300 0.1 y 0 ${pressure} 10 x ${pressure} ${pressure} 10
fix  1 all npt temp 300 300 0.1 y 0 0 10 x ${pressure} ${pressure} 10
fix  1 all npt temp 300 300 0.1 y 0 0 10 x 0 ${pressure} 10
fix  1 all npt temp 300 300 0.1 y 0 0 10 x 0 0 10

thermo_style custom step pe ke etotal lx ly lz
fix   2 all deform 1 z erate ${deformrate} remap x units box
fix   2 all deform 1 z erate 0.005 remap x units box
fix   3 all ave/time 2 500 1000 v_xstress v_ystress v_zstress file pressure.out
run   ${totaltime}
run   200000
WARNING: Dump 2 includes no atom IDs and is not sorted by ID. This may complicate post-processing tasks or visualization (src/dump.cpp:221)
Per MPI rank memory allocation (min/avg/max) = 13.73 | 14.02 | 14.12 Mbytes
   Step         PotEng         KinEng         TotEng           Lx             Ly             Lz      
         0  -47717.666      255.89631     -47461.769      200            200            242.48711    
       100  -47714.645      269.37642     -47445.269      200.0261       199.93534      242.60836    
       200  -47687.822      228.54002     -47459.282      200.02786      199.80403      242.7296     
       300  -47630.584      187.72148     -47442.863      200.13886      199.73654      242.85085    
       400  -47649.273      229.24926     -47420.024      200.15842      199.64753      242.97209    
       500  -47671.762      258.49617     -47413.266      200.22679      199.66718      243.09333    
       600  -47648.97       225.24664     -47423.723      200.19839      199.69937      243.21458    
       700  -47681.247      272.68057     -47408.567      200.17315      199.76604      243.33582    
       800  -47686.474      267.09908     -47419.375      200.00693      199.78572      243.45706    
       900  -47678.576      246.39086     -47432.186      199.95492      199.85321      243.57831    
      1000  -47667.28       244.59138     -47422.689      199.91634      199.9028       243.69955    
      1100  -47650.064      245.20735     -47404.857      199.86483      199.91776      243.82079    
      1200  -47646.285      257.65908     -47388.626      199.89066      199.95462      243.94204    
      1300  -47667.677      279.21503     -47388.462      199.904        199.90826      244.06328    
      1400  -47677.2        268.25963     -47408.94       199.91857      199.83135      244.18452    
      1500  -47678.756      254.88323     -47423.872      199.95353      199.75408      244.30577    
      1600  -47673.712      245.3252      -47428.387      200.01596      199.71741      244.42701    
      1700  -47657.978      244.65803     -47413.32       199.99984      199.71616      244.54826    
      1800  -47665.745      269.02314     -47396.722      199.9443       199.75458      244.6695     
      1900  -47667.98       263.6981      -47404.282      199.90268      199.81651      244.79074    
      2000  -47663.392      247.97844     -47415.413      199.81195      199.83558      244.91199    
      2100  -47664.124      248.45132     -47415.673      199.79945      199.87549      245.03323    
      2200  -47651.988      246.09406     -47405.894      199.76813      199.86458      245.15447    
      2300  -47648.567      259.74709     -47388.82       199.76972      199.85073      245.27572    
      2400  -47648.852      268.43634     -47380.416      199.79496      199.83362      245.39696    
      2500  -47654.545      263.46762     -47391.078      199.80777      199.78663      245.5182     
      2600  -47660.37       257.55572     -47402.815      199.83568      199.74339      245.63945    
      2700  -47659.491      250.0725      -47409.418      199.84943      199.70242      245.76069    
      2800  -47646.682      243.12226     -47403.56       199.86102      199.68822      245.88193    
      2900  -47647.587      258.51145     -47389.075      199.82957      199.6957       246.00318    
      3000  -47648.413      266.40875     -47382.005      199.78362      199.73057      246.12442    
      3100  -47645.807      257.5826      -47388.224      199.7387       199.76615      246.24567    
      3200  -47643.763      251.06401     -47392.699      199.69795      199.78522      246.36691    
      3300  -47639.112      252.05809     -47387.054      199.69004      199.79521      246.48815    
      3400  -47629.212      252.76316     -47376.449      199.67823      199.77174      246.6094     
      3500  -47629.811      261.95304     -47367.858      199.69239      199.74945      246.73064    
      3600  -47632.367      263.34219     -47369.025      199.70396      199.71755      246.85188    
      3700  -47631.767      254.37863     -47377.389      199.72451      199.68533      246.97313    
      3800  -47634.156      254.33475     -47379.822      199.7388       199.65927      247.09437    
      3900  -47628.578      251.50053     -47377.078      199.73981      199.64568      247.21561    
      4000  -47624.343      255.19337     -47369.15       199.72019      199.64853      247.33686    
      4100  -47622.688      260.29896     -47362.389      199.67682      199.66214      247.4581     
      4200  -47621.807      258.31873     -47363.488      199.64602      199.68699      247.57934    
      4300  -47619.921      253.72811     -47366.192      199.62094      199.70246      247.70059    
      4400  -47614.684      252.41776     -47362.267      199.6132       199.70713      247.82183    
      4500  -47610.222      256.95194     -47353.27       199.6097       199.69579      247.94308    
      4600  -47601.848      254.10435     -47347.744      199.6088       199.672        248.06432    
      4700  -47601.415      255.93706     -47345.478      199.6148       199.64709      248.18556    
      4800  -47611.32       262.42029     -47348.899      199.62149      199.62015      248.30681    
      4900  -47603.631      253.05723     -47350.573      199.63736      199.60475      248.42805    
      5000  -47596.54       252.00917     -47344.531      199.63744      199.59298      248.54929    
      5100  -47593.718      257.29606     -47336.422      199.62357      199.59183      248.67054    
      5200  -47592.463      257.54171     -47334.921      199.59511      199.59958      248.79178    
      5300  -47592.391      257.53406     -47334.857      199.56107      199.61194      248.91302    
      5400  -47590.141      254.33915     -47335.802      199.53993      199.62719      249.03427    
      5500  -47584.279      246.45194     -47337.827      199.52562      199.63173      249.15551    
      5600  -47585.186      256.20271     -47328.983      199.51949      199.62854      249.27675    
      5700  -47575.395      254.69662     -47320.698      199.51358      199.61138      249.398      
      5800  -47567.8        253.00828     -47314.792      199.51799      199.592        249.51924    
      5900  -47570.873      259.73593     -47311.137      199.52055      199.56971      249.64048    
      6000  -47569.807      255.61687     -47314.19       199.52604      199.55186      249.76173    
      6100  -47570.096      257.67212     -47312.424      199.52624      199.54218      249.88297    
      6200  -47560.61       253.19361     -47307.417      199.51345      199.53932      250.00422    
      6300  -47556.052      257.29632     -47298.756      199.49328      199.54333      250.12546    
      6400  -47553.183      259.1072      -47294.076      199.46839      199.55109      250.2467     
      6500  -47552.571      257.20915     -47295.362      199.44665      199.56003      250.36795    
      6600  -47546.848      252.81483     -47294.033      199.42799      199.56268      250.48919    
      6700  -47540.896      253.77016     -47287.125      199.41975      199.56077      250.61043    
      6800  -47535.449      257.06648     -47278.382      199.41073      199.5476       250.73168    
      6900  -47535.542      260.48233     -47275.06       199.41224      199.53148      250.85292    
      7000  -47534.725      257.88445     -47276.84       199.41538      199.5117       250.97416    
      7100  -47532.528      256.86068     -47275.668      199.41921      199.49469      251.09541    
      7200  -47523.949      253.42141     -47270.527      199.41682      199.48205      251.21665    
      7300  -47520.584      258.8703      -47261.714      199.40508      199.47497      251.33789    
      7400  -47515.106      257.73651     -47257.369      199.38696      199.47321      251.45914    
      7500  -47511.506      256.7546      -47254.752      199.36714      199.47688      251.58038    
      7600  -47507.089      253.6703      -47253.419      199.35167      199.48329      251.70163    
      7700  -47503.082      252.8117      -47250.271      199.33253      199.48336      251.82287    
      7800  -47502.537      257.90993     -47244.627      199.32132      199.4811       251.94411    
      7900  -47497.166      258.06496     -47239.101      199.30928      199.4692       252.06536    
      8000  -47490.268      258.02603     -47232.242      199.30615      199.45607      252.1866     
      8100  -47485.028      258.55204     -47226.476      199.30452      199.44193      252.30784    
      8200  -47481.411      256.50466     -47224.906      199.30312      199.42675      252.42909    
      8300  -47480.887      255.16886     -47225.718      199.30251      199.41689      252.55033    
      8400  -47477.079      256.02306     -47221.056      199.28834      199.40408      252.67157    
      8500  -47473.125      259.49336     -47213.631      199.27759      199.39994      252.79282    
      8600  -47466.638      258.81564     -47207.823      199.25678      199.39573      252.91406    
      8700  -47460.841      257.53399     -47203.307      199.24228      199.39857      253.0353     
      8800  -47453.343      255.13772     -47198.205      199.22854      199.4          253.15655    
      8900  -47448.126      256.3403      -47191.786      199.21068      199.39434      253.27779    
      9000  -47440.878      257.10679     -47183.771      199.20545      199.38632      253.39904    
      9100  -47435.669      256.67721     -47178.992      199.19563      199.3664       253.52028    
      9200  -47435.813      255.06571     -47180.747      199.19812      199.35039      253.64152    
      9300  -47432.929      254.9103      -47178.018      199.19703      199.3319       253.76277    
      9400  -47426.127      254.14191     -47171.985      199.1911       199.31955      253.88401    
      9500  -47416.502      256.09764     -47160.405      199.17963      199.31219      254.00525    
      9600  -47415.36       261.962       -47153.398      199.15835      199.30821      254.1265     
      9700  -47408.974      256.81084     -47152.163      199.13908      199.30826      254.24774    
      9800  -47403.936      253.13993     -47150.796      199.12057      199.30722      254.36898    
      9900  -47401.817      256.2987      -47145.519      199.10459      199.30476      254.49023    
     10000  -47392.708      255.97911     -47136.729      199.09031      199.2973       254.61147    
     10100  -47384.891      259.06635     -47125.825      199.07927      199.28703      254.73271    
     10200  -47377.978      256.92326     -47121.055      199.07065      199.27163      254.85396    
     10300  -47377.554      258.69689     -47118.857      199.06522      199.25373      254.9752     
     10400  -47374.868      257.60192     -47117.266      199.06211      199.23782      255.09644    
     10500  -47369.289      256.13009     -47113.158      199.05391      199.22285      255.21769    
     10600  -47359.766      254.08619     -47105.68       199.04302      199.2146       255.33893    
     10700  -47349.858      256.92362     -47092.934      199.02413      199.20794      255.46018    
     10800  -47346.793      258.99795     -47087.795      199.00568      199.20214      255.58142    
     10900  -47341.356      255.38171     -47085.975      198.9918       199.19719      255.70266    
     11000  -47337.381      255.18182     -47082.2        198.9746       199.18667      255.82391    
     11100  -47331.689      253.54389     -47078.145      198.96336      199.17881      255.94515    
     11200  -47330.871      258.00933     -47072.862      198.94827      199.16597      256.06639    
     11300  -47318.938      255.71142     -47063.226      198.93753      199.15535      256.18764    
     11400  -47312.668      260.26321     -47052.404      198.9274       199.14188      256.30888    
     11500  -47305.841      258.61053     -47047.23       198.91463      199.1254       256.43012    
     11600  -47305.743      258.70258     -47047.04       198.90609      199.11382      256.55137    
     11700  -47297.866      255.15692     -47042.709      198.88827      199.09927      256.67261    
     11800  -47290.211      254.68706     -47035.524      198.87538      199.09356      256.79385    
     11900  -47280.361      254.4514      -47025.91       198.85334      199.08574      256.9151     
     12000  -47273.162      257.95316     -47015.209      198.83557      199.07841      257.03634    
     12100  -47265.138      255.94814     -47009.19       198.82165      199.06954      257.15759    
     12200  -47268.077      257.07981     -47010.997      198.80543      199.0531       257.27883    
     12300  -47258.097      251.14125     -47006.956      198.79504      199.03954      257.40007    
     12400  -47251.262      254.08098     -46997.181      198.77793      199.02332      257.52132    
     12500  -47245.125      258.54401     -46986.581      198.766        199.01207      257.64256    
     12600  -47240.822      261.04005     -46979.782      198.75143      198.99981      257.7638     
     12700  -47235.109      256.84927     -46978.259      198.73586      198.98426      257.88505    
     12800  -47231.1        254.51633     -46976.583      198.72245      198.97087      258.00629    
     12900  -47221.362      253.19154     -46968.17       198.70313      198.95545      258.12753    
     13000  -47212.097      254.92227     -46957.175      198.68756      198.94483      258.24878    
     13100  -47207.074      258.78897     -46948.285      198.66738      198.93147      258.37002    
     13200  -47196.836      254.29291     -46942.543      198.65088      198.92019      258.49126    
     13300  -47193.61       253.67905     -46939.931      198.63474      198.90777      258.61251    
     13400  -47192.184      253.61599     -46938.568      198.61314      198.89228      258.73375    
     13500  -47186.868      249.78777     -46937.08       198.59804      198.88125      258.855      
     13600  -47176.608      252.02604     -46924.582      198.57622      198.8664       258.97624    
     13700  -47166.174      253.55319     -46912.62       198.55827      198.85508      259.09748    
     13800  -47157.532      256.02747     -46901.505      198.5398       198.84115      259.21873    
     13900  -47149.939      257.2477      -46892.691      198.52063      198.82595      259.33997    
     14000  -47146.866      258.92296     -46887.943      198.50449      198.81044      259.46121    
     14100  -47139.642      253.35656     -46886.285      198.48695      198.79486      259.58246    
     14200  -47134.968      255.59357     -46879.374      198.46708      198.77837      259.7037     
     14300  -47124.292      254.97598     -46869.316      198.44968      198.76303      259.82494    
     14400  -47115.092      254.38992     -46860.702      198.42943      198.748        259.94619    
     14500  -47113.06       260.04791     -46853.012      198.40804      198.73287      260.06743    
     14600  -47100.346      254.68672     -46845.659      198.38761      198.72056      260.18867    
     14700  -47094.129      256.92006     -46837.209      198.36029      198.70585      260.30992    
     14800  -47083.548      257.82872     -46825.719      198.33876      198.69684      260.43116    
     14900  -47074.079      257.04321     -46817.036      198.31291      198.68459      260.55241    
     15000  -47073.992      259.18927     -46814.803      198.29078      198.67034      260.67365    
     15100  -47064.864      254.7743      -46810.089      198.27045      198.65518      260.79489    
     15200  -47059.275      257.17673     -46802.099      198.24788      198.63271      260.91614    
     15300  -47045.988      253.46674     -46792.521      198.23437      198.61411      261.03738    
     15400  -47036.811      258.45147     -46778.36       198.21166      198.58826      261.15862    
     15500  -47025.006      256.75217     -46768.254      198.19736      198.57285      261.27987    
     15600  -47022.402      257.48907     -46764.913      198.17462      198.55271      261.40111    
     15700  -47015.913      255.63984     -46760.273      198.15287      198.53385      261.52235    
     15800  -47010.564      256.02275     -46754.541      198.1305       198.51575      261.6436     
     15900  -47001.662      252.50934     -46749.153      198.10483      198.49454      261.76484    
     16000  -46997.878      254.17529     -46743.702      198.0844       198.47833      261.88608    
     16100  -46989.171      253.15013     -46736.021      198.05787      198.4579       262.00733    
     16200  -46974.095      251.91647     -46722.179      198.03721      198.44099      262.12857    
     16300  -46971.294      260.64527     -46710.648      198.01537      198.41912      262.24981    
     16400  -46963.255      258.62314     -46704.631      197.99274      198.39581      262.37106    
     16500  -46956.421      256.28684     -46700.134      197.97499      198.37213      262.4923     
     16600  -46948.42       254.9983      -46693.422      197.95369      198.34633      262.61355    
     16700  -46936.941      255.10758     -46681.834      197.93358      198.32274      262.73479    
     16800  -46926.859      257.9534      -46668.905      197.91014      198.29971      262.85603    
     16900  -46919.416      257.96431     -46661.452      197.88465      198.27728      262.97728    
     17000  -46914.253      255.50619     -46658.746      197.85997      198.25704      263.09852    
     17100  -46907.414      254.98427     -46652.429      197.8336       198.23566      263.21976    
     17200  -46896.62       253.74375     -46642.876      197.81063      198.21629      263.34101    
     17300  -46889.129      256.80456     -46632.325      197.78451      198.19348      263.46225    
     17400  -46875.8        258.79101     -46617.009      197.75808      198.16931      263.58349    
     17500  -46866.316      260.06153     -46606.254      197.73578      198.14652      263.70474    
     17600  -46857.481      255.86009     -46601.621      197.70573      198.11922      263.82598    
     17700  -46849.073      253.55599     -46595.517      197.6845       198.09616      263.94722    
     17800  -46848.367      258.37606     -46589.991      197.65962      198.07131      264.06847    
     17900  -46837.949      253.03465     -46584.914      197.63443      198.04449      264.18971    
     18000  -46830.408      252.67299     -46577.735      197.61303      198.02111      264.31096    
     18100  -46822.257      259.18635     -46563.07       197.58113      197.9906       264.4322     
     18200  -46805.853      254.6338      -46551.219      197.5566       197.96768      264.55344    
     18300  -46803.905      260.03564     -46543.87       197.52656      197.94129      264.67469    
     18400  -46794.948      255.32091     -46539.627      197.4975       197.91655      264.79593    
     18500  -46788.55       254.49161     -46534.058      197.47165      197.89536      264.91717    
     18600  -46776.13       254.15651     -46521.974      197.4367       197.86922      265.03842    
     18700  -46760.449      254.40448     -46506.044      197.41123      197.84952      265.15966    
     18800  -46757.627      259.88872     -46497.738      197.37733      197.82189      265.2809     
     18900  -46749.754      256.65296     -46493.101      197.35082      197.79419      265.40215    
     19000  -46739.651      252.31999     -46487.331      197.32726      197.76611      265.52339    
     19100  -46730.953      252.53373     -46478.419      197.29618      197.7326       265.64463    
     19200  -46719.712      256.33222     -46463.38       197.27226      197.70589      265.76588    
     19300  -46705.799      255.6679      -46450.131      197.23999      197.67559      265.88712    
     19400  -46704.229      260.27945     -46443.95       197.2114       197.64932      266.00837    
     19500  -46692.005      253.06042     -46438.944      197.18245      197.6235       266.12961    
     19600  -46684.195      251.95903     -46432.236      197.14964      197.59522      266.25085    
     19700  -46675.499      253.89155     -46421.607      197.11912      197.56927      266.3721     
     19800  -46665.838      255.56706     -46410.271      197.0857       197.54177      266.49334    
     19900  -46653.808      252.71767     -46401.09       197.05369      197.5137       266.61458    
     20000  -46645.626      254.68695     -46390.939      197.02341      197.48356      266.73583    
     20100  -46639.194      260.70315     -46378.491      196.99439      197.45194      266.85707    
     20200  -46629.023      261.51215     -46367.51       196.96768      197.41929      266.97831    
     20300  -46616.629      258.19361     -46358.436      196.93749      197.38477      267.09956    
     20400  -46607.302      253.45337     -46353.848      196.90965      197.35403      267.2208     
     20500  -46602.181      254.04209     -46348.139      196.87446      197.32335      267.34204    
     20600  -46595.496      257.4715      -46338.025      196.84001      197.29715      267.46329    
     20700  -46581.863      258.89196     -46322.971      196.80515      197.27276      267.58453    
     20800  -46569.761      260.06706     -46309.694      196.76451      197.24478      267.70577    
     20900  -46560.474      258.59144     -46301.882      196.73099      197.21876      267.82702    
     21000  -46551.966      256.16876     -46295.798      196.6941       197.18712      267.94826    
     21100  -46541.776      252.82728     -46288.948      196.66071      197.15508      268.06951    
     21200  -46532.862      254.32192     -46278.54       196.62937      197.12243      268.19075    
     21300  -46524.269      259.14388     -46265.125      196.59686      197.08839      268.31199    
     21400  -46504.501      256.71836     -46247.783      196.56828      197.05577      268.43324    
     21500  -46504.67       264.05513     -46240.615      196.5357       197.02087      268.55448    
     21600  -46491.581      254.74213     -46236.839      196.50459      196.98729      268.67572    
     21700  -46484.465      255.54054     -46228.925      196.46909      196.95434      268.79697    
     21800  -46474.185      254.647       -46219.538      196.43271      196.92431      268.91821    
     21900  -46461.036      253.984       -46207.052      196.39568      196.89721      269.03945    
     22000  -46448.878      257.76434     -46191.113      196.35428      196.86814      269.1607     
     22100  -46441.459      260.51722     -46180.942      196.3185       196.84008      269.28194    
     22200  -46432.376      257.29326     -46175.082      196.28236      196.80792      269.40318    
     22300  -46424.861      258.34391     -46166.517      196.24622      196.77329      269.52443    
     22400  -46409.454      253.37998     -46156.074      196.2169       196.74118      269.64567    
     22500  -46399.524      255.68344     -46143.841      196.18006      196.70183      269.76692    
     22600  -46388.999      259.08158     -46129.917      196.15242      196.66819      269.88816    
     22700  -46374.47       258.47001     -46116          196.11848      196.63224      270.0094     
     22800  -46371.761      261.2078      -46110.553      196.0822       196.59686      270.13065    
     22900  -46358.611      253.06816     -46105.543      196.0517       196.56677      270.25189    
     23000  -46350.106      254.23658     -46095.869      196.00914      196.53114      270.37313    
     23100  -46340.191      256.77984     -46083.412      195.97611      196.50397      270.49438    
     23200  -46328.795      259.79631     -46068.998      195.93356      196.47212      270.61562    
     23300  -46317.132      259.44774     -46057.685      195.89415      196.44368      270.73686    
     23400  -46305.716      253.74874     -46051.967      195.85654      196.41483      270.85811    
     23500  -46300.631      253.98956     -46046.641      195.81576      196.38226      270.97935    
     23600  -46288.79       253.64174     -46035.148      195.78301      196.35069      271.10059    
     23700  -46275.381      255.54442     -46019.836      195.74783      196.31401      271.22184    
     23800  -46264.3        257.39806     -46006.902      195.7157       196.27785      271.34308    
     23900  -46253.238      255.9023      -45997.335      195.68472      196.24225      271.46433    
     24000  -46248.55       259.19982     -45989.35       195.64964      196.20509      271.58557    
     24100  -46235.378      254.47627     -45980.902      195.61804      196.17164      271.70681    
     24200  -46222.403      252.48215     -45969.921      195.5818       196.13784      271.82806    
     24300  -46217.442      259.2366      -45958.205      195.54435      196.10593      271.9493     
     24400  -46201.378      254.49162     -45946.886      195.50839      196.07638      272.07054    
     24500  -46190.48       255.80513     -45934.675      195.46726      196.04489      272.19179    
     24600  -46177.038      255.49802     -45921.54       195.4329       196.01707      272.31303    
     24700  -46164.932      258.5438      -45906.388      195.39293      195.98526      272.43427    
     24800  -46155.384      259.64057     -45895.744      195.35813      195.95522      272.55552    
     24900  -46147.636      255.93576     -45891.7        195.3233       195.92451      272.67676    
     25000  -46137.277      254.35652     -45882.92       195.28444      195.89069      272.798      
     25100  -46124.336      252.53493     -45871.801      195.25391      195.85987      272.91925    
     25200  -46116.257      258.71872     -45857.538      195.2179       195.824        273.04049    
     25300  -46100.578      259.12525     -45841.453      195.18797      195.79173      273.16174    
     25400  -46090.089      259.31115     -45830.778      195.15362      195.75844      273.28298    
     25500  -46080.239      256.11747     -45824.121      195.11737      195.72474      273.40422    
     25600  -46070.533      255.3931      -45815.14       195.08544      195.69548      273.52547    
     25700  -46059.164      254.56237     -45804.602      195.04747      195.66465      273.64671    
     25800  -46047.706      254.87166     -45792.834      195.01165      195.63629      273.76795    
     25900  -46034.275      254.70383     -45779.572      194.97729      195.60949      273.8892     
     26000  -46023.116      258.30168     -45764.815      194.93861      195.57889      274.01044    
     26100  -46011.684      258.3156      -45753.368      194.90674      195.5516       274.13168    
     26200  -46001.26       252.88806     -45748.372      194.86854      195.51951      274.25293    
     26300  -45994.174      253.22        -45740.954      194.83648      195.4901       274.37417    
     26400  -45980.494      252.28956     -45728.205      194.80426      195.46017      274.49541    
     26500  -45965.195      252.83429     -45712.361      194.76886      195.4286       274.61666    
     26600  -45955.987      256.86981     -45699.117      194.73941      195.40294      274.7379     
     26700  -45949.588      260.70624     -45688.882      194.70297      195.37299      274.85914    
     26800  -45934.147      255.16584     -45678.981      194.6705       195.3464       274.98039    
     26900  -45922.653      254.9538      -45667.699      194.63698      195.31846      275.10163    
     27000  -45907.883      255.35326     -45652.53       194.6024       195.28965      275.22288    
     27100  -45895.512      257.73365     -45637.778      194.57248      195.26311      275.34412    
     27200  -45887.371      258.08266     -45629.289      194.53782      195.23361      275.46536    
     27300  -45877.148      253.95878     -45623.189      194.50733      195.20662      275.58661    
     27400  -45865.603      253.78867     -45611.814      194.47543      195.17961      275.70785    
     27500  -45853.67       255.61067     -45598.06       194.4415       195.15251      275.82909    
     27600  -45841.788      256.97707     -45584.811      194.41201      195.12795      275.95034    
     27700  -45829.586      258.60242     -45570.984      194.37642      195.09986      276.07158    
     27800  -45815.941      259.30398     -45556.637      194.34757      195.07548      276.19282    
     27900  -45802.924      254.8654      -45548.059      194.31653      195.04996      276.31407    
     28000  -45796.679      255.02551     -45541.654      194.28369      195.02394      276.43531    
     28100  -45786.758      255.75285     -45531.006      194.25357      195.00066      276.55655    
     28200  -45772.536      256.09947     -45516.437      194.2185       194.97547      276.6778     
     28300  -45754.324      255.76844     -45498.556      194.18735      194.9522       276.79904    
     28400  -45744.106      257.19493     -45486.911      194.15891      194.9288       276.92029    
     28500  -45734.2        256.62921     -45477.571      194.12738      194.90037      277.04153    
     28600  -45724.336      255.62991     -45468.706      194.10318      194.8757       277.16277    
     28700  -45715.555      256.77232     -45458.783      194.07465      194.84824      277.28402    
     28800  -45701.533      254.57713     -45446.956      194.04728      194.82343      277.40526    
     28900  -45691.474      261.20256     -45430.271      194.01917      194.8005       277.5265     
     29000  -45670.878      255.42186     -45415.456      193.98801      194.7764       277.64775    
     29100  -45662.757      256.70915     -45406.048      193.95992      194.75495      277.76899    
     29200  -45653.581      254.54191     -45399.039      193.92886      194.73118      277.89023    
     29300  -45642.208      253.84735     -45388.361      193.90032      194.70913      278.01148    
     29400  -45630.078      255.6207      -45374.457      193.87356      194.68706      278.13272    
     29500  -45614.704      258.62443     -45356.079      193.84502      194.66464      278.25396    
     29600  -45600.727      261.1328      -45339.594      193.8186       194.64455      278.37521    
     29700  -45588.794      257.6514      -45331.143      193.79107      194.62273      278.49645    
     29800  -45581.721      257.33821     -45324.383      193.76414      194.60087      278.6177     
     29900  -45567.383      252.63429     -45314.748      193.73858      194.57839      278.73894    
     30000  -45555.344      254.74318     -45300.601      193.71159      194.554        278.86018    
     30100  -45538.103      254.98877     -45283.114      193.68927      194.53174      278.98143    
     30200  -45529.222      259.05227     -45270.17       193.66295      194.50764      279.10267    
     30300  -45518.226      258.19258     -45260.033      193.63779      194.48535      279.22391    
     30400  -45506.463      257.17662     -45249.287      193.61425      194.46517      279.34516    
     30500  -45494.647      256.76531     -45237.882      193.58731      194.44375      279.4664     
     30600  -45481.121      254.38055     -45226.74       193.56279      194.4272       279.58764    
     30700  -45471.435      254.70185     -45216.733      193.53308      194.4094       279.70889    
     30800  -45460.281      255.52493     -45204.756      193.50581      194.39242      279.83013    
     30900  -45446.219      258.36419     -45187.855      193.47997      194.37411      279.95137    
     31000  -45431.243      259.03284     -45172.21       193.45225      194.35179      280.07262    
     31100  -45417.495      257.10872     -45160.386      193.43131      194.33325      280.19386    
     31200  -45408.689      256.4151      -45152.274      193.40636      194.31183      280.3151     
     31300  -45399.072      253.50847     -45145.564      193.384        194.29298      280.43635    
     31400  -45383.111      252.14639     -45130.965      193.3619       194.27432      280.55759    
     31500  -45368.7        253.47437     -45115.226      193.33759      194.2533       280.67884    
     31600  -45356.623      256.02834     -45100.595      193.31703      194.23432      280.80008    
     31700  -45342.614      256.52025     -45086.094      193.29322      194.21279      280.92132    
     31800  -45328.421      253.97489     -45074.446      193.27257      194.19393      281.04257    
     31900  -45321.839      254.72394     -45067.115      193.25085      194.17534      281.16381    
     32000  -45311.634      254.19953     -45057.435      193.22829      194.15714      281.28505    
     32100  -45293.985      253.62625     -45040.359      193.20556      194.14059      281.4063     
     32200  -45279.889      256.45459     -45023.434      193.18143      194.12367      281.52754    
     32300  -45261.919      252.38428     -45009.535      193.15751      194.10736      281.64878    
     32400  -45256.814      259.64259     -44997.172      193.13414      194.09011      281.77003    
     32500  -45244.086      255.2775      -44988.808      193.11136      194.07329      281.89127    
     32600  -45230.991      250.07605     -44980.915      193.09026      194.05693      282.01251    
     32700  -45217.636      251.81773     -44965.818      193.06922      194.03971      282.13376    
     32800  -45206.093      256.74192     -44949.351      193.04909      194.02145      282.255      
     32900  -45191.653      257.19612     -44934.457      193.02896      194.00302      282.37625    
     33000  -45177.725      257.68594     -44920.039      193.00824      193.98306      282.49749    
     33100  -45162.84       256.96874     -44905.871      192.98824      193.96531      282.61873    
     33200  -45149.981      255.3082      -44894.673      192.96843      193.94803      282.73998    
     33300  -45138.437      251.55495     -44886.882      192.94757      193.93008      282.86122    
     33400  -45129.441      254.03697     -44875.404      192.92988      193.91379      282.98246    
     33500  -45111.126      253.09841     -44858.027      192.91023      193.89418      283.10371    
     33600  -45097.983      257.19277     -44840.791      192.89256      193.87691      283.22495    
     33700  -45086.652      257.86749     -44828.785      192.87261      193.86022      283.34619    
     33800  -45076.541      257.43952     -44819.101      192.85055      193.84395      283.46744    
     33900  -45062.346      253.23401     -44809.112      192.8319       193.83114      283.58868    
     34000  -45049.687      254.43385     -44795.253      192.80838      193.81337      283.70992    
     34100  -45031.51       257.74244     -44773.767      192.79058      193.79805      283.83117    
     34200  -45015.912      254.80385     -44761.108      192.77277      193.78007      283.95241    
     34300  -45009.215      256.29444     -44752.921      192.75464      193.75952      284.07366    
     34400  -45000.78       257.4736      -44743.306      192.74169      193.74127      284.1949     
     34500  -44981.993      252.61765     -44729.376      192.72493      193.72033      284.31614    
     34600  -44969.125      257.9142      -44711.211      192.70982      193.70271      284.43739    
     34700  -44952.266      256.81952     -44695.446      192.69359      193.68549      284.55863    
     34800  -44942.179      258.44201     -44683.737      192.67423      193.66712      284.67987    
     34900  -44932.461      259.23962     -44673.221      192.65706      193.65036      284.80112    
     35000  -44921.099      257.36694     -44663.732      192.63775      193.63268      284.92236    
     35100  -44906.415      254.29798     -44652.117      192.61877      193.61475      285.0436     
     35200  -44889.751      254.76962     -44634.981      192.60159      193.59936      285.16485    
     35300  -44872.957      256.68197     -44616.276      192.58214      193.58268      285.28609    
     35400  -44868.306      263.26335     -44605.042      192.56404      193.56873      285.40733    
     35500  -44853.951      257.76408     -44596.187      192.54379      193.55415      285.52858    
     35600  -44838.243      253.59316     -44584.65       192.52481      193.53959      285.64982    
     35700  -44823.298      254.15355     -44569.144      192.50863      193.52479      285.77107    
     35800  -44804.426      256.63143     -44547.795      192.48949      193.50586      285.89231    
     35900  -44796.79       260.8878      -44535.902      192.47506      193.49036      286.01355    
     36000  -44786.283      258.93369     -44527.349      192.45772      193.47214      286.1348     
     36100  -44772.994      255.83216     -44517.162      192.44035      193.45403      286.25604    
     36200  -44757.068      252.36592     -44504.702      192.42467      193.44028      286.37728    
     36300  -44740.76       253.83546     -44486.925      192.40289      193.42351      286.49853    
     36400  -44726.932      258.36542     -44468.567      192.38397      193.41075      286.61977    
     36500  -44713.655      256.50415     -44457.151      192.36469      193.3963       286.74101    
     36600  -44705.773      258.12984     -44447.644      192.34498      193.37979      286.86226    
     36700  -44690.612      254.25258     -44436.359      192.33047      193.36453      286.9835     
     36800  -44679.934      257.58135     -44422.352      192.31276      193.34557      287.10474    
     36900  -44662.879      255.37881     -44407.5        192.29665      193.32983      287.22599    
     37000  -44647.834      255.3505      -44392.483      192.2791       193.31548      287.34723    
     37100  -44632.906      255.80866     -44377.097      192.25796      193.30084      287.46847    
     37200  -44616.826      257.68713     -44359.139      192.24056      193.29019      287.58972    
     37300  -44607.875      263.91039     -44343.965      192.21936      193.27673      287.71096    
     37400  -44596.415      259.26727     -44337.148      192.19912      193.26136      287.83221    
     37500  -44582.769      255.687       -44327.082      192.18326      193.24541      287.95345    
     37600  -44569.752      254.5647      -44315.187      192.16542      193.2252       288.07469    
     37700  -44556.232      253.95636     -44302.276      192.15133      193.20721      288.19594    
     37800  -44542.108      257.12408     -44284.984      192.13414      193.18804      288.31718    
     37900  -44526.396      259.66762     -44266.728      192.11707      193.17113      288.43842    
     38000  -44512.825      258.1245      -44254.701      192.10019      193.15763      288.55967    
     38100  -44498.651      252.8977      -44245.753      192.0776       193.14221      288.68091    
     38200  -44487.017      253.88654     -44233.131      192.0593       193.13053      288.80215    
     38300  -44473.676      255.63841     -44218.038      192.04066      193.11592      288.9234     
     38400  -44461.252      258.77317     -44202.479      192.02338      193.09854      289.04464    
     38500  -44443.628      255.94911     -44187.679      192.01049      193.08304      289.16588    
     38600  -44430.43       256.71082     -44173.719      191.99245      193.06283      289.28713    
     38700  -44418.658      255.7979      -44162.86       191.97785      193.04913      289.40837    
     38800  -44408.315      255.54725     -44152.768      191.95759      193.03364      289.52962    
     38900  -44393.81       254.6834      -44139.127      191.93486      193.01868      289.65086    
     39000  -44374.272      254.60336     -44119.669      191.91672      193.00755      289.7721     
     39100  -44360.431      256.99139     -44103.44       191.89405      192.9896       289.89335    
     39200  -44346.035      255.1836      -44090.851      191.87774      192.97371      290.01459    
     39300  -44335.513      255.47221     -44080.041      191.86341      192.95728      290.13583    
     39400  -44321.536      250.1083      -44071.427      191.84529      192.93619      290.25708    
     39500  -44308.472      245.93884     -44062.533      191.83192      192.92063      290.37832    
     39600  -44299.551      252.61498     -44046.936      191.81218      192.9028       290.49956    
     39700  -44279.901      254.15438     -44025.747      191.78931      192.88729      290.62081    
     39800  -44263.515      254.78573     -44008.729      191.77025      192.877        290.74205    
     39900  -44253.651      259.9617      -43993.689      191.74603      192.86007      290.86329    
     40000  -44236.775      254.36135     -43982.413      191.72812      192.84631      290.98454    
     40100  -44224.394      251.41118     -43972.983      191.71071      192.83028      291.10578    
     40200  -44215.473      255.17037     -43960.303      191.69019      192.81037      291.22703    
     40300  -44192.006      253.01445     -43938.992      191.67703      192.79582      291.34827    
     40400  -44179.056      256.49692     -43922.559      191.65684      192.77476      291.46951    
     40500  -44166.09       254.3366      -43911.754      191.63959      192.75797      291.59076    
     40600  -44160.063      257.80611     -43902.257      191.62333      192.74262      291.712      
     40700  -44142.695      253.83504     -43888.86       191.60272      192.72415      291.83324    
     40800  -44127.219      256.31875     -43870.9        191.58596      192.71003      291.95449    
     40900  -44108.644      257.84057     -43850.804      191.56412      192.69253      292.07573    
     41000  -44097.98       259.07667     -43838.904      191.54422      192.67638      292.19697    
     41100  -44085.088      256.06615     -43829.021      191.52494      192.6595       292.31822    
     41200  -44074.193      255.80938     -43818.384      191.50455      192.63996      292.43946    
     41300  -44062.398      257.12802     -43805.27       191.48776      192.62279      292.5607     
     41400  -44039.996      254.51396     -43785.482      191.46965      192.60599      292.68195    
     41500  -44027.452      259.83537     -43767.617      191.44918      192.5876       292.80319    
     41600  -44013.109      256.52695     -43756.582      191.43051      192.572        292.92443    
     41700  -44001.295      254.57956     -43746.715      191.40893      192.55476      293.04568    
     41800  -43986.069      251.85211     -43734.217      191.3873       192.53922      293.16692    
     41900  -43974.771      256.02685     -43718.744      191.36613      192.52438      293.28817    
     42000  -43958.428      255.3945      -43703.034      191.34353      192.50625      293.40941    
     42100  -43944.58       255.70259     -43688.877      191.32474      192.48992      293.53065    
     42200  -43928.982      253.94743     -43675.035      191.30426      192.46958      293.6519     
     42300  -43914.627      253.34021     -43661.286      191.28552      192.45045      293.77314    
     42400  -43904.274      256.13736     -43648.136      191.2669       192.4326       293.89438    
     42500  -43890.753      255.07388     -43635.679      191.24411      192.41252      294.01563    
     42600  -43872.981      251.70569     -43621.276      191.22364      192.39561      294.13687    
     42700  -43859.576      256.08065     -43603.496      191.20241      192.37833      294.25811    
     42800  -43841.17       255.05369     -43586.116      191.17911      192.35937      294.37936    
     42900  -43833.231      260.22068     -43573.01       191.15859      192.34381      294.5006     
     43000  -43819.735      253.25033     -43566.484      191.13729      192.32555      294.62184    
     43100  -43807.778      254.7475      -43553.031      191.11706      192.30686      294.74309    
     43200  -43790.758      255.58756     -43535.171      191.09858      192.28808      294.86433    
     43300  -43773.01       255.61647     -43517.394      191.07763      192.26592      294.98558    
     43400  -43759.784      256.70147     -43503.083      191.0581       192.24556      295.10682    
     43500  -43748.992      258.35018     -43490.642      191.03813      192.22663      295.22806    
     43600  -43733.037      255.73154     -43477.306      191.01527      192.20658      295.34931    
     43700  -43720.549      256.94659     -43463.603      190.99426      192.19131      295.47055    
     43800  -43706.616      256.57454     -43450.041      190.97096      192.17307      295.59179    
     43900  -43690.96       253.77395     -43437.186      190.94796      192.15362      295.71304    
     44000  -43676.81       252.21549     -43424.594      190.92784      192.13532      295.83428    
     44100  -43665.186      256.81436     -43408.371      190.90361      192.11163      295.95552    
     44200  -43646.689      256.67331     -43390.015      190.88289      192.09122      296.07677    
     44300  -43628.693      254.45383     -43374.239      190.86207      192.07183      296.19801    
     44400  -43620.427      255.59451     -43364.832      190.83793      192.05071      296.31925    
     44500  -43607.516      252.5498      -43354.966      190.81644      192.03337      296.4405     
     44600  -43590.514      252.04554     -43338.468      190.79278      192.01248      296.56174    
     44700  -43573.638      253.09887     -43320.539      190.77059      191.99162      296.68299    
     44800  -43560.855      256.13398     -43304.721      190.7495       191.97155      296.80423    
     44900  -43545.647      254.85683     -43290.791      190.72537      191.94877      296.92547    
     45000  -43531.676      253.93235     -43277.744      190.70368      191.93065      297.04672    
     45100  -43518.047      253.98013     -43264.067      190.67875      191.91086      297.16796    
     45200  -43507.902      257.61496     -43250.287      190.65408      191.89203      297.2892     
     45300  -43493.138      256.98661     -43236.152      190.63062      191.87426      297.41045    
     45400  -43482.419      260.93805     -43221.481      190.60383      191.85403      297.53169    
     45500  -43462.238      256.49764     -43205.74       190.57784      191.83583      297.65293    
     45600  -43445.731      256.16691     -43189.564      190.5512       191.81585      297.77418    
     45700  -43431.423      257.62725     -43173.795      190.52337      191.79442      297.89542    
     45800  -43418.426      257.12163     -43161.305      190.50031      191.77643      298.01666    
     45900  -43406.366      253.81616     -43152.55       190.47574      191.75468      298.13791    
     46000  -43391.63       252.83142     -43138.798      190.45329      191.73304      298.25915    
     46100  -43378.555      257.86809     -43120.687      190.43082      191.7117       298.3804     
     46200  -43358.331      255.81964     -43102.511      190.40522      191.6882       298.50164    
     46300  -43347.933      259.30669     -43088.626      190.38059      191.66916      298.62288    
     46400  -43331.927      255.56581     -43076.361      190.35123      191.64769      298.74413    
     46500  -43319.479      254.45891     -43065.02       190.32107      191.6281       298.86537    
     46600  -43307.416      253.8668      -43053.549      190.29264      191.61162      298.98661    
     46700  -43295.152      256.08081     -43039.071      190.26264      191.59022      299.10786    
     46800  -43274.715      257.08108     -43017.634      190.23677      191.57059      299.2291     
     46900  -43257.183      256.57251     -43000.61       190.21116      191.54828      299.35034    
     47000  -43246.581      257.29645     -42989.284      190.18585      191.52447      299.47159    
     47100  -43234.105      254.84833     -42979.257      190.16319      191.50415      299.59283    
     47200  -43220.479      256.02261     -42964.456      190.1351       191.47735      299.71407    
     47300  -43205.156      256.69226     -42948.464      190.11077      191.45706      299.83532    
     47400  -43187.844      254.66304     -42933.181      190.08508      191.43595      299.95656    
     47500  -43174.709      254.67838     -42920.03       190.05625      191.41028      300.0778     
     47600  -43162.992      253.04664     -42909.946      190.03225      191.38932      300.19905    
     47700  -43146.384      250.70109     -42895.683      190.0047       191.3628       300.32029    
     47800  -43133.342      257.29583     -42876.046      189.9787       191.33952      300.44154    
     47900  -43113.69       255.33154     -42858.358      189.95201      191.31772      300.56278    
     48000  -43102.623      257.99864     -42844.625      189.92148      191.29189      300.68402    
     48100  -43085.822      252.6631      -42833.159      189.8956       191.27264      300.80527    
     48200  -43075.22       253.68536     -42821.534      189.86681      191.24889      300.92651    
     48300  -43064.708      252.82464     -42811.884      189.83844      191.22422      301.04775    
     48400  -43054.287      253.93745     -42800.349      189.81473      191.20349      301.169      
     48500  -43032.268      252.95038     -42779.318      189.78644      191.17436      301.29024    
     48600  -43015.943      255.54728     -42760.396      189.76194      191.15003      301.41148    
     48700  -43002.306      258.29852     -42744.008      189.73629      191.1242       301.53273    
     48800  -42985.763      254.46713     -42731.296      189.70768      191.09504      301.65397    
     48900  -42975.101      253.67385     -42721.427      189.68344      191.07322      301.77521    
     49000  -42962.318      253.75028     -42708.568      189.65522      191.04649      301.89646    
     49100  -42944.396      257.02367     -42687.372      189.62813      191.02125      302.0177     
     49200  -42925.289      256.88764     -42668.401      189.60238      190.99762      302.13895    
     49300  -42913.516      257.64936     -42655.867      189.57445      190.96967      302.26019    
     49400  -42902.322      256.86287     -42645.459      189.54885      190.94402      302.38143    
     49500  -42886.75       254.25629     -42632.493      189.52067      190.91523      302.50268    
     49600  -42871.544      254.42062     -42617.124      189.492        190.88748      302.62392    
     49700  -42854.558      258.92278     -42595.635      189.46522      190.86357      302.74516    
     49800  -42837.675      258.31052     -42579.364      189.43609      190.83745      302.86641    
     49900  -42827.576      258.21984     -42569.356      189.40794      190.81254      302.98765    
     50000  -42812.5        255.23887     -42557.261      189.38021      190.78699      303.10889    
     50100  -42798.179      254.37879     -42543.8        189.35219      190.75964      303.23014    
     50200  -42787.707      258.59994     -42529.107      189.32616      190.7305       303.35138    
     50300  -42768.269      258.18199     -42510.087      189.30172      190.7003       303.47262    
     50400  -42748.732      258.31564     -42490.417      189.27841      190.6689       303.59387    
     50500  -42736.552      258.22061     -42478.331      189.25551      190.63837      303.71511    
     50600  -42725.61       257.67976     -42467.93       189.23125      190.60777      303.83636    
     50700  -42708.266      253.90381     -42454.362      189.20551      190.57815      303.9576     
     50800  -42697.303      256.3199      -42440.983      189.17884      190.55108      304.07884    
     50900  -42683.918      256.204       -42427.714      189.14838      190.52214      304.20009    
     51000  -42666.647      252.61045     -42414.036      189.1178       190.49564      304.32133    
     51100  -42654.522      256.74351     -42397.778      189.08725      190.47098      304.44257    
     51200  -42637.12       257.46703     -42379.653      189.05708      190.44475      304.56382    
     51300  -42621.75       259.45        -42362.3        189.02895      190.41861      304.68506    
     51400  -42608.545      258.43893     -42350.106      189.00136      190.38967      304.8063     
     51500  -42592.939      252.11663     -42340.823      188.97445      190.35963      304.92755    
     51600  -42578.856      253.7566      -42325.099      188.94932      190.32967      305.04879    
     51700  -42560.799      253.78768     -42307.011      188.92374      190.29627      305.17003    
     51800  -42546.22       257.14151     -42289.079      188.89963      190.26544      305.29128    
     51900  -42531.257      263.04864     -42268.208      188.87446      190.23449      305.41252    
     52000  -42515.966      260.52129     -42255.445      188.84699      190.20203      305.53376    
     52100  -42506.942      260.58383     -42246.358      188.82069      190.1736       305.65501    
     52200  -42490.73       255.98135     -42234.749      188.79147      190.14356      305.77625    
     52300  -42476.654      255.11905     -42221.535      188.76165      190.11366      305.8975     
     52400  -42462.091      255.848       -42206.243      188.73321      190.08544      306.01874    
     52500  -42445.546      255.95157     -42189.595      188.70377      190.05478      306.13998    
     52600  -42427.696      257.59637     -42170.099      188.67605      190.02562      306.26123    
     52700  -42412.886      259.03481     -42153.851      188.65028      189.99775      306.38247    
     52800  -42397.985      253.26448     -42144.721      188.62196      189.96422      306.50371    
     52900  -42389.384      257.20306     -42132.181      188.59718      189.93491      306.62496    
     53000  -42372.178      254.9424      -42117.235      188.57182      189.90353      306.7462     
     53100  -42356.353      254.85054     -42101.503      188.54388      189.86825      306.86744    
     53200  -42342.672      260.61659     -42082.056      188.52004      189.83863      306.98869    
     53300  -42322.952      258.49834     -42064.454      188.49128      189.80427      307.10993    
     53400  -42311.576      256.93183     -42054.644      188.46355      189.77361      307.23117    
     53500  -42296.638      253.37461     -42043.264      188.43601      189.74601      307.35242    
     53600  -42284.066      256.14173     -42027.924      188.40434      189.71457      307.47366    
     53700  -42267.458      255.68384     -42011.774      188.37508      189.68774      307.59491    
     53800  -42252.776      257.45742     -41995.318      188.34551      189.65974      307.71615    
     53900  -42235.402      256.29323     -41979.109      188.31475      189.628        307.83739    
     54000  -42222.806      255.81665     -41966.989      188.28835      189.60133      307.95864    
     54100  -42211.208      255.13485     -41956.073      188.25953      189.56883      308.07988    
     54200  -42196.714      255.78958     -41940.924      188.23157      189.53532      308.20112    
     54300  -42179.267      256.73645     -41922.53       188.20797      189.50638      308.32237    
     54400  -42159.178      259.34222     -41899.835      188.1795       189.46992      308.44361    
     54500  -42145.085      261.46405     -41883.621      188.15383      189.4391       308.56485    
     54600  -42133.504      260.4238      -41873.08       188.12736      189.40864      308.6861     
     54700  -42115.52       254.68998     -41860.83       188.09794      189.37569      308.80734    
     54800  -42106.567      257.61746     -41848.95       188.07115      189.34953      308.92858    
     54900  -42090.784      255.05907     -41835.725      188.04036      189.31905      309.04983    
     55000  -42073.08       252.81316     -41820.267      188.01006      189.28838      309.17107    
     55100  -42058.545      259.52396     -41799.021      187.98278      189.26072      309.29232    
     55200  -42041.237      260.545       -41780.692      187.95158      189.22684      309.41356    
     55300  -42026.825      256.86757     -41769.958      187.92498      189.19772      309.5348     
     55400  -42012.225      254.44791     -41757.777      187.89802      189.16734      309.65605    
     55500  -41998.254      255.25885     -41742.995      187.86907      189.13452      309.77729    
     55600  -41980.924      252.79095     -41728.133      187.84297      189.10538      309.89853    
     55700  -41972.106      256.09521     -41716.011      187.81402      189.07221      310.01978    
     55800  -41956.593      251.84574     -41704.748      187.78658      189.04161      310.14102    
     55900  -41941.314      254.04679     -41687.268      187.7592       189.01253      310.26226    
     56000  -41921.527      257.63472     -41663.892      187.7291       188.97962      310.38351    
     56100  -41902.901      254.01691     -41648.884      187.70213      188.95149      310.50475    
     56200  -41894.738      257.35041     -41637.388      187.67366      188.92003      310.62599    
     56300  -41879.366      254.77756     -41624.588      187.64498      188.88885      310.74724    
     56400  -41868.889      259.43916     -41609.45       187.61824      188.8613       310.86848    
     56500  -41849.226      255.38074     -41593.846      187.58736      188.82869      310.98972    
     56600  -41834.792      258.17037     -41576.622      187.55961      188.80043      311.11097    
     56700  -41816.656      255.60645     -41561.049      187.53063      188.7688       311.23221    
     56800  -41800.657      251.77399     -41548.883      187.50131      188.73623      311.35346    
     56900  -41789.322      253.68361     -41535.639      187.47657      188.70933      311.4747     
     57000  -41773.034      253.28236     -41519.752      187.44627      188.67336      311.59594    
     57100  -41756.803      258.57739     -41498.226      187.42086      188.64339      311.71719    
     57200  -41740.4        261.31273     -41479.087      187.39395      188.61245      311.83843    
     57300  -41727.239      259.38435     -41467.855      187.36455      188.57859      311.95967    
     57400  -41708.586      253.98912     -41454.597      187.33902      188.55055      312.08092    
     57500  -41698.736      258.20436     -41440.532      187.31015      188.5171       312.20216    
     57600  -41682.763      257.13014     -41425.633      187.28131      188.48563      312.3234     
     57700  -41667.048      256.19771     -41410.851      187.25478      188.45713      312.44465    
     57800  -41653.711      253.67422     -41400.037      187.22407      188.42249      312.56589    
     57900  -41639.754      256.00779     -41383.746      187.19757      188.39267      312.68713    
     58000  -41615.832      253.42614     -41362.406      187.17049      188.36153      312.80838    
     58100  -41602.235      260.06173     -41342.173      187.14222      188.32689      312.92962    
     58200  -41588.45       257.31788     -41331.132      187.11764      188.29604      313.05087    
     58300  -41573.679      253.82139     -41319.858      187.09095      188.26192      313.17211    
     58400  -41562.619      258.00944     -41304.61       187.06395      188.231        313.29335    
     58500  -41544.018      255.76393     -41288.254      187.03628      188.20033      313.4146     
     58600  -41529.396      257.72484     -41271.671      187.00741      188.16757      313.53584    
     58700  -41514.086      258.52988     -41255.556      186.98101      188.13877      313.65708    
     58800  -41498.761      255.81355     -41242.947      186.95085      188.10565      313.77833    
     58900  -41485.294      256.42877     -41228.866      186.92296      188.07608      313.89957    
     59000  -41466.513      254.06122     -41212.452      186.89616      188.04641      314.02081    
     59100  -41450.922      256.98704     -41193.935      186.86597      188.01114      314.14206    
     59200  -41433.907      259.12979     -41174.777      186.84153      187.98403      314.2633     
     59300  -41416.55       256.5197      -41160.031      186.8129       187.95101      314.38454    
     59400  -41403.768      255.26224     -41148.506      186.7857       187.91826      314.50579    
     59500  -41389.194      255.66015     -41133.534      186.76196      187.88907      314.62703    
     59600  -41369.52       251.67734     -41117.843      186.73301      187.85259      314.74828    
     59700  -41358.688      257.68536     -41101.003      186.70803      187.82278      314.86952    
     59800  -41339.193      256.39658     -41082.796      186.68098      187.78902      314.99076    
     59900  -41325.968      260.98702     -41064.981      186.65236      187.75465      315.11201    
     60000  -41308.039      256.96309     -41051.076      186.62733      187.72716      315.23325    
     60100  -41292.609      253.56235     -41039.047      186.59642      187.69135      315.35449    
     60200  -41278.956      255.60669     -41023.349      186.56943      187.66172      315.47574    
     60300  -41261.761      254.31016     -41007.451      186.54234      187.63214      315.59698    
     60400  -41247.387      255.12865     -40992.258      186.512        187.59855      315.71822    
     60500  -41232.019      252.98494     -40979.034      186.4872       187.57165      315.83947    
     60600  -41216.925      253.24894     -40963.676      186.45896      187.53739      315.96071    
     60700  -41198.145      254.87672     -40943.268      186.4335       187.50515      316.08195    
     60800  -41184.207      264.15236     -40920.055      186.41103      187.47431      316.2032     
     60900  -41162.536      257.28356     -40905.253      186.38351      187.4356       316.32444    
     61000  -41150.364      259.68884     -40890.675      186.36179      187.40634      316.44569    
     61100  -41135.755      259.1249      -40876.63       186.33449      187.37328      316.56693    
     61200  -41116.119      253.35914     -40862.76       186.30484      187.33936      316.68817    
     61300  -41106.545      258.9153      -40847.629      186.27887      187.31317      316.80942    
     61400  -41088.191      255.73912     -40832.452      186.246        187.27987      316.93066    
     61500  -41069.796      253.23919     -40816.557      186.21933      187.25458      317.0519     
     61600  -41057.901      254.28213     -40803.619      186.1905       187.22427      317.17315    
     61700  -41037.932      249.96885     -40787.963      186.16153      187.1917       317.29439    
     61800  -41022.363      256.19066     -40766.173      186.13749      187.1637       317.41563    
     61900  -41000.996      256.39182     -40744.604      186.10788      187.12725      317.53688    
     62000  -40986.43       258.35814     -40728.072      186.08308      187.0967       317.65812    
     62100  -40973.084      254.96529     -40718.119      186.05754      187.06516      317.77936    
     62200  -40953.139      251.48929     -40701.65       186.02973      187.02902      317.90061    
     62300  -40938.141      254.85586     -40683.285      186.00836      186.99956      318.02185    
     62400  -40922.358      254.82252     -40667.536      185.98099      186.9616       318.14309    
     62500  -40909.992      256.939       -40653.053      185.95791      186.93013      318.26434    
     62600  -40893.391      256.22582     -40637.166      185.93327      186.89798      318.38558    
     62700  -40877.731      255.53612     -40622.195      185.90651      186.86523      318.50683    
     62800  -40860.436      252.72811     -40607.708      185.88121      186.83599      318.62807    
     62900  -40845.293      256.2507      -40589.042      185.85226      186.80286      318.74931    
     63000  -40821.872      258.05178     -40563.82       185.82744      186.77394      318.87056    
     63100  -40805.886      261.54847     -40544.338      185.80152      186.74235      318.9918     
     63200  -40789.117      259.92612     -40529.19       185.77499      186.71019      319.11304    
     63300  -40768.936      255.38693     -40513.549      185.74947      186.67993      319.23429    
     63400  -40753.26       254.78246     -40498.478      185.72256      186.64743      319.35553    
     63500  -40739.724      257.41184     -40482.312      185.69795      186.61624      319.47677    
     63600  -40723.889      257.94668     -40465.943      185.67259      186.5829       319.59802    
     63700  -40704.504      255.75892     -40448.746      185.64762      186.54944      319.71926    
     63800  -40686.396      256.77785     -40429.618      185.62279      186.51791      319.8405     
     63900  -40669.763      258.68643     -40411.077      185.59738      186.48732      319.96175    
     64000  -40649.852      255.99781     -40393.855      185.57083      186.45696      320.08299    
     64100  -40636.179      257.74336     -40378.435      185.54427      186.42643      320.20424    
     64200  -40617.022      256.47874     -40360.543      185.51869      186.39684      320.32548    
     64300  -40597.132      255.57434     -40341.557      185.49193      186.36616      320.44672    
     64400  -40579.488      256.7059      -40322.782      185.466        186.33577      320.56797    
     64500  -40562.198      256.32564     -40305.873      185.4404       186.30526      320.68921    
     64600  -40547.795      259.06172     -40288.733      185.41423      186.27359      320.81045    
     64700  -40527.796      257.59907     -40270.197      185.38878      186.24323      320.9317     
     64800  -40509.224      256.14502     -40253.079      185.36322      186.21312      321.05294    
     64900  -40490.083      253.96863     -40236.115      185.33786      186.18182      321.17418    
     65000  -40473.481      255.84371     -40217.637      185.31286      186.15065      321.29543    
     65100  -40459.153      259.85822     -40199.295      185.28784      186.12032      321.41667    
     65200  -40439.5        258.70633     -40180.793      185.26257      186.0896       321.53791    
     65300  -40417.343      254.81577     -40162.528      185.23757      186.05872      321.65916    
     65400  -40401.915      258.26899     -40143.646      185.21299      186.02782      321.7804     
     65500  -40384.179      258.56044     -40125.618      185.18936      185.99822      321.90165    
     65600  -40364.335      255.97788     -40108.357      185.16448      185.96847      322.02289    
     65700  -40347.485      256.74459     -40090.74       185.13993      185.94038      322.14413    
     65800  -40328.755      258.32272     -40070.432      185.11308      185.91115      322.26538    
     65900  -40307.995      257.54126     -40050.454      185.08666      185.88247      322.38662    
     66000  -40291.853      258.77527     -40033.078      185.06058      185.85385      322.50786    
     66100  -40270.803      256.09598     -40014.707      185.03431      185.82423      322.62911    
     66200  -40251.881      257.69937     -39994.181      185.00784      185.79438      322.75035    
     66300  -40234.737      259.82823     -39974.909      184.98287      185.76606      322.87159    
     66400  -40215.372      257.87409     -39957.498      184.95704      185.73665      322.99284    
     66500  -40194.829      257.53255     -39937.296      184.93206      185.70925      323.11408    
     66600  -40173.665      256.18112     -39917.484      184.90598      185.68151      323.23532    
     66700  -40154.129      254.6642      -39899.465      184.87985      185.65412      323.35657    
     66800  -40136.873      256.9138      -39879.959      184.85382      185.62625      323.47781    
     66900  -40116.421      256.39414     -39860.026      184.82789      185.5972       323.59905    
     67000  -40096.977      255.8205      -39841.156      184.80399      185.56846      323.7203     
     67100  -40082.858      261.1751      -39821.683      184.77995      185.53842      323.84154    
     67200  -40058.439      256.7851      -39801.654      184.75632      185.50974      323.96279    
     67300  -40040.808      258.85551     -39781.952      184.7319       185.48131      324.08403    
     67400  -40017.302      256.17551     -39761.126      184.70609      185.45321      324.20527    
     67500  -39998.315      256.76841     -39741.546      184.68112      185.42667      324.32652    
     67600  -39977.748      256.09225     -39721.656      184.65488      185.39848      324.44776    
     67700  -39960.787      259.0614      -39701.726      184.63012      185.37124      324.569      
     67800  -39937.853      256.39247     -39681.46       184.60541      185.34358      324.69025    
     67900  -39921.757      260.08368     -39661.673      184.57961      185.31502      324.81149    
     68000  -39899.407      258.63564     -39640.772      184.55657      185.28932      324.93273    
     68100  -39879.378      259.62875     -39619.75       184.5304       185.25979      325.05398    
     68200  -39858.564      259.62346     -39598.941      184.50686      185.23251      325.17522    
     68300  -39838.395      260.66631     -39577.729      184.48287      185.20507      325.29646    
     68400  -39814.345      257.11999     -39557.225      184.45657      185.17648      325.41771    
     68500  -39793.417      256.98612     -39536.43       184.43276      185.15122      325.53895    
     68600  -39772.044      255.79288     -39516.251      184.40709      185.12366      325.6602     
     68700  -39753.651      258.30189     -39495.349      184.38411      185.09787      325.78144    
     68800  -39737.312      262.06454     -39475.247      184.36072      185.07086      325.90268    
     68900  -39709.262      254.83709     -39454.425      184.33762      185.04416      326.02393    
     69000  -39687.471      254.61698     -39432.854      184.31381      185.01669      326.14517    
     69100  -39667.371      255.43049     -39411.941      184.28979      184.98976      326.26641    
     69200  -39651.711      260.83641     -39390.874      184.26566      184.96285      326.38766    
     69300  -39629.041      259.15727     -39369.884      184.24143      184.93528      326.5089     
     69400  -39607.987      260.91785     -39347.07       184.21797      184.90854      326.63014    
     69500  -39582.054      257.84253     -39324.212      184.19386      184.88204      326.75139    
     69600  -39559.11       256.87919     -39302.231      184.1699       184.85678      326.87263    
     69700  -39540.414      259.32175     -39281.092      184.14509      184.83167      326.99387    
     69800  -39518.821      259.61805     -39259.203      184.12029      184.80663      327.11512    
     69900  -39498.468      260.29201     -39238.176      184.09433      184.78028      327.23636    
     70000  -39477.633      261.45859     -39216.174      184.07112      184.75615      327.35761    
     70100  -39453.328      260.36285     -39192.965      184.04615      184.72903      327.47885    
     70200  -39430.825      260.68941     -39170.135      184.02416      184.70358      327.60009    
     70300  -39404.829      258.69731     -39146.132      184.00189      184.67742      327.72134    
     70400  -39385.25       260.76009     -39124.49       183.97896      184.65056      327.84258    
     70500  -39362.126      260.42809     -39101.698      183.95818      184.62537      327.96382    
     70600  -39335.759      256.90453     -39078.854      183.93451      184.59774      328.08507    
     70700  -39317.018      260.52735     -39056.491      183.91197      184.57287      328.20631    
     70800  -39294.976      260.22697     -39034.749      183.88725      184.54741      328.32755    
     70900  -39272.911      260.63839     -39012.273      183.86216      184.52291      328.4488     
     71000  -39248.594      261.77241     -38986.822      183.83873      184.49973      328.57004    
     71100  -39222.337      258.79993     -38963.537      183.8146       184.47443      328.69128    
     71200  -39205.119      265.97121     -38939.148      183.79248      184.45004      328.81253    
     71300  -39178.46       261.70052     -38916.76       183.76999      184.42412      328.93377    
     71400  -39156.162      262.12278     -38894.039      183.74805      184.39879      329.05502    
     71500  -39131.186      261.45022     -38869.736      183.72581      184.37324      329.17626    
     71600  -39106.14       259.38269     -38846.757      183.70308      184.34739      329.2975     
     71700  -39086.421      263.30053     -38823.12       183.68057      184.32248      329.41875    
     71800  -39058.417      259.90303     -38798.514      183.65766      184.29785      329.53999    
     71900  -39033.841      259.49498     -38774.346      183.63468      184.27355      329.66123    
     72000  -39014.014      265.16491     -38748.849      183.61236      184.24965      329.78248    
     72100  -38985.156      261.71483     -38723.441      183.58924      184.2245       329.90372    
     72200  -38964.724      265.7127      -38699.012      183.56774      184.20018      330.02496    
     72300  -38937.027      263.69108     -38673.336      183.54546      184.17493      330.14621    
     72400  -38914.725      262.42516     -38652.3        183.523        184.14955      330.26745    
     72500  -38895.732      265.55626     -38630.175      183.50185      184.12516      330.38869    
     72600  -38865.742      259.83287     -38605.909      183.48008      184.09961      330.50994    
     72700  -38844.532      264.10456     -38580.427      183.45928      184.07449      330.63118    
     72800  -38818.577      264.62625     -38553.951      183.43901      184.04988      330.75242    
     72900  -38790.199      262.59792     -38527.601      183.41722      184.024        330.87367    
     73000  -38767.299      265.31206     -38501.987      183.39696      184.00018      330.99491    
     73100  -38742.761      266.31277     -38476.448      183.3748       183.9755       331.11616    
     73200  -38715.543      263.66685     -38451.876      183.35231      183.95073      331.2374     
     73300  -38692.918      268.00837     -38424.91       183.33096      183.9264       331.35864    
     73400  -38664.798      265.70284     -38399.095      183.30866      183.90059      331.47989    
     73500  -38640.402      267.63087     -38372.771      183.2888       183.87679      331.60113    
     73600  -38612.268      266.06891     -38346.199      183.2674       183.85114      331.72237    
     73700  -38589.637      271.66996     -38317.967      183.24744      183.82679      331.84362    
     73800  -38566.245      274.12815     -38292.117      183.22749      183.80298      331.96486    
     73900  -38537.484      272.28502     -38265.199      183.20506      183.77781      332.0861     
     74000  -38508.274      269.64404     -38238.63       183.18478      183.75515      332.20735    
     74100  -38483.239      273.74219     -38209.497      183.16222      183.73083      332.32859    
     74200  -38459.621      274.013       -38185.608      183.13982      183.70722      332.44983    
     74300  -38431.319      271.56697     -38159.752      183.11871      183.68469      332.57108    
     74400  -38406.144      274.12751     -38132.016      183.09587      183.66038      332.69232    
     74500  -38378.644      272.51539     -38106.128      183.07528      183.63759      332.81357    
     74600  -38353.658      275.11633     -38078.542      183.05457      183.61356      332.93481    
     74700  -38325.588      275.07527     -38050.512      183.03363      183.5885       333.05605    
     74800  -38294.995      275.33836     -38019.657      183.01414      183.56492      333.1773     
     74900  -38272.433      277.74177     -37994.691      182.99231      183.53964      333.29854    
     75000  -38239.321      274.67858     -37964.642      182.9718       183.51646      333.41978    
     75100  -38214.329      279.16614     -37935.163      182.95023      183.49295      333.54103    
     75200  -38188.648      281.42875     -37907.22       182.92829      183.46965      333.66227    
     75300  -38165.321      288.38499     -37876.936      182.90697      183.44721      333.78351    
     75400  -38136.178      287.45017     -37848.728      182.88492      183.42371      333.90476    
     75500  -38101.225      282.15327     -37819.072      182.86436      183.40131      334.026      
     75600  -38066.73       277.49921     -37789.231      182.84268      183.37777      334.14724    
     75700  -38054.479      291.80358     -37762.675      182.82142      183.35445      334.26849    
     75800  -38016.66       285.24587     -37731.414      182.80034      183.33142      334.38973    
     75900  -37995.71       293.93675     -37701.773      182.77866      183.30759      334.51098    
     76000  -37962.283      289.03126     -37673.252      182.75796      183.28434      334.63222    
     76100  -37925.316      288.64889     -37636.667      182.73714      183.2608       334.75346    
     76200  -37907.403      301.76123     -37605.642      182.71597      183.23694      334.87471    
     76300  -37870.396      295.51173     -37574.885      182.69559      183.21381      334.99595    
     76400  -37840.596      298.30881     -37542.287      182.6744       183.18982      335.11719    
     76500  -37812.371      294.56256     -37517.809      182.6534       183.16657      335.23844    
     76600  -37785.262      297.2586      -37488.003      182.63264      183.14405      335.35968    
     76700  -37753.83       299.77295     -37454.057      182.61042      183.11999      335.48092    
     76800  -37726.667      299.90541     -37426.762      182.58983      183.09714      335.60217    
     76900  -37694.138      298.09256     -37396.045      182.56903      183.07371      335.72341    
     77000  -37661.778      295.16306     -37366.615      182.54756      183.04911      335.84465    
     77100  -37636.191      301.85965     -37334.331      182.52786      183.02596      335.9659     
     77200  -37602.006      299.79352     -37302.212      182.50668      183.00191      336.08714    
     77300  -37576.101      303.95232     -37272.149      182.48579      182.97826      336.20838    
     77400  -37561.745      323.38495     -37238.36       182.46541      182.95539      336.32963    
     77500  -37671.951      439.37832     -37232.573      182.44295      182.93092      336.45087    
     77600  -38218.132      832.17993     -37385.952      182.42272      182.9119       336.57212    
     77700  -39344.315      1355.6438     -37988.671      182.4104       182.90242      336.69336    
     77800  -40991.843      1700.1511     -39291.692      182.41772      182.91188      336.8146     
     77900  -42744.605      1699.1783     -41045.426      182.4454       182.94196      336.93585    
     78000  -44183.67       1439.9435     -42743.726      182.46271      182.97442      337.05709    
     78100  -45014.973      1020.6086     -43994.364      182.47944      183.00064      337.17833    
     78200  -45524.701      738.87881     -44785.822      182.50214      183.02175      337.29958    
     78300  -45956.97       634.76958     -45322.201      182.52434      183.04276      337.42082    
     78400  -46406.794      607.4756      -45799.318      182.54356      183.06151      337.54206    
     78500  -46762.494      531.62956     -46230.864      182.55976      183.0756       337.66331    
     78600  -46969.306      420.36928     -46548.937      182.58979      183.09635      337.78455    
     78700  -47089.58       331.61226     -46757.968      182.61841      183.11353      337.90579    
     78800  -47137.523      257.14898     -46880.374      182.65563      183.13819      338.02704    
     78900  -47121.397      196.52934     -46924.867      182.69361      183.16512      338.14828    
     79000  -47066.095      180.59687     -46885.498      182.72772      183.18812      338.26953    
     79100  -46996.66       192.79801     -46803.862      182.76861      183.21385      338.39077    
     79200  -46971.994      254.20763     -46717.787      182.79803      183.22632      338.51201    
     79300  -46969.508      304.90525     -46664.603      182.82058      183.23536      338.63326    
     79400  -46975.782      267.96791     -46707.814      182.83576      183.24307      338.7545     
     79500  -46972.301      220.91012     -46751.391      182.85717      183.25898      338.87574    
     79600  -46975.882      237.00096     -46738.881      182.87803      183.27793      338.99699    
     79700  -46958.538      266.0496      -46692.488      182.89628      183.29712      339.11823    
     79800  -46951.926      285.1104      -46666.816      182.92128      183.32073      339.23947    
     79900  -46968.07       274.07928     -46693.991      182.93625      183.34244      339.36072    
     80000  -46986.562      246.3476      -46740.214      182.94996      183.36784      339.48196    
     80100  -46994.919      230.89537     -46764.024      182.96294      183.38669      339.6032     
     80200  -46995.316      245.82675     -46749.49       182.98693      183.40569      339.72445    
     80300  -46992.415      271.5426      -46720.872      183.00322      183.41226      339.84569    
     80400  -46975.566      263.52391     -46712.042      183.02933      183.42802      339.96694    
     80500  -46987.324      260.54775     -46726.776      183.05328      183.44846      340.08818    
     80600  -46995.233      245.2259      -46750.007      183.07076      183.46529      340.20942    
     80700  -46989.527      238.36059     -46751.167      183.0897       183.48529      340.33067    
     80800  -46976.575      251.34992     -46725.225      183.10733      183.50278      340.45191    
     80900  -46969.998      273.68238     -46696.316      183.1213       183.51905      340.57315    
     81000  -46976.104      271.35889     -46704.745      183.14099      183.53655      340.6944     
     81100  -47002.387      259.09054     -46743.297      183.1648       183.55149      340.81564    
     81200  -47007.618      231.926       -46775.692      183.1872       183.56444      340.93688    
     81300  -47013.342      238.91889     -46774.423      183.21403      183.57983      341.05813    
     81400  -47007.665      261.99486     -46745.67       183.23635      183.59436      341.17937    
     81500  -46995.626      269.10613     -46726.52       183.25753      183.61009      341.30061    
     81600  -46995.774      262.34873     -46733.426      183.28189      183.62915      341.42186    
     81700  -47006.839      260.93242     -46745.906      183.30321      183.64468      341.5431     
     81800  -47008.624      248.16006     -46760.464      183.33334      183.66633      341.66435    
     81900  -47008.847      248.72598     -46760.121      183.36061      183.67824      341.78559    
     82000  -47003.896      253.48283     -46750.414      183.39221      183.69267      341.90683    
     82100  -46997.578      262.43797     -46735.14       183.42676      183.70911      342.02808    
     82200  -46994.652      264.46409     -46730.188      183.45889      183.72073      342.14932    
     82300  -47001.751      260.45895     -46741.292      183.49294      183.7385       342.27056    
     82400  -47007.454      249.233       -46758.221      183.52219      183.75424      342.39181    
     82500  -47009.112      247.99136     -46761.121      183.55379      183.77086      342.51305    
     82600  -47001.819      253.58485     -46748.234      183.58241      183.78796      342.63429    
     82700  -46998.24       262.82096     -46735.419      183.60758      183.80535      342.75554    
     82800  -47003.82       266.91928     -46736.901      183.62993      183.8306       342.87678    
     82900  -47005.279      252.4563      -46752.822      183.65039      183.85426      342.99802    
     83000  -47011.153      244.68185     -46766.471      183.67186      183.87783      343.11927    
     83100  -47023.045      256.02975     -46767.015      183.69852      183.90199      343.24051    
     83200  -47012.911      255.8347      -46757.076      183.72767      183.91784      343.36175    
     83300  -47003.167      258.94432     -46744.223      183.76003      183.93531      343.483      
     83400  -46995.692      261.32969     -46734.362      183.79035      183.95077      343.60424    
     83500  -46992.705      257.74689     -46734.958      183.8233       183.96979      343.72549    
     83600  -46999.72       258.17377     -46741.546      183.85189      183.98341      343.84673    
     83700  -47004.655      252.77363     -46751.881      183.88497      184.00038      343.96797    
     83800  -47009.472      249.64032     -46759.831      183.91219      184.01303      344.08922    
     83900  -47013.705      253.23194     -46760.473      183.94244      184.03078      344.21046    
     84000  -47008.887      256.3477      -46752.539      183.97083      184.04392      344.3317     
     84100  -47002.984      258.59767     -46744.387      184.00278      184.06073      344.45295    
     84200  -47004.091      261.79878     -46742.293      184.03439      184.07162      344.57419    
     84300  -47002.987      257.10986     -46745.877      184.06708      184.07952      344.69543    
     84400  -47006.382      252.84894     -46753.533      184.10273      184.08923      344.81668    
     84500  -47008.009      250.29134     -46757.718      184.13404      184.09651      344.93792    
     84600  -47002.624      250.50881     -46752.116      184.1713       184.10913      345.05916    
     84700  -46998.476      257.07802     -46741.398      184.20495      184.11986      345.18041    
     84800  -46999.7        264.21271     -46735.488      184.23831      184.13062      345.30165    
     84900  -47004.91       263.03761     -46741.873      184.27252      184.14198      345.4229     
     85000  -47005.253      250.40692     -46754.846      184.30717      184.14841      345.54414    
     85100  -47011.751      251.7108      -46760.04       184.34403      184.15779      345.66538    
     85200  -47006.111      251.18407     -46754.927      184.38127      184.16882      345.78663    
     85300  -47002.988      259.44702     -46743.541      184.41972      184.17889      345.90787    
     85400  -47000.85       263.75974     -46737.09       184.45839      184.18972      346.02911    
     85500  -47005.597      261.90656     -46743.69       184.49416      184.19737      346.15036    
     85600  -47011.907      252.83302     -46759.074      184.53366      184.20888      346.2716     
     85700  -47017.259      248.02644     -46769.232      184.56944      184.21825      346.39284    
     85800  -47015.02       249.76207     -46765.258      184.609        184.22905      346.51409    
     85900  -47010.312      259.58666     -46750.725      184.64672      184.23739      346.63533    
     86000  -46998.342      260.51064     -46737.831      184.68427      184.24708      346.75657    
     86100  -46997.865      259.56899     -46738.296      184.72029      184.25679      346.87782    
     86200  -47010.173      256.95668     -46753.216      184.75482      184.26736      346.99906    
     86300  -47011.79       246.19608     -46765.594      184.78956      184.27798      347.12031    
     86400  -47014.829      250.35875     -46764.47       184.82214      184.28999      347.24155    
     86500  -47008.259      254.29512     -46753.964      184.85447      184.30285      347.36279    
     86600  -47010.295      262.7753      -46747.519      184.88565      184.3154       347.48404    
     86700  -47009.575      257.74223     -46751.833      184.91841      184.32936      347.60528    
     86800  -47015.33       252.55028     -46762.78       184.95012      184.33696      347.72652    
     86900  -47023.095      248.19758     -46774.897      184.9864       184.34534      347.84777    
     87000  -47032.905      253.44769     -46779.458      185.02356      184.35114      347.96901    
     87100  -47029.459      256.49286     -46772.967      185.06302      184.35591      348.09025    
     87200  -47024.746      259.05783     -46765.688      185.10434      184.35989      348.2115     
     87300  -47028.383      262.89837     -46765.485      185.14489      184.36155      348.33274    
     87400  -47028.29       252.20187     -46776.088      185.18762      184.36594      348.45398    
     87500  -47038.19       253.01029     -46785.179      185.22597      184.36877      348.57523    
     87600  -47033.197      251.85892     -46781.338      185.26587      184.37418      348.69647    
     87700  -47028.514      261.52749     -46766.987      185.3024       184.37765      348.81771    
     87800  -47019.042      261.58455     -46757.458      185.33865      184.38271      348.93896    
     87900  -47022.585      260.41263     -46762.173      185.37466      184.38702      349.0602     
     88000  -47028.556      253.31419     -46775.242      185.41149      184.39225      349.18145    
     88100  -47032.946      250.63712     -46782.309      185.44935      184.40021      349.30269    
     88200  -47029.651      250.79763     -46778.854      185.48259      184.40788      349.42393    
     88300  -47028.888      256.358       -46772.53       185.5158       184.42309      349.54518    
     88400  -47031.73       262.47911     -46769.251      185.54233      184.43229      349.66642    
     88500  -47032.856      259.79744     -46773.058      185.57546      184.44355      349.78766    
     88600  -47034.869      254.92499     -46779.944      185.60894      184.44958      349.90891    
     88700  -47037.029      253.04498     -46783.984      185.64411      184.45445      350.03015    
     88800  -47035.288      254.74707     -46780.541      185.68272      184.4589       350.15139    
     88900  -47031.338      256.65483     -46774.683      185.72003      184.46236      350.27264    
     89000  -47030.42       259.88077     -46770.54       185.75758      184.46921      350.39388    
     89100  -47032.533      260.6516      -46771.881      185.79098      184.47252      350.51512    
     89200  -47027.106      249.70703     -46777.399      185.82972      184.48152      350.63637    
     89300  -47036.085      255.37786     -46780.708      185.86254      184.48093      350.75761    
     89400  -47032.794      253.81219     -46778.982      185.90401      184.4856       350.87886    
     89500  -47032.076      258.22984     -46773.846      185.94197      184.48183      351.0001     
     89600  -47033.857      260.64118     -46773.216      185.98554      184.48029      351.12134    
     89700  -47037.035      259.24025     -46777.795      186.0286       184.47663      351.24259    
     89800  -47036.437      254.09575     -46782.341      186.06979      184.46953      351.36383    
     89900  -47033.569      251.15361     -46782.415      186.11432      184.46839      351.48507    
     90000  -47035.622      256.37189     -46779.25       186.15361      184.46398      351.60632    
     90100  -47035.925      259.98022     -46775.945      186.19393      184.4635       351.72756    
     90200  -47035.422      259.98277     -46775.44       186.22998      184.46028      351.8488     
     90300  -47030.533      252.12812     -46778.404      186.26787      184.46026      351.97005    
     90400  -47035.886      255.3209      -46780.566      186.30636      184.45966      352.09129    
     90500  -47038.758      257.91075     -46780.847      186.3424       184.45992      352.21253    
     90600  -47036.48       256.72524     -46779.755      186.37715      184.46221      352.33378    
     90700  -47034.187      255.31532     -46778.872      186.40759      184.45894      352.45502    
     90800  -47034.433      255.00624     -46779.427      186.44293      184.46274      352.57627    
     90900  -47037.588      256.09348     -46781.495      186.47293      184.46132      352.69751    
     91000  -47035.726      254.21497     -46781.511      186.50641      184.46521      352.81875    
     91100  -47037.379      257.71358     -46779.665      186.53814      184.46597      352.94       
     91200  -47039.402      257.87358     -46781.528      186.56956      184.46258      353.06124    
     91300  -47038.764      252.58835     -46786.176      186.60619      184.46276      353.18248    
     91400  -47040.713      253.70858     -46787.004      186.64186      184.45926      353.30373    
     91500  -47039.635      256.25145     -46783.383      186.67958      184.45864      353.42497    
     91600  -47037.253      258.96036     -46778.293      186.71442      184.45605      353.54621    
     91700  -47039.178      261.22987     -46777.948      186.74901      184.45817      353.66746    
     91800  -47041.787      258.63143     -46783.156      186.77953      184.45795      353.7887     
     91900  -47043.258      253.68526     -46789.573      186.81055      184.4601       353.90994    
     92000  -47045.242      254.98715     -46790.255      186.84249      184.46216      354.03119    
     92100  -47038.082      254.69966     -46783.382      186.87538      184.46074      354.15243    
     92200  -47033.536      255.6497      -46777.886      186.9091       184.45782      354.27368    
     92300  -47033.917      257.71668     -46776.2        186.94181      184.45146      354.39492    
     92400  -47036.555      258.98763     -46777.567      186.97901      184.44987      354.51616    
     92500  -47038.024      256.49628     -46781.528      187.01172      184.44568      354.63741    
     92600  -47039.192      255.45459     -46783.738      187.04673      184.44708      354.75865    
     92700  -47033.486      251.14128     -46782.344      187.07637      184.44653      354.87989    
     92800  -47031.607      253.39825     -46778.208      187.10597      184.44843      355.00114    
     92900  -47031.538      256.38898     -46775.149      187.13686      184.45174      355.12238    
     93000  -47036.506      257.8383      -46778.668      187.16667      184.45196      355.24362    
     93100  -47035.444      248.98205     -46786.462      187.20078      184.4514       355.36487    
     93200  -47040.569      251.51562     -46789.054      187.23389      184.44721      355.48611    
     93300  -47034.878      251.34976     -46783.528      187.26864      184.44488      355.60735    
     93400  -47031.864      258.34075     -46773.523      187.30197      184.43994      355.7286     
     93500  -47028.091      259.66071     -46768.431      187.33575      184.44082      355.84984    
     93600  -47029.812      256.87059     -46772.941      187.3675       184.44314      355.97108    
     93700  -47037.37       252.86376     -46784.506      187.39882      184.44766      356.09233    
     93800  -47038.135      246.06686     -46792.068      187.42897      184.45019      356.21357    
     93900  -47037.52       250.28346     -46787.237      187.46016      184.44988      356.33482    
     94000  -47030.434      257.18757     -46773.246      187.49353      184.44837      356.45606    
     94100  -47028.161      263.77753     -46764.383      187.52366      184.44543      356.5773     
     94200  -47033.433      261.08287     -46772.35       187.55466      184.44593      356.69855    
     94300  -47040.264      250.63205     -46789.632      187.58407      184.44688      356.81979    
     94400  -47044.54       247.22911     -46797.311      187.61216      184.44748      356.94103    
     94500  -47039.766      252.35737     -46787.409      187.64258      184.44721      357.06228    
     94600  -47032.561      262.6977      -46769.863      187.67577      184.44476      357.18352    
     94700  -47026.333      262.51804     -46763.815      187.71091      184.44333      357.30476    
     94800  -47031.718      257.94402     -46773.774      187.74625      184.44133      357.42601    
     94900  -47042.338      252.53358     -46789.804      187.78378      184.43857      357.54725    
     95000  -47045.259      249.43239     -46795.827      187.81598      184.43551      357.66849    
     95100  -47037.502      251.66261     -46785.839      187.84652      184.43259      357.78974    
     95200  -47032.513      262.68464     -46769.828      187.87751      184.43037      357.91098    
     95300  -47028.858      264.43692     -46764.421      187.90741      184.42729      358.03223    
     95400  -47036.242      261.05141     -46775.19       187.9372       184.42389      358.15347    
     95500  -47038.703      249.03356     -46789.67       187.96728      184.4235       358.27471    
     95600  -47040.228      247.29608     -46792.932      187.99773      184.42392      358.39596    
     95700  -47039.293      255.03205     -46784.261      188.02966      184.42408      358.5172     
     95800  -47033.862      260.59646     -46773.266      188.05967      184.42053      358.63844    
     95900  -47029.842      260.71186     -46769.13       188.09138      184.4184       358.75969    
     96000  -47031.058      255.45801     -46775.6        188.12047      184.41477      358.88093    
     96100  -47040.465      253.51452     -46786.95       188.14775      184.41486      359.00217    
     96200  -47043.656      251.85278     -46791.804      188.17485      184.41655      359.12342    
     96300  -47040.372      255.19767     -46785.175      188.19991      184.41773      359.24466    
     96400  -47033.776      260.32505     -46773.451      188.22728      184.41965      359.3659     
     96500  -47028.713      260.76194     -46767.951      188.25685      184.42194      359.48715    
     96600  -47037.273      263.49728     -46773.776      188.28812      184.41884      359.60839    
     96700  -47039.199      253.64667     -46785.552      188.32152      184.4167       359.72964    
     96800  -47038.317      245.42937     -46792.888      188.3501       184.41397      359.85088    
     96900  -47041.006      251.60562     -46789.4        188.37979      184.41413      359.97212    
     97000  -47035.168      257.7697      -46777.398      188.40571      184.41415      360.09337    
     97100  -47027.13       259.10815     -46768.022      188.43338      184.4175       360.21461    
     97200  -47035.038      263.83673     -46771.202      188.45836      184.41826      360.33585    
     97300  -47040.745      255.5956      -46785.149      188.48594      184.41785      360.4571     
     97400  -47045.333      249.89564     -46795.438      188.51283      184.41589      360.57834    
     97500  -47045.787      252.64146     -46793.145      188.5424       184.4168       360.69958    
     97600  -47036.762      256.41382     -46780.348      188.57026      184.417        360.82083    
     97700  -47029.525      262.14508     -46767.38       188.59694      184.41823      360.94207    
     97800  -47030.805      264.64756     -46766.157      188.62224      184.41938      361.06331    
     97900  -47035.293      257.17877     -46778.115      188.64883      184.42068      361.18456    
     98000  -47039.357      249.32427     -46790.033      188.67693      184.42055      361.3058     
     98100  -47042.092      251.48126     -46790.611      188.70819      184.41826      361.42704    
     98200  -47037.127      256.41632     -46780.711      188.73935      184.41404      361.54829    
     98300  -47032.331      260.55588     -46771.775      188.76963      184.41036      361.66953    
     98400  -47033.357      260.48069     -46772.876      188.79936      184.40809      361.79078    
     98500  -47034.778      254.21745     -46780.561      188.83025      184.40668      361.91202    
     98600  -47042.544      254.49072     -46788.053      188.86062      184.40143      362.03326    
     98700  -47039.273      251.12594     -46788.147      188.89425      184.39711      362.15451    
     98800  -47038.156      257.06948     -46781.086      188.92713      184.39028      362.27575    
     98900  -47035.815      260.90238     -46774.912      188.9586       184.3846       362.39699    
     99000  -47033.962      259.95037     -46774.012      188.98974      184.37961      362.51824    
     99100  -47036.429      257.6143      -46778.815      189.02177      184.3768       362.63948    
     99200  -47039.737      253.83343     -46785.904      189.05394      184.37458      362.76072    
     99300  -47039.623      250.48243     -46789.14       189.08785      184.37341      362.88197    
     99400  -47040.011      254.907       -46785.104      189.11973      184.37271      363.00321    
     99500  -47033.076      255.8456      -46777.23       189.1519       184.37176      363.12445    
     99600  -47032.64       259.61478     -46773.025      189.18358      184.37221      363.2457     
     99700  -47036.435      259.55304     -46776.881      189.21467      184.37167      363.36694    
     99800  -47040.05       255.09046     -46784.959      189.24579      184.36934      363.48819    
     99900  -47040.676      250.91215     -46789.764      189.2767       184.36558      363.60943    
    100000  -47039.566      254.20906     -46785.357      189.31161      184.36362      363.73067    
    100100  -47035.665      258.96913     -46776.696      189.34789      184.36001      363.85192    
    100200  -47034.915      262.98599     -46771.929      189.38149      184.35337      363.97316    
    100300  -47035.092      260.02093     -46775.071      189.41862      184.34816      364.0944     
    100400  -47036.382      253.04971     -46783.332      189.4538       184.34138      364.21565    
    100500  -47041.53       252.55374     -46788.976      189.48991      184.33988      364.33689    
    100600  -47039.319      253.3715      -46785.948      189.52099      184.33456      364.45813    
    100700  -47034.162      258.10744     -46776.054      189.55444      184.33064      364.57938    
    100800  -47035.107      264.37151     -46770.736      189.58823      184.32598      364.70062    
    100900  -47033.046      257.9843      -46775.062      189.62139      184.31985      364.82186    
    101000  -47037.547      253.55509     -46783.992      189.6571       184.31654      364.94311    
    101100  -47037.096      248.05672     -46789.039      189.68996      184.31367      365.06435    
    101200  -47041.125      255.97908     -46785.146      189.72311      184.31286      365.1856     
    101300  -47036.331      258.85465     -46777.476      189.75591      184.31144      365.30684    
    101400  -47033.533      260.67161     -46772.861      189.78508      184.30764      365.42808    
    101500  -47032.452      256.82796     -46775.624      189.81847      184.30659      365.54933    
    101600  -47034.632      251.69849     -46782.934      189.84733      184.30128      365.67057    
    101700  -47040.185      252.89847     -46787.287      189.87964      184.3036       365.79181    
    101800  -47037.628      253.49615     -46784.132      189.90592      184.30217      365.91306    
    101900  -47036.734      259.61015     -46777.124      189.93464      184.30474      366.0343     
    102000  -47029.785      258.83335     -46770.952      189.96356      184.30742      366.15554    
    102100  -47031.473      259.62034     -46771.853      189.99013      184.30681      366.27679    
    102200  -47034.58       254.11575     -46780.464      190.02158      184.30999      366.39803    
    102300  -47040.855      253.25269     -46787.603      190.04812      184.30702      366.51927    
    102400  -47035.427      248.61184     -46786.815      190.08193      184.30937      366.64052    
    102500  -47037.57       258.62381     -46778.946      190.11113      184.30478      366.76176    
    102600  -47033.01       259.05355     -46773.957      190.14451      184.30378      366.883      
    102700  -47036.3        259.43312     -46776.867      190.17749      184.30053      367.00425    
    102800  -47037.587      253.83486     -46783.752      190.20821      184.29349      367.12549    
    102900  -47043.132      255.88687     -46787.245      190.24387      184.29247      367.24674    
    103000  -47038.842      254.00549     -46784.837      190.27561      184.28751      367.36798    
    103100  -47037.075      258.26845     -46778.806      190.31025      184.2848       367.48922    
    103200  -47031.924      257.84337     -46774.081      190.34332      184.27958      367.61047    
    103300  -47033.913      258.22431     -46775.689      190.37861      184.27696      367.73171    
    103400  -47038.498      255.20292     -46783.295      190.41589      184.27443      367.85295    
    103500  -47040.413      251.82745     -46788.586      190.45083      184.26812      367.9742     
    103600  -47041.899      255.49541     -46786.404      190.4871       184.2653       368.09544    
    103700  -47039.986      261.21094     -46778.776      190.52096      184.25892      368.21668    
    103800  -47038.134      265.491       -46772.643      190.55994      184.25697      368.33793    
    103900  -47035.743      262.20079     -46773.542      190.59594      184.24924      368.45917    
    104000  -47034.459      254.01035     -46780.448      190.63219      184.23988      368.58041    
    104100  -47038.082      251.97524     -46786.107      190.67079      184.23253      368.70166    
    104200  -47035.015      248.81004     -46786.205      190.70732      184.22401      368.8229     
    104300  -47034.703      253.31076     -46781.392      190.74336      184.21672      368.94415    
    104400  -47035.33       259.6951      -46775.635      190.77973      184.21029      369.06539    
    104500  -47033.256      259.09972     -46774.157      190.81588      184.20431      369.18663    
    104600  -47037.301      258.75611     -46778.545      190.85325      184.20056      369.30788    
    104700  -47039.849      254.86039     -46784.988      190.8893       184.19465      369.42912    
    104800  -47041.774      254.40187     -46787.372      190.92932      184.19216      369.55036    
    104900  -47039.567      256.12039     -46783.447      190.96736      184.18232      369.67161    
    105000  -47032.666      256.85179     -46775.814      191.00943      184.17708      369.79285    
    105100  -47032.883      260.28152     -46772.601      191.04776      184.16717      369.91409    
    105200  -47035.775      260.24603     -46775.529      191.08642      184.15938      370.03534    
    105300  -47036.753      252.23257     -46784.52       191.12743      184.15314      370.15658    
    105400  -47040.291      250.99004     -46789.301      191.16706      184.14596      370.27782    
    105500  -47037.331      251.13029     -46786.201      191.21158      184.14278      370.39907    
    105600  -47034.616      257.2231      -46777.393      191.25539      184.13093      370.52031    
    105700  -47034.157      261.28557     -46772.871      191.304        184.12447      370.64156    
    105800  -47036.438      260.70216     -46775.736      191.34989      184.11521      370.7628     
    105900  -47037.179      253.77079     -46783.408      191.39602      184.10546      370.88404    
    106000  -47043.319      256.39414     -46786.925      191.44393      184.09933      371.00529    
    106100  -47039.267      255.03434     -46784.232      191.48579      184.08894      371.12653    
    106200  -47033.92       256.67198     -46777.248      191.52951      184.08433