LAMMPS (2 Aug 2023 - Update 3)
OMP_NUM_THREADS environment is not set. Defaulting to 1 thread. (src/comm.cpp:98)
  using 1 OpenMP thread(s) per MPI task

# 1------general---------------
units                             metal      #单位为lammps 中的metel 类型
dimension                    3          #模拟的维度 三维
boundary                    p p p      #周期边界条件
atom_style                  atomic   #原子类型自动
atom_modify              map array sort 100 2.0
neighbor                    3.0 bin
neigh_modify            every 1 delay 0 check yes
#2 -----global variable-------定义全局变量，方便统一修改；
variable temperature equal 300
variable tstep equal 0.001
variable pressure equal 0
variable thermalstep equal 100
variable dumpstep equal 1000
variable relaxtime equal 0
variable totaltime equal 200000
variable deformrate equal 5e-3
#3 -------model------------
#box tilt large
read_data     1.lmp
Reading data file ...
  orthogonal box = (-100 -100 -2.3312515) to (100 100 46.166171)
  3 by 4 by 1 MPI processor grid
  reading atoms ...
  1320 atoms
  read_data CPU = 0.732 seconds
group sr type 2 3
360 atoms in group sr
delete_atoms group sr
Deleted 360 atoms, new total = 960
replicate 1 1 3
Replication is creating a 1x1x3 = 3 times larger system...
  orthogonal box = (-100 -100 -2.3312515) to (100 100 143.16102)
  2 by 3 by 2 MPI processor grid
  2880 atoms
  replicate CPU = 0.656 seconds
write_data z.data
System init for write_data ...
WARNING: Communication cutoff is 0.0. No ghost atoms will be generated. Atoms may get lost. (src/comm_brick.cpp:210)
pair_style hybrid airebo 3.0 airebo 3.0 airebo 3.0 lj/cut 10
pair_coeff * * airebo 1 CH.airebo C NULL NULL
Reading airebo potential file CH.airebo with DATE: 2011-10-25
pair_coeff * * airebo 2 CH.airebo NULL C NULL
Reading airebo potential file CH.airebo with DATE: 2011-10-25
pair_coeff * * airebo 3 CH.airebo NULL NULL C
Reading airebo potential file CH.airebo with DATE: 2011-10-25
pair_coeff 1 2 lj/cut 0.00456 3.431
pair_coeff 1 3 lj/cut 0.00456 3.431
pair_coeff 2 3 lj/cut 0.00456 3.431

# 5------minimize -----------
min_style      sd
minimize       1.0e-4 1.0e-6 100 1000
Neighbor list info ...
  update: every = 1 steps, delay = 0 steps, check = yes
  max neighbors/atom: 2000, page size: 100000
  master list distance cutoff = 13.2
  ghost atom cutoff = 13.2
  binsize = 6.6, bins = 31 31 23
  6 neighbor lists, perpetual/occasional/extra = 6 0 0
  (1) pair airebo, perpetual, skip from (5)
      attributes: full, newton on, ghost
      pair build: skip/ghost
      stencil: none
      bin: none
  (2) pair airebo, perpetual, skip from (5)
      attributes: full, newton on, ghost
      pair build: skip/ghost
      stencil: none
      bin: none
  (3) pair airebo, perpetual, skip from (5)
      attributes: full, newton on, ghost
      pair build: skip/ghost
      stencil: none
      bin: none
  (4) pair lj/cut, perpetual, skip from (6)
      attributes: half, newton on, cut 13
      pair build: skip
      stencil: none
      bin: none
  (5) neighbor class addition, perpetual
      attributes: full, newton on, ghost
      pair build: full/bin/ghost
      stencil: full/ghost/bin/3d
      bin: standard
  (6) neighbor class addition, perpetual
      attributes: half, newton on, cut 13
      pair build: half/bin/atomonly/newton
      stencil: half/bin/3d
      bin: standard
Per MPI rank memory allocation (min/avg/max) = 9.728 | 10.32 | 11.5 Mbytes
   Step          Temp          E_pair         E_mol          TotEng         Press     
         0   0             -21334.128      0             -21334.128     -25.745857    
         1   0             -21334.181      0             -21334.181     -25.739335    
Loop time of 0.886665 on 12 procs for 1 steps with 2880 atoms

39.8% CPU use with 12 MPI tasks x 1 OpenMP threads

Minimization stats:
  Stopping criterion = energy tolerance
  Energy initial, next-to-last, final = 
     -21334.1283840869  -21334.1283840869  -21334.1812548638
  Force two-norm initial, final = 3.7515432 0.37796055
  Force max component initial, final = 0.069876905 0.0070494245
  Final line search alpha, max atom move = 1 0.0070494245
  Iterations, force evaluations = 1 2

MPI task timing breakdown:
Section |  min time  |  avg time  |  max time  |%varavg| %total
---------------------------------------------------------------
Pair    | 1.17e-05   | 0.01484    | 0.072647   |  19.0 |  1.67
Neigh   | 0          | 0          | 0          |   0.0 |  0.00
Comm    | 3.357e-06  | 0.060525   | 0.22074    |  36.3 |  6.83
Output  | 0          | 0          | 0          |   0.0 |  0.00
Modify  | 0          | 0          | 0          |   0.0 |  0.00
Other   |            | 0.8113     |            |       | 91.50

Nlocal:            240 ave         750 max           0 min
Histogram: 8 0 0 0 0 0 0 0 0 4
Nghost:            408 ave        1254 max           0 min
Histogram: 8 0 0 0 0 0 0 0 0 4
Neighs:              0 ave           0 max           0 min
Histogram: 12 0 0 0 0 0 0 0 0 0

Total # of neighbors = 0
Ave neighs/atom = 0
Neighbor list builds = 0
Dangerous builds = 0
#6----define computes------
variable nums equal count(all) #计算原子数目
variable toval equal 16.0428*16.0428*lz #计算系统总体积，单层石墨烯厚度为0.335nm
variable vol equal ${toval} #体系的初始体积
variable vol equal 37445.5535941804 
variable vatom equal v_vol/v_nums #单个原子体积
compute 1 all stress/atom NULL #计算体系中单原子应力
compute xalls all reduce sum c_1[1]
variable xstress equal (c_xalls)/(v_toval*10000)
compute yalls all reduce sum c_1[2]
variable ystress equal (c_yalls)/(v_toval*10000)
compute zalls all reduce sum c_1[3]
variable zstress equal (c_zalls)/(v_toval*10000)
#7---------relaxation-------------------------
timestep ${tstep}
timestep 0.001
velocity all create ${temperature} 231743 units box dist gaussian
velocity all create 300 231743 units box dist gaussian
dump   1 all atom 100 all-cy.lammpstrj
#fix    1 all npt temp 300 300  0.1 aniso 0 0 10 drag 1  #三个方向独立控压
fix  1 all npt temp ${temperature} ${temperature} 0.1 x ${pressure} ${pressure} 10 y ${pressure} ${pressure} 10
fix  1 all npt temp 300 ${temperature} 0.1 x ${pressure} ${pressure} 10 y ${pressure} ${pressure} 10
fix  1 all npt temp 300 300 0.1 x ${pressure} ${pressure} 10 y ${pressure} ${pressure} 10
fix  1 all npt temp 300 300 0.1 x 0 ${pressure} 10 y ${pressure} ${pressure} 10
fix  1 all npt temp 300 300 0.1 x 0 0 10 y ${pressure} ${pressure} 10
fix  1 all npt temp 300 300 0.1 x 0 0 10 y 0 ${pressure} 10
fix  1 all npt temp 300 300 0.1 x 0 0 10 y 0 0 10
compute  2 all pe/atom
compute  pe all reduce sum c_2
variable PE equal "c_pe"
fix    pe all print 100 "${PE} " file PE.txt screen no
thermo  ${thermalstep}
thermo  100
#thermo_style  custom step pe ke etotal lx ly lz
run   ${relaxtime}
run   0
Per MPI rank memory allocation (min/avg/max) = 10.35 | 10.94 | 12.13 Mbytes
   Step          Temp          E_pair         E_mol          TotEng         Press          Volume    
         1   300           -21334.181      0             -21222.539     -5.2491091      5819690.8    
Loop time of 0.0663332 on 12 procs for 0 steps with 2880 atoms

31.7% CPU use with 12 MPI tasks x 1 OpenMP threads

MPI task timing breakdown:
Section |  min time  |  avg time  |  max time  |%varavg| %total
---------------------------------------------------------------
Pair    | 0          | 0          | 0          |   0.0 |  0.00
Neigh   | 0          | 0          | 0          |   0.0 |  0.00
Comm    | 0          | 0          | 0          |   0.0 |  0.00
Output  | 0          | 0          | 0          |   0.0 |  0.00
Modify  | 0          | 0          | 0          |   0.0 |  0.00
Other   |            | 0.06633    |            |       |100.00

Nlocal:            240 ave         720 max           0 min
Histogram: 8 0 0 0 0 0 0 0 0 4
Nghost:            408 ave        1224 max           0 min
Histogram: 8 0 0 0 0 0 0 0 0 4
Neighs:              0 ave           0 max           0 min
Histogram: 12 0 0 0 0 0 0 0 0 0

Total # of neighbors = 0
Ave neighs/atom = 0
Neighbor list builds = 0
Dangerous builds = 0
#8 -------tension-----------------------------
unfix  1
undump  1
unfix  pe
reset_timestep 0
fix avestress all ave/atom 1 ${dumpstep} ${dumpstep} c_1[1] c_1[2] c_1[3] c_1[4] c_1[5] c_1[6]
fix avestress all ave/atom 1 1000 ${dumpstep} c_1[1] c_1[2] c_1[3] c_1[4] c_1[5] c_1[6]
fix avestress all ave/atom 1 1000 1000 c_1[1] c_1[2] c_1[3] c_1[4] c_1[5] c_1[6]

#-----calculation of strain and Cumulative compression--------
variable                tmp equal "lz"
variable                L0 equal ${tmp}
variable                L0 equal 145.492269
variable                strain equal "(lz - v_L0)/v_L0"
variable                Cumulativels equal "(lz - v_L0)/10"
fix Step all print 100 "${strain} ${Cumulativels} ${zstress}" file grapoten.txt screen no

dump 2 all custom ${dumpstep} tension.xyz type x y z f_avestress[1] f_avestress[2] f_avestress[3] f_avestress[4] f_avestress[5] f_avestress[6]
dump 2 all custom 1000 tension.xyz type x y z f_avestress[1] f_avestress[2] f_avestress[3] f_avestress[4] f_avestress[5] f_avestress[6]

fix  1 all npt temp ${temperature} ${temperature} 0.1 y ${pressure} ${pressure} 10 x ${pressure} ${pressure} 10
fix  1 all npt temp 300 ${temperature} 0.1 y ${pressure} ${pressure} 10 x ${pressure} ${pressure} 10
fix  1 all npt temp 300 300 0.1 y ${pressure} ${pressure} 10 x ${pressure} ${pressure} 10
fix  1 all npt temp 300 300 0.1 y 0 ${pressure} 10 x ${pressure} ${pressure} 10
fix  1 all npt temp 300 300 0.1 y 0 0 10 x ${pressure} ${pressure} 10
fix  1 all npt temp 300 300 0.1 y 0 0 10 x 0 ${pressure} 10
fix  1 all npt temp 300 300 0.1 y 0 0 10 x 0 0 10

thermo_style custom step pe ke etotal lx ly lz
fix   2 all deform 1 z erate ${deformrate} remap x units box
fix   2 all deform 1 z erate 0.005 remap x units box
fix   3 all ave/time 2 500 1000 v_xstress v_ystress v_zstress file pressure.out
run   ${totaltime}
run   200000
WARNING: Dump 2 includes no atom IDs and is not sorted by ID. This may complicate post-processing tasks or visualization (src/dump.cpp:221)
Per MPI rank memory allocation (min/avg/max) = 11.85 | 12.44 | 13.63 Mbytes
   Step         PotEng         KinEng         TotEng           Lx             Ly             Lz      
         0  -21334.181      111.64199     -21222.539      200            200            145.49227    
       100  -21268.822      56.244742     -21212.577      199.99298      199.99414      145.56502    
       200  -21269.634      71.508089     -21198.126      199.98189      199.98419      145.63776    
       300  -21255.077      74.284636     -21180.792      199.98211      199.98515      145.71051    
       400  -21249.375      87.431523     -21161.944      199.96683      199.9704       145.78325    
       500  -21235.894      93.216216     -21142.678      199.96668      199.97161      145.856      
       600  -21231.231      106.7071      -21124.524      199.95492      199.96148      145.92875    
       700  -21220.519      110.59815     -21109.921      199.94739      199.95632      146.00149    
       800  -21218.95       117.70471     -21101.245      199.94051      199.9511       146.07424    
       900  -21217.185      115.7674      -21101.418      199.92764      199.94032      146.14698    
      1000  -21220.819      111.57842     -21109.24       199.92487      199.94023      146.21973    
      1100  -21223.51       107.73008     -21115.78       199.90991      199.92819      146.29248    
      1200  -21225.022      108.89849     -21116.124      199.90328      199.92473      146.36522    
      1300  -21218.194      107.8225      -21110.372      199.89412      199.91915      146.43797    
      1400  -21218.539      115.0228      -21103.516      199.87993      199.90843      146.51071    
      1500  -21216.328      115.1208      -21101.207      199.87436      199.90789      146.58346    
      1600  -21216.724      112.16628     -21104.558      199.85736      199.89571      146.65621    
      1700  -21220.63       110.40401     -21110.226      199.85209      199.89471      146.72895    
      1800  -21221.32       109.40463     -21111.915      199.83617      199.88409      146.8017     
      1900  -21218.995      110.93662     -21108.058      199.82596      199.8791       146.87445    
      2000  -21215.433      113.65462     -21101.778      199.817        199.87437      146.94719    
      2100  -21213.259      114.87457     -21098.384      199.79821      199.86069      147.01994    
      2200  -21211.382      111.88959     -21099.492      199.79275      199.85965      147.09268    
      2300  -21213.075      109.9765      -21103.098      199.77445      199.84658      147.16543    
      2400  -21215.984      111.41496     -21104.569      199.76421      199.84192      147.23818    
      2500  -21214.204      112.4107      -21101.794      199.75159      199.83401      147.31092    
      2600  -21207.684      110.85551     -21096.828      199.73589      199.82213      147.38367    
      2700  -21208.503      115.12283     -21093.38       199.72813      199.8178       147.45641    
      2800  -21206.112      112.73084     -21093.381      199.70886      199.80188      147.52916    
      2900  -21208.676      112.44085     -21096.235      199.70184      199.79726      147.60191    
      3000  -21209.552      111.6263      -21097.926      199.6876       199.78521      147.67465    
      3100  -21208.483      112.23711     -21096.246      199.67236      199.77117      147.7474     
      3200  -21204.011      111.91672     -21092.095      199.66621      199.7658       147.82015    
      3300  -21201.256      113.30365     -21087.952      199.64603      199.74621      147.89289    
      3400  -21201.206      114.07551     -21087.13       199.63972      199.74141      147.96564    
      3500  -21200.629      112.29635     -21088.333      199.62172      199.72435      148.03838    
      3600  -21200.344      110.81824     -21089.526      199.61001      199.71361      148.11113    
      3700  -21199.967      111.09092     -21088.876      199.59881      199.7035       148.18388    
      3800  -21194.743      109.39834     -21085.345      199.57869      199.68474      148.25662    
      3900  -21195.103      113.88763     -21081.215      199.57233      199.67979      148.32937    
      4000  -21192.739      114.38236     -21078.356      199.54992      199.65886      148.40211    
      4100  -21191.492      113.35788     -21078.134      199.53895      199.64966      148.47486    
      4200  -21189.64       110.35947     -21079.281      199.52358      199.63589      148.54761    
      4300  -21190.271      110.80817     -21079.463      199.50399      199.61888      148.62035    
      4400  -21187.374      109.24321     -21078.13       199.49406      199.61211      148.6931     
      4500  -21184.973      110.88639     -21074.086      199.46745      199.5906       148.76585    
      4600  -21183.805      113.85451     -21069.95       199.45675      199.58459      148.83859    
      4700  -21180.801      112.82976     -21067.972      199.43485      199.56839      148.91134    
      4800  -21180.668      112.06665     -21068.601      199.41426      199.5529       148.98408    
      4900  -21180.135      110.53941     -21069.596      199.40135      199.54604      149.05683    
      5000  -21177.647      109.1902      -21068.456      199.37373      199.52418      149.12958    
      5100  -21177.237      112.52954     -21064.707      199.36042      199.51729      149.20232    
      5200  -21173.608      113.48814     -21060.119      199.33627      199.49917      149.27507    
      5300  -21169.002      111.56986     -21057.432      199.31546      199.48462      149.34781    
      5400  -21169.991      112.46632     -21057.524      199.29891      199.47402      149.42056    
      5500  -21170.35       112.06076     -21058.289      199.27046      199.45151      149.49331    
      5600  -21168.39       111.01777     -21057.373      199.25666      199.44252      149.56605    
      5700  -21163.669      109.83575     -21053.833      199.22973      199.42034      149.6388     
      5800  -21160.435      111.29082     -21049.145      199.20905      199.40372      149.71154    
      5900  -21160.069      114.47729     -21045.592      199.19035      199.38855      149.78429    
      6000  -21157.492      112.19772     -21045.294      199.1633       199.36489      149.85704    
      6100  -21158.045      110.23715     -21047.808      199.14696      199.35252      149.92978    
      6200  -21155.561      110.20363     -21045.357      199.11938      199.32787      150.00253    
      6300  -21153.366      112.83114     -21040.535      199.09842      199.30971      150.07528    
      6400  -21149.737      113.36327     -21036.374      199.07769      199.29177      150.14802    
      6500  -21145.164      111.17947     -21033.985      199.04886      199.2655       150.22077    
      6600  -21143.855      110.83192     -21033.023      199.03277      199.2519       150.29351    
      6700  -21143.789      111.67039     -21032.119      199.00268      199.22472      150.36626    
      6800  -21142.026      112.15756     -21029.868      198.98109      199.20632      150.43901    
      6900  -21140.314      112.7549      -21027.559      198.95606      199.18559      150.51175    
      7000  -21138.132      113.50451     -21024.627      198.92475      199.15871      150.5845     
      7100  -21134.298      113.15401     -21021.144      198.90478      199.143        150.65724    
      7200  -21131.779      113.93089     -21017.848      198.87157      199.11411      150.72999    
      7300  -21130.867      113.73175     -21017.135      198.8474       199.09397      150.80274    
      7400  -21128.463      110.26946     -21018.193      198.81921      199.07023      150.87548    
      7500  -21126.254      110.20801     -21016.046      198.78586      199.04197      150.94823    
      7600  -21120.315      109.8252      -21010.49       198.76244      199.02348      151.02098    
      7700  -21122.319      116.75981     -21005.559      198.726        198.99245      151.09372    
      7800  -21116.033      112.47358     -21003.559      198.69894      198.97171      151.16647    
      7900  -21114.514      112.13702     -21002.377      198.6658       198.94491      151.23921    
      8000  -21111.418      109.9602      -21001.458      198.63051      198.91703      151.31196    
      8100  -21111.919      111.88498     -21000.034      198.60209      198.89558      151.38471    
      8200  -21107.225      110.05113     -20997.173      198.56333      198.86353      151.45745    
      8300  -21103.814      112.82236     -20990.991      198.53267      198.839        151.5302     
      8400  -21098.625      112.36434     -20986.26       198.49787      198.81002      151.60294    
      8500  -21097.122      112.58759     -20984.535      198.46098      198.77891      151.67569    
      8600  -21098.701      113.00096     -20985.7        198.42908      198.75287      151.74844    
      8700  -21093.925      110.41196     -20983.513      198.38856      198.71747      151.82118    
      8800  -21088.026      108.72337     -20979.302      198.35527      198.68992      151.89393    
      8900  -21087.457      112.77082     -20974.686      198.31582      198.65595      151.96667    
      9000  -21083.131      112.60279     -20970.528      198.27772      198.62314      152.03942    
      9100  -21079.058      111.33731     -20967.721      198.24185      198.59284      152.11217    
      9200  -21079.155      111.75814     -20967.396      198.19762      198.55397      152.18491    
      9300  -21074.326      108.03929     -20966.287      198.16255      198.52364      152.25766    
      9400  -21071.971      110.20389     -20961.767      198.11857      198.48398      152.33041    
      9500  -21069.124      113.92911     -20955.195      198.07889      198.44905      152.40315    
      9600  -21063.045      111.88977     -20951.156      198.03803      198.4133       152.4759     
      9700  -21060.673      111.55247     -20949.121      197.99139      198.37264      152.54864    
      9800  -21059.084      111.44966     -20947.634      197.95214      198.34025      152.62139    
      9900  -21055.372      110.62679     -20944.746      197.90088      198.29568      152.69414    
     10000  -21050.277      109.014       -20941.263      197.85897      198.26034      152.76688    
     10100  -21049.026      112.08934     -20936.936      197.81084      198.21989      152.83963    
     10200  -21042.565      111.63822     -20930.927      197.7613       198.17732      152.91237    
     10300  -21042.223      116.08062     -20926.143      197.71743      198.14067      152.98512    
     10400  -21039.051      112.03366     -20927.018      197.66331      198.09367      153.05787    
     10500  -21035.63       109.70236     -20925.927      197.61607      198.05428      153.13061    
     10600  -21035.355      112.928       -20922.427      197.56431      198.00991      153.20336    
     10700  -21029.036      111.19385     -20917.842      197.51031      197.96472      153.27611    
     10800  -21023.496      112.02458     -20911.472      197.46035      197.92333      153.34885    
     10900  -21019.724      113.67782     -20906.046      197.40235      197.87478      153.4216     
     11000  -21018.597      111.91143     -20906.686      197.35034      197.83125      153.49434    
     11100  -21016.842      111.36455     -20905.478      197.29276      197.78193      153.56709    
     11200  -21009.495      107.64186     -20901.853      197.23628      197.73315      153.63984    
     11300  -21008.521      111.62612     -20896.895      197.18128      197.68654      153.71258    
     11400  -21003.741      113.39043     -20890.351      197.11888      197.6329       153.78533    
     11500  -20996.72       111.1465      -20885.574      197.06451      197.58736      153.85807    
     11600  -20995.923      110.1663      -20885.757      197.00047      197.53281      153.93082    
     11700  -20995.483      110.46033     -20885.023      196.94007      197.48145      154.00357    
     11800  -20992.969      112.3111      -20880.658      196.88061      197.43095      154.07631    
     11900  -20985.09       110.80227     -20874.287      196.81456      197.37426      154.14906    
     12000  -20982.248      114.26376     -20867.984      196.7546       197.32323      154.22181    
     12100  -20978.351      113.57216     -20864.779      196.6898       197.26734      154.29455    
     12200  -20979.141      112.34891     -20866.793      196.62399      197.21018      154.3673     
     12300  -20972.721      109.73685     -20862.984      196.56022      197.15491      154.44004    
     12400  -20969.841      113.28159     -20856.559      196.49131      197.09488      154.51279    
     12500  -20964.004      113.6592      -20850.345      196.42741      197.03949      154.58554    
     12600  -20959.946      113.68396     -20846.262      196.35795      196.97868      154.65828    
     12700  -20958.366      112.03008     -20846.336      196.28886      196.91753      154.73103    
     12800  -20954.409      109.57657     -20844.832      196.22254      196.85929      154.80377    
     12900  -20948.272      108.88809     -20839.384      196.15074      196.79533      154.87652    
     13000  -20942.843      109.92237     -20832.921      196.08187      196.73457      154.94927    
     13100  -20939.985      112.35718     -20827.628      196.01186      196.67242      155.02201    
     13200  -20935.766      112.09339     -20823.672      195.9393       196.60798      155.09476    
     13300  -20929.463      108.83885     -20820.624      195.87017      196.54638      155.1675     
     13400  -20930.391      110.76685     -20819.625      195.79481      196.47947      155.24025    
     13500  -20926.963      108.45596     -20818.507      195.72429      196.41708      155.313      
     13600  -20921.152      109.84363     -20811.309      195.65033      196.35191      155.38574    
     13700  -20914.689      110.37788     -20804.311      195.57442      196.28528      155.45849    
     13800  -20911.313      112.49668     -20798.816      195.50351      196.22361      155.53124    
     13900  -20908.108      114.14714     -20793.961      195.42532      196.15476      155.60398    
     14000  -20901.566      111.14632     -20790.419      195.35186      196.0915       155.67673    
     14100  -20899.299      109.87024     -20789.428      195.27571      196.02525      155.74947    
     14200  -20897.046      110.62198     -20786.424      195.19823      195.95796      155.82222    
     14300  -20891.28       112.00288     -20779.277      195.12531      195.89594      155.89497    
     14400  -20883.626      111.9087      -20771.717      195.04383      195.82554      155.96771    
     14500  -20881.858      113.97643     -20767.881      194.97126      195.76413      156.04046    
     14600  -20875.543      110.2326      -20765.31       194.89297      195.6972       156.1132     
     14700  -20873.912      111.10314     -20762.809      194.81315      195.62834      156.18595    
     14800  -20870.908      110.25641     -20760.652      194.74121      195.5674       156.2587     
     14900  -20866.816      109.61539     -20757.201      194.65839      195.49576      156.33144    
     15000  -20858.137      109.26004     -20748.877      194.5864       195.43447      156.40419    
     15100  -20853.023      111.63678     -20741.386      194.50782      195.36602      156.47694    
     15200  -20848.247      112.19717     -20736.05       194.4306       195.29939      156.54968    
     15300  -20844.556      111.63628     -20732.92       194.35877      195.23778      156.62243    
     15400  -20841.307      109.34867     -20731.959      194.27702      195.16641      156.69517    
     15500  -20838.301      109.82476     -20728.476      194.20673      195.10678      156.76792    
     15600  -20831.429      110.59373     -20720.835      194.13         195.03998      156.84067    
     15700  -20823.237      108.72708     -20714.51       194.05432      194.97393      156.91341    
     15800  -20821.872      112.12405     -20709.748      193.98445      194.91283      156.98616    
     15900  -20815.445      110.24135     -20705.204      193.90763      194.84418      157.0589     
     16000  -20811.737      109.95488     -20701.782      193.84         194.78464      157.13165    
     16100  -20807.61       110.01077     -20697.599      193.76438      194.71696      157.2044     
     16200  -20804.662      113.16911     -20691.493      193.69518      194.65571      157.27714    
     16300  -20796.525      112.72439     -20683.8        193.62651      194.59485      157.34989    
     16400  -20791.121      113.03993     -20678.081      193.55153      194.52799      157.42264    
     16500  -20788.347      111.48622     -20676.861      193.48756      194.47178      157.49538    
     16600  -20786.082      111.41262     -20674.669      193.41619      194.40727      157.56813    
     16700  -20780.676      111.72613     -20668.949      193.3493       194.34748      157.64087    
     16800  -20772.75       111.13135     -20661.619      193.28408      194.28901      157.71362    
     16900  -20767.682      112.51744     -20655.164      193.21532      194.22634      157.78637    
     17000  -20764.967      114.20064     -20650.767      193.15476      194.17226      157.85911    
     17100  -20758.791      112.49538     -20646.295      193.08546      194.11061      157.93186    
     17200  -20751.388      110.06175     -20641.326      193.02263      194.05532      158.0046     
     17300  -20747.695      111.87318     -20635.822      192.96115      194.00209      158.07735    
     17400  -20741.872      110.66117     -20631.211      192.89493      193.94387      158.1501     
     17500  -20738.196      109.95921     -20628.237      192.83615      193.89292      158.22284    
     17600  -20733.15       108.66548     -20624.485      192.77337      193.83766      158.29559    
     17700  -20728.038      110.50757     -20617.531      192.71323      193.78513      158.36833    
     17800  -20721.962      113.09499     -20608.867      192.65602      193.73544      158.44108    
     17900  -20715.667      112.53807     -20603.129      192.59289      193.68092      158.51383    
     18000  -20712.77       113.04619     -20599.724      192.53914      193.63577      158.58657    
     18100  -20708.08       112.3785      -20595.702      192.47909      193.58492      158.65932    
     18200  -20702.902      112.06211     -20590.84       192.42059      193.53479      158.73207    
     18300  -20695.651      110.31413     -20585.337      192.36929      193.49171      158.80481    
     18400  -20691.223      113.43028     -20577.793      192.30993      193.4396       158.87756    
     18500  -20684.601      115.72805     -20568.873      192.25946      193.39669      158.9503     
     18600  -20677.307      112.58761     -20564.72       192.20558      193.34985      159.02305    
     18700  -20675.478      112.0437      -20563.434      192.15218      193.30328      159.0958     
     18800  -20671.977      112.99957     -20558.978      192.10413      193.26259      159.16854    
     18900  -20665.694      112.42985     -20553.264      192.04885      193.21409      159.24129    
     19000  -20658.082      111.1244      -20546.958      192.00372      193.17574      159.31403    
     19100  -20652.436      113.18313     -20539.253      191.95267      193.13098      159.38678    
     19200  -20645.249      113.15768     -20532.091      191.90457      193.08857      159.45953    
     19300  -20642.704      113.35901     -20529.345      191.86164      193.04996      159.53227    
     19400  -20637.916      110.35796     -20527.558      191.81211      193.00407      159.60502    
     19500  -20634.077      111.92716     -20522.15       191.77193      192.9673       159.67777    
     19600  -20625.494      111.31657     -20514.177      191.7261       192.92479      159.75051    
     19700  -20619.096      112.45542     -20506.64       191.68331      192.88582      159.82326    
     19800  -20613.491      112.17347     -20501.317      191.64321      192.84916      159.896      
     19900  -20609.996      113.32518     -20496.671      191.59804      192.80739      159.96875    
     20000  -20603.897      111.84184     -20492.055      191.56056      192.7728       160.0415     
     20100  -20597.946      110.47891     -20487.467      191.51837      192.73298      160.11424    
     20200  -20594          111.68321     -20482.317      191.47941      192.69626      160.18699    
     20300  -20587.301      110.86654     -20476.435      191.44284      192.66201      160.25973    
     20400  -20580.886      112.75429     -20468.132      191.40075      192.62236      160.33248    
     20500  -20572.684      112.10418     -20460.58       191.36669      192.59137      160.40523    
     20600  -20567.596      111.85134     -20455.745      191.32709      192.55534      160.47797    
     20700  -20564.681      110.31204     -20454.369      191.28921      192.52121      160.55072    
     20800  -20558.106      108.76367     -20449.342      191.2553       192.49131      160.62346    
     20900  -20551.686      110.29127     -20441.394      191.2154       192.4538       160.69621    
     21000  -20549.047      115.03142     -20434.016      191.18457      192.42624      160.76896    
     21100  -20540          112.02304     -20427.977      191.14782      192.39251      160.8417     
     21200  -20536.69       114.35161     -20422.338      191.11134      192.36011      160.91445    
     21300  -20529.12       111.09983     -20418.02       191.0809       192.33474      160.9872     
     21400  -20525.929      109.9412      -20415.988      191.04055      192.30044      161.05994    
     21500  -20518.844      109.55312     -20409.29       191.00964      192.27531      161.13269    
     21600  -20509.473      109.96991     -20399.503      190.97471      192.24626      161.20543    
     21700  -20504.139      111.78557     -20392.353      190.94005      192.21715      161.27818    
     21800  -20498.902      112.27021     -20386.631      190.91114      192.19276      161.35093    
     21900  -20491.927      110.62476     -20381.303      190.87281      192.15947      161.42367    
     22000  -20488.186      111.04029     -20377.146      190.84569      192.13748      161.49642    
     22100  -20481.183      108.72784     -20372.455      190.81192      192.10949      161.56916    
     22200  -20475.74       111.0784      -20364.662      190.7774       192.08079      161.64191    
     22300  -20465.875      111.13003     -20354.745      190.75002      192.05935      161.71466    
     22400  -20459.016      110.62602     -20348.39       190.7149       192.02853      161.7874     
     22500  -20456.877      112.40325     -20344.474      190.68758      192.00497      161.86015    
     22600  -20451.447      110.92516     -20340.522      190.65667      191.97731      161.9329     
     22700  -20443.59       108.94716     -20334.643      190.62613      191.94927      162.00564    
     22800  -20435.529      111.88475     -20323.645      190.60183      191.92721      162.07839    
     22900  -20429.817      113.9364      -20315.881      190.56855      191.89582      162.15113    
     23000  -20423.692      111.79178     -20311.901      190.54387      191.87295      162.22388    
     23100  -20419.853      110.95286     -20308.9        190.51728      191.84676      162.29663    
     23200  -20412.784      109.64807     -20303.136      190.48782      191.81725      162.36937    
     23300  -20407.775      112.65773     -20295.117      190.46569      191.79464      162.44212    
     23400  -20399.335      114.4456      -20284.89       190.43641      191.76443      162.51486    
     23500  -20392.371      113.9751      -20278.396      190.41382      191.74038      162.58761    
     23600  -20384.475      110.78318     -20273.692      190.3874       191.7129       162.66036    
     23700  -20382.546      112.49346     -20270.052      190.35968      191.68427      162.7331     
     23800  -20376.35       110.84962     -20265.501      190.33873      191.66283      162.80585    
     23900  -20368.138      109.62725     -20258.51       190.30905      191.63312      162.8786     
     24000  -20360.054      112.20881     -20247.845      190.28597      191.60975      162.95134    
     24100  -20356.034      115.88631     -20240.148      190.26139      191.58509      163.02409    
     24200  -20348.191      111.94673     -20236.245      190.23369      191.55752      163.09683    
     24300  -20340.763      108.90461     -20231.859      190.21134      191.53558      163.16958    
     24400  -20337.072      111.689       -20225.383      190.18234      191.50803      163.24233    
     24500  -20331.794      113.66467     -20218.129      190.15885      191.48711      163.31507    
     24600  -20323.147      113.87116     -20209.276      190.13189      191.46311      163.38782    
     24700  -20315.414      116.3085      -20199.105      190.10262      191.43816      163.46056    
     24800  -20308.741      113.72883     -20195.012      190.07968      191.42023      163.53331    
     24900  -20303.789      112.42715     -20191.361      190.04838      191.39406      163.60606    
     25000  -20296.839      110.83498     -20186.004      190.02389      191.37387      163.6788     
     25100  -20290.558      111.0331      -20179.525      189.99719      191.35193      163.75155    
     25200  -20285.119      114.40531     -20170.714      189.96848      191.32837      163.82429    
     25300  -20278.291      117.04936     -20161.242      189.94584      191.31161      163.89704    
     25400  -20266.114      110.79649     -20155.317      189.91245      191.2853       163.96979    
     25500  -20265.859      112.10706     -20153.752      189.88761      191.26773      164.04253    
     25600  -20258.335      110.39619     -20147.938      189.86095      191.24738      164.11528    
     25700  -20250.399      110.7626      -20139.637      189.82937      191.2214       164.18803    
     25800  -20243.149      112.73269     -20130.417      189.80863      191.20601      164.26077    
     25900  -20235.688      113.19435     -20122.494      189.77662      191.17881      164.33352    
     26000  -20229.301      111.66456     -20117.636      189.7515       191.15815      164.40626    
     26100  -20224.93       110.33045     -20114.599      189.72589      191.13765      164.47901    
     26200  -20216.627      108.32182     -20108.305      189.69544      191.11123      164.55176    
     26300  -20210.591      111.83394     -20098.757      189.6743       191.094        164.6245     
     26400  -20200.771      111.06732     -20089.703      189.64482      191.06714      164.69725    
     26500  -20194.605      111.20515     -20083.399      189.61985      191.04372      164.76999    
     26600  -20192.886      115.12294     -20077.763      189.59847      191.02273      164.84274    
     26700  -20182.616      111.19134     -20071.424      189.56899      190.99318      164.91549    
     26800  -20178.942      114.49511     -20064.446      189.54739      190.97172      164.98823    
     26900  -20170.901      113.77937     -20057.122      189.5231       190.947        165.06098    
     27000  -20157.658      108.04902     -20049.609      189.49582      190.9187       165.13373    
     27100  -20154.305      112.96067     -20041.344      189.47665      190.89772      165.20647    
     27200  -20143.697      109.16341     -20034.534      189.44922      190.86712      165.27922    
     27300  -20142.872      112.19498     -20030.677      189.42786      190.84208      165.35196    
     27400  -20139.393      113.26015     -20026.133      189.40584      190.81711      165.42471    
     27500  -20130.518      111.77884     -20018.739      189.37831      190.78701      165.49746    
     27600  -20119.693      112.40276     -20007.291      189.35962      190.76606      165.5702     
     27700  -20110.855      111.78268     -19999.073      189.33255      190.73701      165.64295    
     27800  -20107.028      113.14438     -19993.883      189.30678      190.70931      165.71569    
     27900  -20099.363      110.41252     -19988.951      189.2856       190.68541      165.78844    
     28000  -20094.578      111.41624     -19983.162      189.25753      190.65594      165.86119    
     28100  -20085.398      108.06946     -19977.329      189.23504      190.632        165.93393    
     28200  -20078.494      110.06094     -19968.433      189.20782      190.60475      166.00668    
     28300  -20071.689      113.62429     -19958.064      189.18126      190.5797       166.07943    
     28400  -20065.545      115.09782     -19950.447      189.15665      190.55718      166.15217    
     28500  -20056.561      111.0295      -19945.531      189.12529      190.52885      166.22492    
     28600  -20052.745      110.48582     -19942.259      189.10004      190.50686      166.29766    
     28700  -20046.346      111.52719     -19934.819      189.07191      190.4823       166.37041    
     28800  -20036.111      109.99219     -19926.118      189.04269      190.45768      166.44316    
     28900  -20026.357      109.01284     -19917.344      189.01417      190.43499      166.5159     
     29000  -20020.379      111.5084      -19908.871      188.98335      190.41167      166.58865    
     29100  -20013.138      111.63163     -19901.506      188.95384      190.39037      166.66139    
     29200  -20009.808      114.10445     -19895.704      188.92212      190.3665       166.73414    
     29300  -20001.987      110.18734     -19891.8        188.89107      190.3439       166.80689    
     29400  -19994.832      110.17146     -19884.66       188.8619       190.32231      166.87963    
     29500  -19986.23       112.28231     -19873.947      188.83017      190.29818      166.95238    
     29600  -19978.26       113.34769     -19864.912      188.79897      190.27476      167.02512    
     29700  -19969.908      111.51838     -19858.389      188.76764      190.25203      167.09787    
     29800  -19965.459      112.6568      -19852.802      188.73562      190.22799      167.17062    
     29900  -19958.457      108.8307      -19849.626      188.70606      190.20467      167.24336    
     30000  -19952.109      108.07148     -19844.038      188.6729       190.17722      167.31611    
     30100  -19942.795      110.29997     -19832.495      188.6448       190.15381      167.38886    
     30200  -19932.762      109.29966     -19823.462      188.61494      190.12776      167.4616     
     30300  -19925.679      111.26624     -19814.413      188.58287      190.09905      167.53435    
     30400  -19918.047      112.33735     -19805.71       188.55589      190.07451      167.60709    
     30500  -19911.968      113.93227     -19798.035      188.52472      190.04495      167.67984    
     30600  -19904.528      110.96074     -19793.568      188.4974       190.01745      167.75259    
     30700  -19899.506      110.53036     -19788.975      188.46882      189.98744      167.82533    
     30800  -19891.696      110.75762     -19780.938      188.43994      189.95602      167.89808    
     30900  -19885.041      114.24947     -19770.791      188.41513      189.92786      167.97082    
     31000  -19875.527      112.9401      -19762.587      188.38603      189.89447      168.04357    
     31100  -19867.369      111.85193     -19755.517      188.35915      189.86333      168.11632    
     31200  -19859.333      110.594       -19748.739      188.33384      189.8341       168.18906    
     31300  -19854.568      112.16442     -19742.404      188.30435      189.79946      168.26181    
     31400  -19846.473      110.34194     -19736.131      188.27928      189.76875      168.33456    
     31500  -19838.779      110.75975     -19728.02       188.25169      189.73544      168.4073     
     31600  -19830.89       113.73182     -19717.159      188.22356      189.70143      168.48005    
     31700  -19821.327      112.83529     -19708.492      188.19822      189.67112      168.55279    
     31800  -19814.231      111.24094     -19702.991      188.16727      189.63626      168.62554    
     31900  -19809.841      110.48499     -19699.356      188.13826      189.60477      168.69829    
     32000  -19802.158      108.53985     -19693.618      188.11047      189.57488      168.77103    
     32100  -19795.758      111.1878      -19684.571      188.07706      189.54008      168.84378    
     32200  -19786.136      110.91198     -19675.224      188.04794      189.5109       168.91652    
     32300  -19775.329      110.54681     -19664.782      188.01651      189.48037      168.98927    
     32400  -19769.23       113.8162      -19655.414      187.98186      189.44782      169.06202    
     32500  -19759.657      111.19654     -19648.46       187.9526       189.42119      169.13476    
     32600  -19755.479      110.67253     -19644.806      187.91562      189.38856      169.20751    
     32700  -19749.526      110.40254     -19639.124      187.88221      189.36046      169.28025    
     32800  -19740.889      110.87068     -19630.018      187.84946      189.33326      169.353      
     32900  -19733.699      113.04886     -19620.65       187.80842      189.29928      169.42575    
     33000  -19723.369      111.26777     -19612.101      187.77796      189.2765       169.49849    
     33100  -19718.144      114.66269     -19603.482      187.73862      189.24513      169.57124    
     33200  -19708.495      112.81316     -19595.682      187.70045      189.21599      169.64399    
     33300  -19701.387      111.98498     -19589.402      187.66701      189.1919       169.71673    
     33400  -19694.614      110.50309     -19584.111      187.62491      189.15939      169.78948    
     33500  -19687.418      110.72668     -19576.691      187.59037      189.1336       169.86222    
     33600  -19677.537      111.99442     -19565.543      187.5528       189.10422      169.93497    
     33700  -19668.376      112.54194     -19555.834      187.51276      189.0721       170.00772    
     33800  -19661.384      112.39045     -19548.994      187.47936      189.04675      170.08046    
     33900  -19653.882      110.71371     -19543.168      187.43847      189.01364      170.15321    
     34000  -19646.751      110.42051     -19536.331      187.40013      188.98247      170.22595    
     34100  -19639.44       111.22672     -19528.213      187.36647      188.95426      170.2987     
     34200  -19629.648      109.99817     -19519.649      187.32632      188.9171       170.37145    
     34300  -19622.844      111.95844     -19510.885      187.2927       188.88698      170.44419    
     34400  -19613.871      111.73697     -19502.134      187.25681      188.85348      170.51694    
     34500  -19604.871      111.75914     -19493.112      187.21803      188.81615      170.58969    
     34600  -19597.079      111.20436     -19485.874      187.18715      188.78661      170.66243    
     34700  -19590.852      109.72314     -19481.129      187.14861      188.74709      170.73518    
     34800  -19585.537      110.23801     -19475.299      187.11455      188.71103      170.80792    
     34900  -19576.772      111.12276     -19465.65       187.08349      188.67722      170.88067    
     35000  -19564.998      111.09408     -19453.904      187.04605      188.63613      170.95342    
     35100  -19558.677      112.43691     -19446.24       187.01382      188.60025      171.02616    
     35200  -19553.936      114.01347     -19439.923      186.98039      188.56244      171.09891    
     35300  -19542.954      108.89523     -19434.059      186.94435      188.52122      171.17165    
     35400  -19539.218      111.39886     -19427.819      186.91407      188.48519      171.2444     
     35500  -19531.926      110.72136     -19421.205      186.87841      188.44317      171.31715    
     35600  -19522.116      111.40781     -19410.708      186.84475      188.40403      171.38989    
     35700  -19511.894      112.03116     -19399.863      186.81397      188.36853      171.46264    
     35800  -19501.369      110.09408     -19391.275      186.77351      188.32396      171.53539    
     35900  -19496.522      111.87425     -19384.648      186.74145      188.28825      171.60813    
     36000  -19491.734      110.6075      -19381.126      186.70621      188.24933      171.68088    
     36100  -19484.195      110.36229     -19373.832      186.66668      188.20721      171.75362    
     36200  -19473.246      110.02527     -19363.221      186.63442      188.17338      171.82637    
     36300  -19464.087      110.3452      -19353.742      186.59162      188.13118      171.89912    
     36400  -19455.431      111.06739     -19344.363      186.55471      188.0954       171.97186    
     36500  -19449.171      113.8464      -19335.325      186.51794      188.06045      172.04461    
     36600  -19440.517      113.86713     -19326.649      186.47293      188.01834      172.11735    
     36700  -19432.357      111.9901      -19320.367      186.43742      187.98618      172.1901     
     36800  -19427.209      111.71603     -19315.493      186.39402      187.94802      172.26285    
     36900  -19421.331      113.03495     -19308.296      186.35178      187.91256      172.33559    
     37000  -19409.45       112.32235     -19297.127      186.31187      187.88042      172.40834    
     37100  -19401.254      115.00076     -19286.253      186.26398      187.84117      172.48108    
     37200  -19391.898      113.10179     -19278.796      186.22532      187.81058      172.55383    
     37300  -19383.485      110.89783     -19272.587      186.18099      187.77487      172.62658    
     37400  -19377.013      109.96446     -19267.049      186.13419      187.73719      172.69932    
     37500  -19369.68       107.71395     -19261.966      186.09475      187.7073       172.77207    
     37600  -19363.851      109.64805     -19254.203      186.04659      187.66927      172.84482    
     37700  -19350.314      108.93795     -19241.376      186.00386      187.63584      172.91756    
     37800  -19343.803      112.66087     -19231.143      185.96056      187.60181      172.99031    
     37900  -19336.378      113.83803     -19222.54       185.91321      187.56219      173.06305    
     38000  -19326.852      110.67103     -19216.181      185.87431      187.53001      173.1358     
     38100  -19323.869      112.56337     -19211.306      185.82845      187.48964      173.20855    
     38200  -19313.595      109.3052      -19204.29       185.78447      187.45206      173.28129    
     38300  -19302.289      111.22676     -19191.062      185.74426      187.41669      173.35404    
     38400  -19293.64       112.29452     -19181.345      185.69929      187.3747       173.42678    
     38500  -19285.676      111.78827     -19173.888      185.66006      187.33674      173.49953    
     38600  -19277.795      110.53043     -19167.265      185.61809      187.29536      173.57228    
     38700  -19270.215      109.32321     -19160.891      185.57657      187.25348      173.64502    
     38800  -19262.842      109.31775     -19153.524      185.539        187.21443      173.71777    
     38900  -19254.759      112.12884     -19142.63       185.49657      187.17042      173.79052    
     39000  -19245.41       113.79796     -19131.612      185.45746      187.12816      173.86326    
     39100  -19236.115      112.58333     -19123.532      185.4193       187.08536      173.93601    
     39200  -19231.182      113.13896     -19118.043      185.37991      187.04028      174.00875    
     39300  -19224.538      110.96369     -19113.574      185.34274      186.99661      174.0815     
     39400  -19214.816      110.52703     -19104.289      185.30469      186.95219      174.15425    
     39500  -19204.659      110.72736     -19093.932      185.26671      186.90749      174.22699    
     39600  -19195.614      111.78034     -19083.834      185.22896      186.86374      174.29974    
     39700  -19187.12       112.01623     -19075.104      185.18922      186.81775      174.37248    
     39800  -19180.389      112.17073     -19068.218      185.15238      186.77394      174.44523    
     39900  -19173.934      109.31036     -19064.623      185.11318      186.729        174.51798    
     40000  -19166.665      110.23914     -19056.426      185.07368      186.68419      174.59072    
     40100  -19157.078      112.29571     -19044.783      185.03472      186.64082      174.66347    
     40200  -19143.018      108.11315     -19034.905      184.99504      186.59767      174.73622    
     40300  -19139.647      113.59946     -19026.048      184.95282      186.55406      174.80896    
     40400  -19129.015      112.00101     -19017.014      184.91153      186.51174      174.88171    
     40500  -19117.839      110.35372     -19007.485      184.87104      186.47064      174.95445    
     40600  -19111.399      112.92756     -18998.471      184.82784      186.42943      175.0272     
     40700  -19104.966      111.855       -18993.111      184.78507      186.38947      175.09995    
     40800  -19098.345      110.80035     -18987.545      184.7404       186.34881      175.17269    
     40900  -19089.512      110.69061     -18978.822      184.69607      186.30918      175.24544    
     41000  -19078.357      111.05306     -18967.304      184.65165      186.27116      175.31818    
     41100  -19072.59       115.49697     -18957.093      184.60533      186.23205      175.39093    
     41200  -19062.152      112.3443      -18949.808      184.55943      186.19439      175.46368    
     41300  -19054.598      111.07315     -18943.524      184.51405      186.15701      175.53642    
     41400  -19047.535      110.49118     -18937.044      184.4677       186.12009      175.60917    
     41500  -19038.421      109.54773     -18928.873      184.42072      186.08256      175.68191    
     41600  -19028.718      112.61828     -18916.1        184.37462      186.04637      175.75466    
     41700  -19019.85       113.97237     -18905.878      184.32762      186.00926      175.82741    
     41800  -19014.452      114.78178     -18899.67       184.28141      185.97292      175.90015    
     41900  -19004.084      109.69221     -18894.392      184.23545      185.93775      175.9729     
     42000  -18995.629      109.39331     -18886.235      184.18681      185.89818      176.04565    
     42100  -18989.52       112.77262     -18876.748      184.1422       185.86296      176.11839    
     42200  -18979.912      112.85669     -18867.055      184.09653      185.82605      176.19114    
     42300  -18970.633      113.93134     -18856.702      184.0492       185.78574      176.26388    
     42400  -18960.86       114.6141      -18846.245      184.0063       185.74973      176.33663    
     42500  -18953.871      113.22587     -18840.645      183.96114      185.70956      176.40938    
     42600  -18946.414      110.96324     -18835.451      183.91752      185.6699       176.48212    
     42700  -18939.589      111.65687     -18827.932      183.87694      185.63227      176.55487    
     42800  -18928.059      110.00308     -18818.056      183.83168      185.58792      176.62761    
     42900  -18917.983      111.93289     -18806.05       183.7925       185.54921      176.70036    
     43000  -18910.416      114.40561     -18796.01       183.75329      185.50852      176.77311    
     43100  -18904.188      111.61509     -18792.573      183.70951      185.46231      176.84585    
     43200  -18896.892      110.34303     -18786.549      183.67391      185.42402      176.9186     
     43300  -18887.037      110.31538     -18776.721      183.63293      185.37808      176.99135    
     43400  -18877.67       112.43254     -18765.238      183.59519      185.33466      177.06409    
     43500  -18869.112      113.03528     -18756.077      183.56086      185.29342      177.13684    
     43600  -18861.371      111.82687     -18749.544      183.51878      185.24382      177.20958    
     43700  -18853.207      107.8395      -18745.368      183.48526      185.2041       177.28233    
     43800  -18847.273      110.98617     -18736.286      183.44855      185.16036      177.35508    
     43900  -18837.756      112.26821     -18725.488      183.40924      185.11403      177.42782    
     44000  -18827.833      111.87154     -18715.962      183.37699      185.07422      177.50057    
     44100  -18819.978      112.88971     -18707.088      183.33792      185.02744      177.57331    
     44200  -18811.307      113.16769     -18698.139      183.30224      184.98469      177.64606    
     44300  -18800.755      112.43766     -18688.317      183.26765      184.94338      177.71881    
     44400  -18793.086      114.04112     -18679.045      183.22646      184.89751      177.79155    
     44500  -18787.013      114.59801     -18672.415      183.19245      184.85898      177.8643     
     44600  -18777.686      110.67575     -18667.01       183.15435      184.81738      177.93704    
     44700  -18770.22       111.54612     -18658.674      183.11368      184.77484      178.00979    
     44800  -18759.546      112.14941     -18647.396      183.0788       184.73833      178.08254    
     44900  -18746.596      111.38106     -18635.215      183.03697      184.69684      178.15528    
     45000  -18740.551      112.62263     -18627.929      182.99806      184.65931      178.22803    
     45100  -18734.213      112.3963      -18621.817      182.95972      184.62356      178.30078    
     45200  -18725.626      110.6503      -18614.975      182.91635      184.58413      178.37352    
     45300  -18717.071      110.27006     -18606.8        182.87788      184.55067      178.44627    
     45400  -18707.067      111.32088     -18595.746      182.83557      184.51469      178.51901    
     45500  -18698.712      114.88985     -18583.822      182.7924       184.47913      178.59176    
     45600  -18692.173      115.6385      -18576.534      182.75298      184.44812      178.66451    
     45700  -18681.359      109.90846     -18571.45       182.70916      184.41313      178.73725    
     45800  -18671.812      108.41991     -18563.392      182.66781      184.38076      178.81       
     45900  -18668.207      114.20646     -18554.001      182.62606      184.3494       178.88274    
     46000  -18655.61       112.14554     -18543.465      182.58191      184.31614      178.95549    
     46100  -18645.814      114.00048     -18531.813      182.54166      184.2866       179.02824    
     46200  -18636.683      114.32001     -18522.363      182.49852      184.25377      179.10098    
     46300  -18629.156      110.48093     -18518.675      182.45654      184.2213       179.17373    
     46400  -18623.844      111.94646     -18511.897      182.4172       184.19093      179.24648    
     46500  -18614.299      111.24516     -18503.054      182.37435      184.15683      179.31922    
     46600  -18603.67       110.88044     -18492.79       182.33574      184.12693      179.39197    
     46700  -18595.973      114.23527     -18481.737      182.29524      184.09306      179.46471    
     46800  -18586.004      113.17345     -18472.831      182.25543      184.05882      179.53746    
     46900  -18580.405      111.66447     -18468.74       182.21952      184.02787      179.61021    
     47000  -18570.776      109.41418     -18461.362      182.18009      183.992        179.68295    
     47100  -18563.799      112.31106     -18451.488      182.14432      183.95939      179.7557     
     47200  -18553.907      114.31212     -18439.595      182.10846      183.92497      179.82844    
     47300  -18543.717      114.68626     -18429.031      182.07276      183.88881      179.90119    
     47400  -18537.633      112.19362     -18425.439      182.04095      183.85556      179.97394    
     47500  -18530.273      111.92755     -18418.345      182.00468      183.8168       180.04668    
     47600  -18519.126      111.17495     -18407.951      181.97284      183.78115      180.11943    
     47700  -18508.872      112.3516      -18396.52       181.94343      183.7464       180.19218    
     47800  -18500.495      113.32443     -18387.171      181.90942      183.70602      180.26492    
     47900  -18492.046      110.42801     -18381.618      181.88118      183.6708       180.33767    
     48000  -18486.378      110.68806     -18375.69       181.85037      183.63255      180.41041    
     48100  -18476.866      110.85727     -18366.009      181.81999      183.59447      180.48316    
     48200  -18467.03       111.80638     -18355.224      181.79339      183.55928      180.55591    
     48300  -18458.751      113.69278     -18345.059      181.76135      183.51832      180.62865    
     48400  -18449.389      112.4499      -18336.939      181.73462      183.48246      180.7014     
     48500  -18442.463      110.51765     -18331.946      181.7076       183.44734      180.77414    
     48600  -18433.43       109.58842     -18323.841      181.67569      183.40782      180.84689    
     48700  -18422.632      110.27857     -18312.353      181.64945      183.3734       180.91964    
     48800  -18412.863      111.92426     -18300.939      181.61931      183.33672      180.99238    
     48900  -18405.704      112.87511     -18292.829      181.58892      183.30023      181.06513    
     49000  -18400.02       113.89088     -18286.129      181.56292      183.2698       181.13787    
     49100  -18388.033      109.94285     -18278.09       181.52911      183.23324      181.21062    
     49200  -18380.221      111.13477     -18269.086      181.49916      183.20008      181.28337    
     49300  -18373.41       113.37349     -18260.036      181.47118      183.16992      181.35611    
     49400  -18360.918      109.25469     -18251.664      181.4367       183.13532      181.42886    
     49500  -18354.157      109.39297     -18244.764      181.40707      183.10684      181.50161    
     49600  -18348.311      111.50548     -18236.805      181.3738       183.07661      181.57435    
     49700  -18338.318      112.59839     -18225.72       181.33996      183.04662      181.6471     
     49800  -18324.491      111.16627     -18213.325      181.30912      183.02016      181.71984    
     49900  -18317.858      113.12434     -18204.734      181.27506      182.99051      181.79259    
     50000  -18311.599      113.32709     -18198.272      181.24121      182.96304      181.86534    
     50100  -18301.934      111.46087     -18190.473      181.20902      182.93871      181.93808    
     50200  -18292.705      110.57148     -18182.133      181.17306      182.91133      182.01083    
     50300  -18285.923      112.21952     -18173.704      181.13962      182.88618      182.08357    
     50400  -18275.52       110.183       -18165.337      181.10512      182.86121      182.15632    
     50500  -18266.76       109.41411     -18157.346      181.07069      182.83657      182.22907    
     50600  -18258.795      110.3157      -18148.48       181.03718      182.81262      182.30181    
     50700  -18250.167      112.33128     -18137.836      181.00236      182.78747      182.37456    
     50800  -18238.246      112.13734     -18126.109      180.9694       182.76308      182.44731    
     50900  -18233.236      116.587       -18116.649      180.93572      182.73858      182.52005    
     51000  -18225.786      113.2407      -18112.545      180.90278      182.71399      182.5928     
     51100  -18214.731      109.74439     -18104.987      180.87114      182.69034      182.66554    
     51200  -18206.851      112.18537     -18094.665      180.83831      182.6646       182.73829    
     51300  -18197.433      113.88128     -18083.551      180.80677      182.63864      182.81104    
     51400  -18186.209      112.40661     -18073.802      180.77769      182.61416      182.88378    
     51500  -18179.74       111.28062     -18068.459      180.7445       182.58502      182.95653    
     51600  -18172.907      111.11166     -18061.796      180.71658      182.56084      183.02927    
     51700  -18163.889      112.38185     -18051.507      180.68824      182.53495      183.10202    
     51800  -18151.391      112.0391      -18039.352      180.65737      182.50407      183.17477    
     51900  -18141.215      112.89023     -18028.325      180.63313      182.48         183.24751    
     52000  -18136.997      113.07501     -18023.922      180.60425      182.45017      183.32026    
     52100  -18126.627      109.73453     -18016.893      180.57773      182.42089      183.39301    
     52200  -18121.076      114.71505     -18006.36       180.55483      182.39429      183.46575    
     52300  -18106.604      111.65548     -17994.949      180.52739      182.36146      183.5385     
     52400  -18098.361      112.69939     -17985.662      180.50332      182.33205      183.61124    
     52500  -18092.805      112.5025      -17980.302      180.48159      182.30476      183.68399    
     52600  -18083.589      110.28656     -17973.303      180.45536      182.27201      183.75674    
     52700  -18074.333      111.27075     -17963.062      180.43401      182.24334      183.82948    
     52800  -18065.296      113.73796     -17951.558      180.41093      182.21289      183.90223    
     52900  -18054.091      112.64163     -17941.45       180.38743      182.18087      183.97497    
     53000  -18046.811      110.85252     -17935.959      180.36758      182.15292      184.04772    
     53100  -18040.104      110.18599     -17929.918      180.34359      182.12182      184.12047    
     53200  -18029.571      110.15179     -17919.42       180.32123      182.09206      184.19321    
     53300  -18019.536      112.55207     -17906.984      180.2997       182.0635       184.26596    
     53400  -18010.485      113.33185     -17897.154      180.27579      182.03334      184.3387     
     53500  -18002.174      111.17701     -17890.997      180.25346      182.00477      184.41145    
     53600  -17994.545      110.71598     -17883.829      180.23062      181.97694      184.4842     
     53700  -17984.568      110.59341     -17873.975      180.20596      181.94823      184.55694    
     53800  -17975.999      112.70237     -17863.297      180.18354      181.92222      184.62969    
     53900  -17965.158      112.41876     -17852.739      180.16045      181.89585      184.70244    
     54000  -17957.687      112.56353     -17845.123      180.13415      181.86835      184.77518    
     54100  -17950.793      111.0268      -17839.766      180.10944      181.84321      184.84793    
     54200  -17941.115      110.67291     -17830.443      180.0844       181.81898      184.92067    
     54300  -17929.926      111.22182     -17818.704      180.05817      181.79389      184.99342    
     54400  -17920.613      114.29219     -17806.321      180.03298      181.77104      185.06617    
     54500  -17910.273      114.239       -17796.034      180.00552      181.7474       185.13891    
     54600  -17902.508      110.8054      -17791.703      179.97766      181.72466      185.21166    
     54700  -17895.885      110.85009     -17785.035      179.95248      181.7048       185.2844     
     54800  -17885.657      109.30187     -17776.355      179.92229      181.68145      185.35715    
     54900  -17876.801      110.63756     -17766.164      179.89487      181.66086      185.4299     
     55000  -17867.009      112.79754     -17754.212      179.86796      181.64141      185.50264    
     55100  -17858.124      113.65777     -17744.466      179.8373       181.6188       185.57539    
     55200  -17849.397      109.92291     -17739.474      179.81225      181.602        185.64814    
     55300  -17840.377      108.83382     -17731.543      179.78332      181.58119      185.72088    
     55400  -17834.299      112.45623     -17721.843      179.75397      181.56032      185.79363    
     55500  -17821.809      110.9843      -17710.825      179.72815      181.5428       185.86637    
     55600  -17811.881      112.75289     -17699.128      179.69759      181.52038      185.93912    
     55700  -17804.748      113.72446     -17691.023      179.67128      181.50214      186.01187    
     55800  -17796.251      110.63619     -17685.614      179.6438       181.48218      186.08461    
     55900  -17785.45       108.42702     -17677.023      179.61587      181.46078      186.15736    
     56000  -17781.178      113.08337     -17668.095      179.59115      181.44233      186.2301     
     56100  -17771.607      111.90771     -17659.699      179.56349      181.41959      186.30285    
     56200  -17763.138      110.41911     -17652.719      179.53775      181.39805      186.3756     
     56300  -17754.924      111.07639     -17643.848      179.51414      181.37879      186.44834    
     56400  -17743.416      113.36844     -17630.047      179.48776      181.3555       186.52109    
     56500  -17733.216      114.41993     -17618.796      179.46344      181.33233      186.59383    
     56600  -17725.88       115.12501     -17610.755      179.44107      181.31073      186.66658    
     56700  -17714.594      110.83174     -17603.762      179.41759      181.28704      186.73933    
     56800  -17706.836      111.89067     -17594.945      179.39476      181.26261      186.81207    
     56900  -17697.323      112.05333     -17585.269      179.37442      181.23946      186.88482    
     57000  -17685.966      110.1442      -17575.822      179.35089      181.21193      186.95757    
     57100  -17678.593      110.25978     -17568.333      179.333        181.18923      187.03031    
     57200  -17673.625      110.19499     -17563.43       179.31277      181.16453      187.10306    
     57300  -17661.665      109.22153     -17552.443      179.29097      181.13752      187.1758     
     57400  -17652.375      113.13182     -17539.243      179.27303      181.11293      187.24855    
     57500  -17641.515      112.68197     -17528.833      179.25255      181.08491      187.3213     
     57600  -17631.185      110.73119     -17520.454      179.23306      181.05798      187.39404    
     57700  -17624.274      109.68647     -17514.588      179.2175       181.03508      187.46679    
     57800  -17615.179      109.6325      -17505.547      179.19531      181.00578      187.53953    
     57900  -17606.854      112.3971      -17494.457      179.17729      180.98053      187.61228    
     58000  -17594.333      111.24645     -17483.087      179.15885      180.95566      187.68503    
     58100  -17589.08       114.44249     -17474.638      179.13789      180.9278       187.75777    
     58200  -17580.665      111.4794      -17469.185      179.12178      180.90437      187.83052    
     58300  -17570.702      110.77825     -17459.924      179.10025      180.87681      187.90327    
     58400  -17562.14       114.03962     -17448.1        179.08074      180.85253      187.97601    
     58500  -17549.962      113.66141     -17436.3        179.06249      180.83071      188.04876    
     58600  -17540.75       113.44687     -17427.304      179.03785      180.80298      188.1215     
     58700  -17534.459      112.8782      -17421.581      179.02038      180.78202      188.19425    
     58800  -17523.373      110.09098     -17413.282      178.99899      180.75844      188.267      
     58900  -17513.565      110.39723     -17403.167      178.97377      180.73294      188.33974    
     59000  -17503.814      112.97163     -17390.843      178.95648      180.71615      188.41249    
     59100  -17492.58       113.91792     -17378.662      178.92827      180.68867      188.48523    
     59200  -17485.791      114.26005     -17371.531      178.90769      180.66873      188.55798    
     59300  -17477.228      111.9601      -17365.268      178.88852      180.65097      188.63073    
     59400  -17467.326      110.66748     -17356.659      178.85876      180.6247       188.70347    
     59500  -17459.672      112.29202     -17347.38       178.8401       180.61004      188.77622    
     59600  -17452.435      113.80807     -17338.627      178.81365      180.58852      188.84897    
     59700  -17442.555      111.85328     -17330.702      178.78595      180.56652      188.92171    
     59800  -17431.943      110.63449     -17321.309      178.76855      180.55389      188.99446    
     59900  -17420.562      110.55524     -17310.007      178.73816      180.5289       189.0672     
     60000  -17408.683      112.08368     -17296.599      178.71389      180.51032      189.13995    
     60100  -17400.663      115.09129     -17285.572      178.69168      180.49416      189.2127     
     60200  -17390.586      111.64785     -17278.938      178.66114      180.47071      189.28544    
     60300  -17381.736      111.57713     -17270.159      178.64046      180.45735      189.35819    
     60400  -17373.703      111.67661     -17262.026      178.61347      180.43665      189.43093    
     60500  -17362.946      109.51077     -17253.435      178.58667      180.41627      189.50368    
     60600  -17357.368      113.15662     -17244.212      178.56496      180.40066      189.57643    
     60700  -17347.882      112.05152     -17235.831      178.53687      180.37824      189.64917    
     60800  -17337.574      109.34605     -17228.228      178.51426      180.36121      189.72192    
     60900  -17327.005      110.32459     -17216.68       178.48869      180.3413       189.79466    
     61000  -17316.279      114.11839     -17202.161      178.46233      180.32013      189.86741    
     61100  -17306.13       115.24168     -17190.889      178.43953      180.30213      189.94016    
     61200  -17294.99       112.468       -17182.522      178.41443      180.28034      190.0129     
     61300  -17286.374      112.31211     -17174.062      178.39115      180.25937      190.08565    
     61400  -17277.161      111.60763     -17165.553      178.3699       180.24022      190.1584     
     61500  -17269.418      112.64454     -17156.773      178.34473      180.21611      190.23114    
     61600  -17258.689      111.74683     -17146.942      178.32376      180.19611      190.30389    
     61700  -17246.914      109.82016     -17137.094      178.30153      180.17392      190.37663    
     61800  -17240.41       109.90444     -17130.505      178.27826      180.14948      190.44938    
     61900  -17232.892      110.87583     -17122.016      178.25972      180.12967      190.52213    
     62000  -17221.483      112.11157     -17109.371      178.23659      180.10428      190.59487    
     62100  -17207.007      111.27278     -17095.734      178.21477      180.07926      190.66762    
     62200  -17197.93       113.06336     -17084.867      178.19561      180.05667      190.74036    
     62300  -17190.167      114.03746     -17076.13       178.17458      180.0317       190.81311    
     62400  -17181.061      114.43131     -17066.63       178.1546       180.00703      190.88586    
     62500  -17169.286      111.41273     -17057.873      178.13535      179.98318      190.9586     
     62600  -17159.826      110.59218     -17049.234      178.11493      179.95742      191.03135    
     62700  -17152.407      113.23268     -17039.174      178.09622      179.93287      191.1041     
     62800  -17140.655      111.6939      -17028.961      178.07621      179.90721      191.17684    
     62900  -17132.009      109.49771     -17022.512      178.05604      179.88196      191.24959    
     63000  -17122.696      110.43895     -17012.257      178.037        179.85739      191.32233    
     63100  -17107.989      109.44474     -16998.545      178.0161       179.83067      191.39508    
     63200  -17099.565      114.62116     -16984.944      177.99714      179.8065       191.46783    
     63300  -17086.474      111.5513      -16974.923      177.97748      179.78179      191.54057    
     63400  -17079.895      114.29586     -16965.599      177.95554      179.75527      191.61332    
     63500  -17067.75       111.74088     -16956.009      177.93621      179.73258      191.68606    
     63600  -17057.766      110.03382     -16947.732      177.91355      179.70705      191.75881    
     63700  -17048.241      110.32226     -16937.919      177.89396      179.68418      191.83156    
     63800  -17040.827      113.04937     -16927.777      177.87213      179.65974      191.9043     
     63900  -17028.085      109.30136     -16918.783      177.84889      179.6337       191.97705    
     64000  -17021.234      110.77443     -16910.46       177.8299       179.61241      192.0498     
     64100  -17007.811      109.5781      -16898.233      177.80483      179.58665      192.12254    
     64200  -16997.384      114.53013     -16882.854      177.78285      179.56475      192.19529    
     64300  -16984.661      114.34865     -16870.313      177.76005      179.5437       192.26803    
     64400  -16971.979      110.81013     -16861.169      177.73209      179.51827      192.34078    
     64500  -16962.504      111.14137     -16851.362      177.7118       179.50035      192.41353    
     64600  -16953.597      111.33506     -16842.262      177.68597      179.47683      192.48627    
     64700  -16944.35       112.27441     -16832.075      177.66114      179.45522      192.55902    
     64800  -16931.14       110.20231     -16820.938      177.63797      179.43544      192.63176    
     64900  -16921.295      110.59105     -16810.704      177.60938      179.4118       192.70451    
     65000  -16913.13       108.9945      -16804.135      177.58653      179.39364      192.77726    
     65100  -16903.497      110.33766     -16793.16       177.55946      179.37196      192.85       
     65200  -16891.056      111.77525     -16779.281      177.53312      179.35157      192.92275    
     65300  -16879.075      114.23014     -16764.845      177.50688      179.33067      192.99549    
     65400  -16865.8        112.22726     -16753.573      177.48086      179.31         193.06824    
     65500  -16856.651      111.37839     -16745.273      177.45457      179.28926      193.14099    
     65600  -16845.81       111.70082     -16734.109      177.42897      179.26915      193.21373    
     65700  -16833.577      111.13779     -16722.439      177.40201      179.24738      193.28648    
     65800  -16826.556      115.1702      -16711.386      177.37617      179.22689      193.35923    
     65900  -16812.684      111.00294     -16701.681      177.3496       179.20553      193.43197    
     66000  -16804.913      113.64733     -16691.265      177.32379      179.18456      193.50472    
     66100  -16792.351      113.22763     -16679.123      177.29702      179.16252      193.57746    
     66200  -16776.725      110.66309     -16666.062      177.27165      179.14101      193.65021    
     66300  -16767.206      113.50306     -16653.703      177.2456       179.11847      193.72296    
     66400  -16757.619      113.26818     -16644.351      177.21987      179.09545      193.7957     
     66500  -16746.181      112.0062      -16634.175      177.19587      179.07334      193.86845    
     66600  -16732.742      109.82732     -16622.915      177.16955      179.04835      193.94119    
     66700  -16720.479      110.00993     -16610.469      177.14657      179.0263       194.01394    
     66800  -16710.121      112.16643     -16597.955      177.12055      179.00032      194.08669    
     66900  -16698.374      111.51289     -16586.861      177.09738      178.97688      194.15943    
     67000  -16689.932      113.85175     -16576.08       177.07371      178.95197      194.23218    
     67100  -16675.781      111.66922     -16564.112      177.04894      178.92537      194.30493    
     67200  -16661.81       109.36797     -16552.442      177.02733      178.90183      194.37767    
     67300  -16654.245      111.35066     -16542.895      177.00265      178.87435      194.45042    
     67400  -16642.735      110.69161     -16532.044      176.98054      178.84913      194.52316    
     67500  -16628.396      111.96828     -16516.428      176.95734      178.82222      194.59591    
     67600  -16617.736      116.18094     -16501.555      176.93386      178.79473      194.66866    
     67700  -16603.613      114.3224      -16489.291      176.91248      178.76898      194.7414     
     67800  -16589.152      108.91953     -16480.232      176.88827      178.73983      194.81415    
     67900  -16581.191      113.87978     -16467.312      176.86707      178.71335      194.88689    
     68000  -16565.289      110.40457     -16454.884      176.84487      178.6858       194.95964    
     68100  -16555.366      111.42779     -16443.938      176.81986      178.65572      195.03239    
     68200  -16543.194      111.59231     -16431.602      176.80151      178.63193      195.10513    
     68300  -16532.065      113.39705     -16418.668      176.77474      178.59971      195.17788    
     68400  -16515.946      111.5069      -16404.439      176.7546       178.57431      195.25062    
     68500  -16503.435      112.50764     -16390.927      176.73144      178.54622      195.32337    
     68600  -16491.626      112.43046     -16379.195      176.70518      178.51566      195.39612    
     68700  -16478.976      112.10347     -16366.873      176.68652      178.49271      195.46886    
     68800  -16466.235      112.96168     -16353.273      176.65702      178.45978      195.54161    
     68900  -16453.485      113.62148     -16339.864      176.6362       178.43575      195.61436    
     69000  -16440.913      113.05543     -16327.858      176.61185      178.40883      195.6871     
     69100  -16429.8        114.56053     -16315.24       176.58335      178.37783      195.75985    
     69200  -16415.906      113.08112     -16302.825      176.56372      178.35622      195.83259    
     69300  -16404.326      113.68517     -16290.641      176.53405      178.32564      195.90534    
     69400  -16389.083      112.18063     -16276.903      176.50923      178.3004       195.97809    
     69500  -16375.375      110.65018     -16264.725      176.48436      178.27598      196.05083    
     69600  -16364.086      112.69361     -16251.392      176.45402      178.24691      196.12358    
     69700  -16350.593      112.90923     -16237.684      176.43033      178.22465      196.19632    
     69800  -16336.508      113.25626     -16223.252      176.39979      178.19632      196.26907    
     69900  -16322.318      112.85709     -16209.461      176.37364      178.17221      196.34182    
     70000  -16310.945      114.97816     -16195.967      176.34597      178.14713      196.41456    
     70100  -16297.834      114.47643     -16183.357      176.31603      178.12045      196.48731    
     70200  -16283.126      112.95947     -16170.167      176.29027      178.0983       196.56006    
     70300  -16269.897      111.76531     -16158.132      176.25945      178.07124      196.6328     
     70400  -16257.65       112.92834     -16144.722      176.2306       178.04715      196.70555    
     70500  -16242.986      112.85446     -16130.132      176.20161      178.02287      196.77829    
     70600  -16229.588      114.4194      -16115.168      176.17109      177.99717      196.85104    
     70700  -16216.304      114.6882      -16101.616      176.14202      177.97305      196.92379    
     70800  -16203.232      115.41526     -16087.817      176.1109       177.94705      196.99653    
     70900  -16188.13       113.65012     -16074.479      176.08259      177.92388      197.06928    
     71000  -16175.303      114.65424     -16060.649      176.05121      177.89737      197.14202    
     71100  -16163.517      117.41697     -16046.1        176.02189      177.87259      197.21477    
     71200  -16145.772      113.70907     -16032.063      175.99246      177.84783      197.28752    
     71300  -16132.838      115.26531     -16017.572      175.96075      177.82073      197.36026    
     71400  -16119.349      115.28229     -16004.066      175.9323       177.79695      197.43301    
     71500  -16105.124      115.24476     -15989.88       175.90128      177.76944      197.50576    
     71600  -16090.635      114.34544     -15976.29       175.87167      177.74297      197.5785     
     71700  -16075.737      112.92515     -15962.811      175.84291      177.71646      197.65125    
     71800  -16061.861      112.84266     -15949.019      175.81197      177.68765      197.72399    
     71900  -16048.338      113.0279      -15935.31       175.7839       177.6617       197.79674    
     72000  -16035.425      115.2897      -15920.135      175.7537       177.6334       197.86949    
     72100  -16018.639      114.03153     -15904.608      175.72382      177.60477      197.94223    
     72200  -16006.025      114.99337     -15891.031      175.69661      177.57826      198.01498    
     72300  -15989.294      113.55964     -15875.734      175.66607      177.54728      198.08772    
     72400  -15976.259      115.82902     -15860.43       175.63843      177.51886      198.16047    
     72500  -15961.654      116.33076     -15845.323      175.60985      177.48943      198.23322    
     72600  -15946.427      115.45879     -15830.968      175.57984      177.45813      198.30596    
     72700  -15931.226      115.01354     -15816.213      175.55271      177.42982      198.37871    
     72800  -15916.433      115.10687     -15801.326      175.52297      177.39852      198.45145    
     72900  -15905.007      117.68094     -15787.326      175.49417      177.36739      198.5242     
     73000  -15887.534      115.69223     -15771.842      175.46723      177.33801      198.59695    
     73100  -15873.604      116.38554     -15757.219      175.43671      177.30485      198.66969    
     73200  -15856.697      115.17558     -15741.521      175.40961      177.27504      198.74244    
     73300  -15843.193      117.57405     -15725.619      175.38077      177.24331      198.81519    
     73400  -15827.005      116.9368      -15710.069      175.35159      177.21135      198.88793    
     73500  -15810.641      116.28756     -15694.354      175.32355      177.18045      198.96068    
     73600  -15796.546      118.24564     -15678.3        175.29316      177.14733      199.03342    
     73700  -15780.348      117.29225     -15663.056      175.26492      177.11632      199.10617    
     73800  -15766.119      117.83023     -15648.289      175.23534      177.08376      199.17892    
     73900  -15747.99       117.06678     -15630.923      175.20547      177.0511       199.25166    
     74000  -15734.741      118.28402     -15616.457      175.17678      177.01968      199.32441    
     74100  -15717.847      117.34483     -15600.502      175.14592      176.98605      199.39715    
     74200  -15702.68       120.74911     -15581.931      175.11635      176.95403      199.4699     
     74300  -15687.774      121.56652     -15566.208      175.08623      176.92161      199.54265    
     74400  -15670.715      120.99947     -15549.716      175.05534      176.8886       199.61539    
     74500  -15655.694      118.87382     -15536.821      175.0257       176.85673      199.68814    
     74600  -15640.906      119.47167     -15521.435      174.99408      176.82312      199.76089    
     74700  -15624.045      120.34182     -15503.703      174.9638       176.79103      199.83363    
     74800  -15608.717      120.58926     -15488.128      174.93205      176.75779      199.90638    
     74900  -15587.02       117.8468      -15469.173      174.90034      176.72453      199.97912    
     75000  -15575.041      124.03631     -15451.004      174.86963      176.69269      200.05187    
     75100  -15555.701      123.79285     -15431.908      174.83637      176.65835      200.12462    
     75200  -15538.158      121.76157     -15416.396      174.8052       176.62619      200.19736    
     75300  -15525.472      124.6868      -15400.785      174.7729       176.59325      200.27011    
     75400  -15505.884      122.73167     -15383.153      174.7392       176.55929      200.34285    
     75500  -15491.084      125.29807     -15365.786      174.70731      176.52725      200.4156     
     75600  -15472.976      123.25786     -15349.718      174.67314      176.49328      200.48835    
     75700  -15457          125.05731     -15331.943      174.64006      176.46044      200.56109    
     75800  -15444.244      129.55687     -15314.687      174.60684      176.42762      200.63384    
     75900  -15420.236      127.42464     -15292.812      174.57166      176.39314      200.70659    
     76000  -15406.129      129.56326     -15276.566      174.53847      176.36068      200.77933    
     76100  -15387.485      129.43221     -15258.053      174.50375      176.32708      200.85208    
     76200  -15369.553      125.94427     -15243.609      174.46908      176.29351      200.92482    
     76300  -15355.088      130.69339     -15224.395      174.43495      176.26048      200.99757    
     76400  -15335.218      126.55645     -15208.661      174.39943      176.22606      201.07032    
     76500  -15319.351      126.21231     -15193.138      174.36512      176.19286      201.14306    
     76600  -15305.108      130.24403     -15174.864      174.3298       176.15873      201.21581    
     76700  -15289.183      133.31121     -15155.872      174.29378      176.12378      201.28855    
     76800  -15266.082      132.74879     -15133.334      174.25926      176.09051      201.3613     
     76900  -15246.828      128.17666     -15118.651      174.22281      176.05549      201.43405    
     77000  -15238.091      136.81938     -15101.271      174.18723      176.0214       201.50679    
     77100  -15216.138      134.18906     -15081.949      174.15138      175.98705      201.57954    
     77200  -15190.428      131.70151     -15058.727      174.11482      175.95181      201.65228    
     77300  -15180.723      141.91438     -15038.808      174.07913      175.91711      201.72503    
     77400  -15158.539      140.76485     -15017.774      174.04237      175.88156      201.79778    
     77500  -15137.318      140.19201     -14997.126      174.00607      175.84648      201.87052    
     77600  -15162.77       176.95591     -14985.814      173.97         175.81185      201.94327    
     77700  -15377.525      351.36992     -15026.155      173.93273      175.77363      202.01602    
     77800  -15967.135      656.27909     -15310.856      173.89872      175.74351      202.08876    
     77900  -16921.198      847.38918     -16073.809      173.87463      175.72526      202.16151    
     78000  -17895.855      775.54916     -17120.306      173.90299      175.76471      202.23425    
     78100  -18614.805      609.00711     -18005.798      173.95503      175.83037      202.307      
     78200  -19153.807      492.57639     -18661.231      173.96606      175.85426      202.37975    
     78300  -19589.776      420.10116     -19169.675      173.99007      175.88609      202.45249    
     78400  -19983.474      375.04672     -19608.428      174.02049      175.92394      202.52524    
     78500  -20319.885      336.37162     -19983.513      174.04625      175.95809      202.59798    
     78600  -20611.349      299.95015     -20311.399      174.07981      175.99946      202.67073    
     78700  -20811.875      243.35416     -20568.521      174.11389      176.03981      202.74348    
     78800  -20933.933      187.16431     -20746.769      174.15745      176.08885      202.81622    
     78900  -20993.379      137.18848     -20856.19       174.2058       176.14314      202.88897    
     79000  -21003.007      93.873566     -20909.134      174.26303      176.2065       202.96172    
     79100  -20981.05       67.982959     -20913.067      174.3116       176.26254      203.03446    
     79200  -20937.544      55.619276     -20881.925      174.35693      176.31626      203.10721    
     79300  -20891.951      40.236331     -20851.715      174.4053       176.37379      203.17995    
     79400  -20884.879      64.897947     -20819.981      174.44751      176.42708      203.2527     
     79500  -20915.206      144.61654     -20770.59       174.4894       176.47928      203.32545    
     79600  -20936.091      144.97387     -20791.117      174.51901      176.52445      203.39819    
     79700  -20936.304      93.247662     -20843.056      174.55574      176.57161      203.47094    
     79800  -20917.827      71.568616     -20846.259      174.59287      176.59957      203.54368    
     79900  -20894.804      85.747072     -20809.057      174.63154      176.61279      203.61643    
     80000  -20875.758      114.64585     -20761.112      174.67583      176.61684      203.68918    
     80100  -20877.051      143.29544     -20733.755      174.71063      176.60551      203.76192    
     80200  -20908.743      136.46537     -20772.278      174.77016      176.62184      203.83467    
     80300  -20943.643      116.45332     -20827.19       174.81184      176.63645      203.90742    
     80400  -20959.508      99.252629     -20860.255      174.86617      176.66939      203.98016    
     80500  -20963.101      96.046582     -20867.054      174.9078       176.69513      204.05291    
     80600  -20945.72       97.127374     -20848.593      174.94816      176.73473      204.12565    
     80700  -20913.368      98.903192     -20814.465      174.98016      176.77403      204.1984     
     80800  -20887.85       111.3025      -20776.548      175.00039      176.80956      204.27115    
     80900  -20865.166      119.58585     -20745.58       175.03262      176.85279      204.34389    
     81000  -20860.376      126.23792     -20734.138      175.06378      176.89856      204.41664    
     81100  -20859.509      110.70233     -20748.807      175.0939       176.9411       204.48938    
     81200  -20876.699      109.96359     -20766.735      175.13         176.98689      204.56213    
     81300  -20889.749      108.95542     -20780.793      175.16103      177.02865      204.63488    
     81400  -20898.971      110.43829     -20788.532      175.19922      177.07238      204.70762    
     81500  -20907.195      112.3081      -20794.887      175.23472      177.12313      204.78037    
     81600  -20913.202      110.15037     -20803.052      175.25957      177.17221      204.85311    
     81700  -20915.398      107.45876     -20807.939      175.28394      177.22639      204.92586    
     81800  -20918.054      111.51792     -20806.536      175.30381      177.28922      204.99861    
     81900  -20922.945      116.34126     -20806.603      175.32203      177.35352      205.07135    
     82000  -20929.325      112.92562     -20816.4        175.34213      177.43504      205.1441     
     82100  -20936          107.89506     -20828.105      175.35485      177.51127      205.21685    
     82200  -20934.63       102.09174     -20832.539      175.36683      177.59102      205.28959    
     82300  -20931.421      108.32713     -20823.094      175.37477      177.66391      205.36234    
     82400  -20921.385      114.23811     -20807.147      175.39888      177.74798      205.43508    
     82500  -20915.337      119.44352     -20795.894      175.41725      177.80301      205.50783    
     82600  -20913.406      113.98004     -20799.426      175.44998      177.86082      205.58058    
     82700  -20919.065      111.56881     -20807.496      175.47383      177.90389      205.65332    
     82800  -20918.939      106.2401      -20812.699      175.51012      177.95291      205.72607    
     82900  -20919.185      109.44711     -20809.738      175.53898      177.99002      205.79881    
     83000  -20914.833      110.51579     -20804.317      175.56744      178.02667      205.87156    
     83100  -20917.805      118.94529     -20798.86       175.59183      178.05665      205.94431    
     83200  -20912.883      111.37266     -20801.511      175.62026      178.08946      206.01705    
     83300  -20924.623      115.57215     -20809.051      175.64916      178.11797      206.0898     
     83400  -20927.458      107.94589     -20819.512      175.68365      178.14482      206.16255    
     83500  -20928.171      104.76153     -20823.41       175.71404      178.16332      206.23529    
     83600  -20926.962      109.42757     -20817.534      175.75138      178.17761      206.30804    
     83700  -20923.1        116.00992     -20807.09       175.7931       178.19391      206.38078    
     83800  -20920.119      116.08319     -20804.036      175.8371       178.20437      206.45353    
     83900  -20921.114      112.36085     -20808.753      175.88187      178.21009      206.52628    
     84000  -20923.074      108.60133     -20814.473      175.93048      178.21844      206.59902    
     84100  -20924.554      109.30213     -20815.251      175.98095      178.23252      206.67177    
     84200  -20921.053      110.19369     -20810.859      176.01822      178.23955      206.74451    
     84300  -20919.677      114.44268     -20805.234      176.05727      178.2522       206.81726    
     84400  -20915.275      113.31526     -20801.96       176.09484      178.26431      206.89001    
     84500  -20919.013      114.64764     -20804.365      176.13248      178.28025      206.96275    
     84600  -20921.625      109.91731     -20811.707      176.16987      178.29237      207.0355     
     84700  -20923.329      107.07572     -20816.253      176.20753      178.31095      207.10824    
     84800  -20925.63       110.93741     -20814.692      176.24392      178.33306      207.18099    
     84900  -20922.271      110.70536     -20811.566      176.26606      178.34985      207.25374    
     85000  -20921.218      113.11467     -20808.103      176.28486      178.37524      207.32648    
     85100  -20919.718      113.36737     -20806.351      176.31041      178.40827      207.39923    
     85200  -20918.694      109.91493     -20808.779      176.32389      178.43754      207.47198    
     85300  -20921.604      110.88613     -20810.718      176.3458       178.47355      207.54472    
     85400  -20923.042      112.99052     -20810.052      176.36667      178.50991      207.61747    
     85500  -20924.385      114.24859     -20810.136      176.38601      178.54953      207.69021    
     85600  -20928.864      113.57675     -20815.287      176.39254      178.58157      207.76296    
     85700  -20929.843      108.73137     -20821.112      176.39989      178.61963      207.83571    
     85800  -20928.68       108.05284     -20820.628      176.40787      178.66676      207.90845    
     85900  -20924.771      111.75826     -20813.013      176.40811      178.71176      207.9812     
     86000  -20921.17       116.80639     -20804.364      176.41682      178.76299      208.05394    
     86100  -20920.162      115.10081     -20805.061      176.42238      178.80603      208.12669    
     86200  -20924.893      109.52452     -20815.369      176.43439      178.85414      208.19944    
     86300  -20930.702      107.22903     -20823.473      176.44009      178.89889      208.27218    
     86400  -20927.842      105.98832     -20821.854      176.44756      178.93605      208.34493    
     86500  -20923.203      112.31601     -20810.887      176.45715      178.97542      208.41768    
     86600  -20915.831      116.99322     -20798.838      176.46344      179.00701      208.49042    
     86700  -20916.441      119.43876     -20797.002      176.48224      179.04636      208.56317    
     86800  -20918.575      110.64156     -20807.934      176.49243      179.06477      208.63591    
     86900  -20925.31       106.9589      -20818.351      176.51286      179.09093      208.70866    
     87000  -20924.339      105.74326     -20818.595      176.53479      179.10784      208.78141    
     87100  -20923.103      113.27903     -20809.824      176.55658      179.11438      208.85415    
     87200  -20919.445      117.18808     -20802.257      176.58532      179.125        208.9269     
     87300  -20917.483      114.34479     -20803.138      176.60914      179.11991      208.99964    
     87400  -20921.005      112.23406     -20808.771      176.64097      179.12228      209.07239    
     87500  -20922.21       110.58768     -20811.623      176.66733      179.11927      209.14514    
     87600  -20923.366      112.01227     -20811.354      176.6994       179.12466      209.21788    
     87700  -20922.936      111.71587     -20811.221      176.72732      179.12295      209.29063    
     87800  -20924.632      112.26161     -20812.37       176.75047      179.12214      209.36338    
     87900  -20924.901      111.46458     -20813.436      176.77984      179.12723      209.43612    
     88000  -20925.313      112.86975     -20812.443      176.80302      179.12397      209.50887    
     88100  -20921.597      111.22421     -20810.373      176.82862      179.12567      209.58161    
     88200  -20922.591      114.30813     -20808.282      176.84933      179.12598      209.65436    
     88300  -20922.715      112.57035     -20810.145      176.86995      179.1329       209.72711    
     88400  -20924.972      111.06855     -20813.904      176.88604      179.13689      209.79985    
     88500  -20927.016      110.24166     -20816.774      176.90609      179.14221      209.8726     
     88600  -20924.174      108.54933     -20815.625      176.9245       179.14839      209.94534    
     88700  -20922.801      112.11104     -20810.69       176.94154      179.1595       210.01809    
     88800  -20920.481      113.98362     -20806.497      176.95837      179.17371      210.09084    
     88900  -20920.896      112.14948     -20808.746      176.97128      179.18517      210.16358    
     89000  -20925.188      111.83149     -20813.357      176.98284      179.19596      210.23633    
     89100  -20925.09       108.22841     -20816.861      177.00007      179.21504      210.30907    
     89200  -20926.041      111.50085     -20814.54       177.00933      179.23228      210.38182    
     89300  -20920.068      111.40652     -20808.661      177.02336      179.26076      210.45457    
     89400  -20918.462      114.51886     -20803.943      177.02709      179.2845       210.52731    
     89500  -20920.879      115.20736     -20805.671      177.03619      179.3081       210.60006    
     89600  -20924.428      111.66436     -20812.763      177.03794      179.32724      210.67281    
     89700  -20924.677      107.81926     -20816.858      177.0411       179.34595      210.74555    
     89800  -20922.387      108.90183     -20813.486      177.04917      179.36586      210.8183     
     89900  -20919.447      113.78167     -20805.665      177.04896      179.37909      210.89104    
     90000  -20918.543      117.29874     -20801.244      177.05548      179.40074      210.96379    
     90100  -20921.374      114.58339     -20806.791      177.05901      179.41613      211.03654    
     90200  -20926.042      110.08982     -20815.952      177.06447      179.4315       211.10928    
     90300  -20927.081      106.67818     -20820.403      177.06864      179.44886      211.18203    
     90400  -20926.704      110.4494      -20816.255      177.06909      179.46382      211.25477    
     90500  -20920.175      112.3565      -20807.818      177.07531      179.4883       211.32752    
     90600  -20915.641      113.39392     -20802.247      177.06827      179.49829      211.40027    
     90700  -20919.74       115.19871     -20804.541      177.06935      179.51772      211.47301    
     90800  -20923.434      112.06689     -20811.367      177.0706       179.52906      211.54576    
     90900  -20927.827      109.66134     -20818.166      177.07574      179.53836      211.61851    
     91000  -20926.202      107.32006     -20818.882      177.08396      179.54484      211.69125    
     91100  -20924.89       112.21321     -20812.677      177.08914      179.54719      211.764      
     91200  -20921.29       116.02016     -20805.27       177.10205      179.55817      211.83674    
     91300  -20920.892      115.61315     -20805.279      177.1119       179.5596       211.90949    
     91400  -20921.585      109.58875     -20811.996      177.12748      179.56888      211.98224    
     91500  -20929.178      110.72708     -20818.451      177.14089      179.57126      212.05498    
     91600  -20929.266      108.71389     -20820.552      177.1568       179.57518      212.12773    
     91700  -20925.903      109.75619     -20816.147      177.17432      179.57648      212.20047    
     91800  -20920.945      112.56969     -20808.376      177.1898       179.57318      212.27322    
     91900  -20921.486      116.52712     -20804.959      177.2094       179.57464      212.34597    
     92000  -20922.001      112.78021     -20809.221      177.22441      179.57368      212.41871    
     92100  -20926.878      110.9497      -20815.928      177.24328      179.5748       212.49146    
     92200  -20924.656      106.81318     -20817.843      177.25578      179.56954      212.56421    
     92300  -20925.008      111.62535     -20813.383      177.26968      179.56231      212.63695    
     92400  -20921.841      114.75987     -20807.081      177.28902      179.56061      212.7097     
     92500  -20920.212      114.93885     -20805.273      177.2953       179.55318      212.78244    
     92600  -20922.09       112.84091     -20809.25       177.30653      179.55634      212.85519    
     92700  -20924.489      109.9482      -20814.541      177.30742      179.55701      212.92794    
     92800  -20926.367      110.87173     -20815.495      177.31001      179.56624      213.00068    
     92900  -20920.202      109.55252     -20810.649      177.30924      179.5766       213.07343    
     93000  -20918.643      114.27513     -20804.368      177.30488      179.58508      213.14617    
     93100  -20919.888      116.30561     -20803.582      177.30273      179.5963       213.21892    
     93200  -20921.954      113.30458     -20808.649      177.29399      179.60345      213.29167    
     93300  -20925.534      111.93386     -20813.6        177.29133      179.61586      213.36441    
     93400  -20926.899      111.42745     -20815.472      177.2867       179.6257       213.43716    
     93500  -20925.661      110.46856     -20815.193      177.28163      179.63705      213.5099     
     93600  -20926.396      112.6195      -20813.777      177.2796       179.65033      213.58265    
     93700  -20924.905      112.07712     -20812.828      177.26964      179.65752      213.6554     
     93800  -20922.771      109.55484     -20813.216      177.26788      179.67275      213.72814    
     93900  -20922.191      109.33582     -20812.855      177.26042      179.67523      213.80089    
     94000  -20921.53       111.57448     -20809.956      177.26045      179.68361      213.87364    
     94100  -20920.126      112.15017     -20807.976      177.2628       179.68757      213.94638    
     94200  -20921.244      111.25949     -20809.985      177.26808      179.68917      214.01913    
     94300  -20921.84       108.68205     -20813.158      177.27699      179.68959      214.09187    
     94400  -20924.508      109.43795     -20815.07       177.28094      179.68296      214.16462    
     94500  -20926.235      111.87486     -20814.36       177.29262      179.68256      214.23737    
     94600  -20927.399      114.35015     -20813.049      177.30129      179.6759       214.31011    
     94700  -20926.363      112.76199     -20813.601      177.31134      179.66797      214.38286    
     94800  -20925.118      110.02289     -20815.095      177.32575      179.66138      214.4556     
     94900  -20926.432      110.50009     -20815.931      177.33405      179.64647      214.52835    
     95000  -20925.644      110.81133     -20814.832      177.34696      179.63926      214.6011     
     95100  -20922.98       111.52324     -20811.457      177.35595      179.62994      214.67384    
     95200  -20919.726      112.14156     -20807.584      177.36687      179.62377      214.74659    
     95300  -20916.186      111.02502     -20805.161      177.37587      179.61607      214.81934    
     95400  -20918.206      112.71676     -20805.489      177.38495      179.60906      214.89208    
     95500  -20922.075      113.86903     -20808.206      177.39794      179.60528      214.96483    
     95600  -20925.424      113.27761     -20812.146      177.40453      179.59797      215.03757    
     95700  -20923.125      108.50889     -20814.616      177.41848      179.59927      215.11032    
     95800  -20923.594      109.4935      -20814.101      177.42527      179.59686      215.18307    
     95900  -20924.273      113.16665     -20811.106      177.4301       179.5987       215.25581    
     96000  -20921.149      113.23843     -20807.911      177.43543      179.60474      215.32856    
     96100  -20919.912      112.29823     -20807.614      177.43157      179.60676      215.4013     
     96200  -20920.613      111.6788      -20808.934      177.43239      179.61568      215.47405    
     96300  -20921.551      111.26911     -20810.281      177.42576      179.62326      215.5468     
     96400  -20923.575      112.3714      -20811.204      177.42031      179.6365       215.61954    
     96500  -20923.072      111.52019     -20811.552      177.40606      179.64524      215.69229    
     96600  -20925.273      112.14242     -20813.13       177.39523      179.65728      215.76503    
     96700  -20927.329      112.15375     -20815.175      177.37807      179.6632       215.83778    
     96800  -20927.223      111.65478     -20815.569      177.36336      179.67231      215.91053    
     96900  -20925.189      111.16259     -20814.026      177.35263      179.68304      215.98327    
     97000  -20923.039      111.67201     -20811.367      177.33813      179.69203      216.05602    
     97100  -20923.294      113.97374     -20809.32       177.32889      179.70677      216.12877    
     97200  -20921.83       111.88933     -20809.941      177.31769      179.72002      216.20151    
     97300  -20923.31       110.91376     -20812.397      177.30715      179.73213      216.27426    
     97400  -20926.046      112.35934     -20813.687      177.30174      179.7446       216.347      
     97500  -20922.288      109.36965     -20812.919      177.29365      179.75243      216.41975    
     97600  -20919.889      109.92491     -20809.965      177.29034      179.76238      216.4925     
     97700  -20924.486      115.92505     -20808.561      177.28755      179.76937      216.56524    
     97800  -20925.256      111.68274     -20813.573      177.28545      179.77543      216.63799    
     97900  -20930.524      109.58166     -20820.943      177.28315      179.77946      216.71073    
     98000  -20932.93       108.12326     -20824.807      177.28434      179.78368      216.78348    
     98100  -20929.553      108.6706      -20820.882      177.28592      179.7858       216.85623    
     98200  -20924.554      113.28544     -20811.268      177.28467      179.78466      216.92897    
     98300  -20922.085      117.55264     -20804.532      177.28785      179.78611      217.00172    
     98400  -20922.008      115.33481     -20806.674      177.29061      179.7839       217.07447    
     98500  -20924.281      110.24812     -20814.033      177.29641      179.78011      217.14721    
     98600  -20928.031      109.41905     -20818.612      177.30316      179.77478      217.21996    
     98700  -20925.871      109.10119     -20816.77       177.30935      179.76375      217.2927     
     98800  -20925.362      114.11206     -20811.25       177.31583      179.75141      217.36545    
     98900  -20925.979      117.75338     -20808.226      177.32531      179.73743      217.4382     
     99000  -20924.254      112.44305     -20811.811      177.3328       179.72373      217.51094    
     99100  -20928.992      110.37734     -20818.615      177.33757      179.70837      217.58369    
     99200  -20931.114      108.43046     -20822.683      177.33999      179.69654      217.65643    
     99300  -20929.145      108.58647     -20820.558      177.34242      179.68705      217.72918    
     99400  -20926.732      112.13239     -20814.6        177.33719      179.67565      217.80193    
     99500  -20926.375      115.64069     -20810.735      177.33535      179.66951      217.87467    
     99600  -20925.197      112.92367     -20812.274      177.3285       179.66257      217.94742    
     99700  -20930.112      112.52166     -20817.591      177.3208       179.65839      218.02017    
     99800  -20929.876      108.02305     -20821.853      177.314        179.65734      218.09291    
     99900  -20928.389      107.01834     -20821.371      177.3028       179.65348      218.16566    
    100000  -20928.635      111.96003     -20816.675      177.29241      179.65629      218.2384     
    100100  -20928.668      115.72217     -20812.945      177.28146      179.66124      218.31115    
    100200  -20929.206      115.09358     -20814.112      177.26853      179.66662      218.3839     
    100300  -20927.535      109.03376     -20818.501      177.25757      179.67684      218.45664    
    100400  -20929.832      109.12706     -20820.705      177.24378      179.68292      218.52939    
    100500  -20927.146      109.43975     -20817.706      177.23231      179.69356      218.60213    
    100600  -20924.067      112.55783     -20811.51       177.21572      179.69697      218.67488    
    100700  -20922.955      114.73577     -20808.22       177.20287      179.70251      218.74763    
    100800  -20927.762      116.10682     -20811.656      177.18801      179.70219      218.82037    
    100900  -20929.9        111.19686     -20818.703      177.17678      179.70185      218.89312    
    101000  -20929.738      107.59621     -20822.142      177.16721      179.69988      218.96586    
    101100  -20929.029      110.7721      -20818.257      177.15677      179.69351      219.03861    
    101200  -20923.014      111.97857     -20811.036      177.15267      179.69389      219.11136    
    101300  -20921.441      115.14501     -20806.296      177.14488      179.68315      219.1841     
    101400  -20921.634      112.53012     -20809.104      177.14452      179.67723      219.25685    
    101500  -20926.957      110.34678     -20816.61       177.1415       179.66623      219.3296     
    101600  -20929.16       107.38039     -20821.78       177.13788      179.65334      219.40234    
    101700  -20929.449      109.50605     -20819.943      177.13755      179.6454       219.47509    
    101800  -20924.437      111.70543     -20812.732      177.13361      179.63217      219.54783    
    101900  -20922.062      115.13177     -20806.93       177.13507      179.62619      219.62058    
    102000  -20925.575      116.28912     -20809.286      177.12949      179.61103      219.69333    
    102100  -20930.519      112.46281     -20818.056      177.12745      179.60254      219.76607    
    102200  -20934.25       108.97998     -20825.27       177.1253       179.59629      219.83882    
    102300  -20932.757      108.14853     -20824.609      177.11611      179.58568      219.91156    
    102400  -20927.861      111.64925     -20816.212      177.10797      179.58135      219.98431    
    102500  -20923.562      116.07974     -20807.482      177.09455      179.57499      220.05706    
    102600  -20922.627      116.13338     -20806.494      177.08159      179.57042      220.1298     
    102700  -20925.769      112.24374     -20813.526      177.06591      179.56263      220.20255    
    102800  -20930.814      108.58451     -20822.229      177.05221      179.56004      220.2753     
    102900  -20933.262      107.8376      -20825.424      177.03545      179.55656      220.34804    
    103000  -20931.356      110.06839     -20821.288      177.0151       179.55179      220.42079    
    103100  -20928.931      114.79263     -20814.138      176.99745      179.55089      220.49353    
    103200  -20927.12       116.93279     -20810.187      176.97267      179.54457      220.56628    
    103300  -20928.558      115.93955     -20812.619      176.95064      179.54132      220.63903    
    103400  -20929.043      110.83769     -20818.205      176.93001      179.54024      220.71177    
    103500  -20929.436      108.02887     -20821.407      176.90849      179.53765      220.78452    
    103600  -20927.915      108.57178     -20819.343      176.88667      179.53432      220.85726    
    103700  -20924.816      111.67709     -20813.139      176.86306      179.52965      220.93001    
    103800  -20924.311      115.63031     -20808.681      176.84447      179.52497      221.00276    
    103900  -20920.266      110.25097     -20810.015      176.82303      179.51601      221.0755     
    104000  -20924.715      110.02099     -20814.694      176.80729      179.50958      221.14825    
    104100  -20928.456      110.3066      -20818.149      176.79309      179.50065      221.221      
    104200  -20929.225      111.15559     -20818.069      176.77522      179.48751      221.29374    
    104300  -20927.693      112.75604     -20814.937      176.76133      179.47675      221.36649    
    104400  -20927.009      114.4171      -20812.592      176.74111      179.45959      221.43923    
    104500  -20927.237      114.02907     -20813.208      176.72353      179.44455      221.51198    
    104600  -20927.801      112.1827      -20815.618      176.70253      179.42749      221.58473    
    104700  -20928.211      110.67363     -20817.538      176.68311      179.41307      221.65747    
    104800  -20928.583      111.41069     -20817.172      176.65939      179.39539      221.73022    
    104900  -20926.636      112.56064     -20814.075      176.63581      179.37679      221.80296    
    105000  -20922.981      111.45861     -20811.522      176.6131       179.36101      221.87571    
    105100  -20926.994      114.55488     -20812.439      176.58481      179.33749      221.94846    
    105200  -20928.329      112.62924     -20815.7        176.56293      179.32005      222.0212     
    105300  -20929.704      111.51116     -20818.193      176.53903      179.29938      222.09395    
    105400  -20930.882      112.68305     -20818.199      176.51523      179.27894      222.16669    
    105500  -20927.644      110.79849     -20816.846      176.48976      179.25668      222.23944    
    105600  -20927.861      112.81193     -20815.049      176.4636       179.23316      222.31219    
    105700  -20927.362      112.5978      -20814.764      176.43931      179.21267      222.38493    
    105800  -20927.225      110.49164     -20816.734      176.40808      179.18821      222.45768    
    105900  -20929.284      110.13449     -20819.15       176.3846       179.1701       222.53043    
    106000  -20928.612      108.69865     -20819.913      176.35559      179.14831      222.60317    
    106100  -20929.419      111.05592     -20818.363      176.32741      179.12624      222.67592    
    106200  -20927.019      111.99474     -20815.025      176.29709      179.10515      222.74866    
    106300  -20924.652      112.02544     -20812.627      176.26194      179.08232      222.82141    
    106400  -20924.007      111.62659     -20812.38       176.23088      179.06172      222.89416    
    106500  -20923.657      110.01451     -20813.642      176.19337      179.03575      222.9669     
    106600  -20925.963      111.57957     -20814.383      176.16116      179.01525      223.03965    
    106700  -20925.938      111.59639     -20814.342      176.1256       178.99239      223.11239    
    106800  -20926.793      112.65528     -20814.138      176.08721      178.9697       223.18514    
    106900  -20925.115      111.17459     -20813.94       176.04922      178.94804      223.25789    
    107000  -20925.221      111.73584     -20813.485      176.00441      178.92108      223.33063    
    107100  -20923.67       110.42323     -20813.247      175.96391      178.8983       223.40338    
    107200  -20923.134      109.72712     -20813.406      175.91921      178.87222      223.47613    
    107300  -20925.236      110.90421     -20814.332      175.8761       178.84912      223.54887    
    107400  -20925.146      108.31785     -20816.829      175.82968      178.82573      223.62162    
    107500  -20928.545      109.23671     -20819.309      175.77806      178.79581      223.69436    
    107600  -20929.622      109.74821     -20819.874      175.72953      178.77137      223.76711    
    107700  -20929.772      112.30654     -20817.465      175.67546      178.73799      223.83986    
    107800  -20923.522      109.94756     -20813.575      175.62529      178.70968      223.9126     
    107900  -20925.618      114.92593     -20810.692      175.57367      178.68038      223.98535    
    108000  -20925.818      114.13412     -20811.683      175.52074      178.65064      224.05809    
    108100  -20927.967      112.05181     -20815.915      175.47018      178.62375      224.13084    
    108200  -20928.478      108.51061     -20819.967      175.41175      178.58877      224.20359    
    108300  -20931.382      111.3396      -20820.043      175.36085      178.56099      224.27633    
    108400  -20928.092      111.58097     -20816.511      175.30582      178.52679      224.34908    
    108500  -20928.301      114.5157      -20813.785      175.25357      178.49641      224.42182    
    108600  -20926.984      112.52577     -20814.458      175.20108      178.46484      224.49457    
    108700  -20930.195      111.24461     -20818.95       175.14436      178.4272       224.56732    
    108800  -20932.659      110.42153     -20822.237      175.09047      178.39502      224.64006    
    108900  -20929.465      108.93779     -20820.527      175.03099      178.35442      224.71281    
    109000  -20924.677      109.87614     -20814.801      174.98111      178.31981      224.78556    
    109100  -20924.716      114.81297     -20809.903      174.9252       178.27941      224.8583     
    109200  -20926.325      116.18323     -20810.142      174.87186      178.23869      224.93105    
    109300  -20924.552      109.41165     -20815.141      174.81758      178.19769      225.00379    
    109400  -20926.628      107.28579     -20819.343      174.76024      178.15022      225.07654    
    109500  -20929.954      111.63104     -20818.323      174.70546      178.11009      225.14929    
    109600  -20925.899      112.63249     -20813.267      174.64342      178.06357      225.22203    
    109700  -20923.679      115.06106     -20808.618      174.58777      178.02394      225.29478    
    109800  -20922.702      113.36848     -20809.334      174.52447      177.97877      225.36752    
    109900  -20927.176      112.31465     -20814.861      174.46371      177.93746      225.44027    
    110000  -20928.067      107.93758     -20820.13       174.40121      177.89414      225.51302    
    110100  -20928.074      107.63004     -20820.444      174.33346      177.84916      225.58576    
    110200  -20927.867      111.6823      -20816.184      174.27033      177.81268      225.65851    
    110300  -20925.811      114.82052     -20810.991      174.19534      177.76408      225.73126    
    110400  -20926.004      115.89815     -20810.106      174.12695      177.72435      225.804      
    110500  -20926.893      111.91743     -20814.976      174.05342      177.67924      225.87675    
    110600  -20930.202      109.68418     -20820.518      173.98026      177.63508      225.94949    
    110700  -20929.453      107.70213     -20821.751      173.90832      177.59307      226.02224    
    110800  -20928.69       110.71847     -20817.972      173.83074      177.54458      226.09499    
    110900  -20927.299      114.90876     -20812.39       173.76182      177.50622      226.16773    
    111000  -20928.637      118.21912     -20810.418      173.68216      177.45948      226.24048    
    111100  -20926.97       112.69582     -20814.274      173.60645      177.4177       226.31322    
    111200  -20929.991      109.64982     -20820.341      173.53156      177.37793      226.38597    
    111300  -20931.987      108.93285     -20823.054      173.45276      177.3355       226.45872    
    111400  -20928.767      109.43484     -20819.333      173.37754      177.29719      226.53146    
    111500  -20926.695      113.4795      -20813.215      173.29864      177.2529       226.60421    
    111600  -20925.493      114.63527     -20810.858      173.22633      177.21286      226.67696    
    111700  -20925.539      111.10576     -20814.433      173.15175      177.16488      226.7497     
    111800  -20929.772      109.66871     -20820.103      173.08384      177.11847      226.82245    
    111900  -20929.177      107.29334     -20821.884      173.01732      177.07107      226.89519    
    112000  -20929.32       111.71808     -20817.602      172.95216      177.01811      226.96794    
    112100  -20922.651      112.3056      -20810.345      172.8936       176.96816      227.04069    
    112200  -20926.127      119.02304     -20807.104      172.83017      176.91082      227.11343    
    112300  -20922.539      111.48233     -20811.057      172.77184      176.8566       227.18618    
    112400  -20924.998      107.21069     -20817.788      172.7161       176.80198      227.25892    
    112500  -20929.956      109.00134     -20820.955      172.65846      176.74278      227.33167    
    112600  -20926.6        108.72989     -20817.87       172.60147      176.68504      227.40442    
    112700  -20924.496      113.3375      -20811.159      172.54346      176.6263       227.47716    
    112800  -20922.02       114.10615     -20807.914      172.48472      176.57072      227.54991    
    112900  -20920.897      109.6538      -20811.243      172.42031      176.51443      227.62265    
    113000  -20924.856      108.35698     -20816.499      172.35935      176.46561      227.6954     
    113100  -20927.988      109.13107     -20818.857      172.29242      176.41741      227.76815    
    113200  -20926.959      109.93418     -20817.025      172.22542      176.37256      227.84089    
    113300  -20924.728      111.62069     -20813.108      172.15974      176.33181      227.91364    
    113400  -20925.107      113.68461     -20811.423      172.08656      176.28986      227.98639    
    113500  -20929.042      114.76693     -20814.276      172.0151       176.25249      228.05913    
    113600  -20930.555      110.86735     -20819.688      171.94042      176.21695      228.13188    
    113700  -20931.062      108.31317     -20822.749      171.86655      176.18534      228.20462    
    113800  -20931.614      110.97246     -20820.642      171.78807      176.15429      228.27737    
    113900  -20928.922      113.26898     -20815.653      171.70979      176.12444      228.35012    
    114000  -20925.451      113.22324     -20812.227      171.63283      176.09781      228.42286    
    114100  -20926.547      113.43961     -20813.107      171.55678      176.06875      228.49561    
    114200  -20929.026      111.35554     -20817.67       171.48184      176.04124      228.56835    
    114300  -20930.438      109.07338     -20821.365      171.40691      176.00942      228.6411     
    114400  -20928.356      107.99861     -20820.357      171.33668      175.97759      228.71385    
    114500  -20926.855      111.68331     -20815.172      171.26808      175.94283      228.78659    
    114600  -20923.508      113.17487     -20810.334      171.2016       175.90804      228.85934    
    114700  -20922.805      112.61128     -20810.193      171.13981      175.87521      228.93209    
    114800  -20927.845      112.78616     -20815.059      171.07734      175.83581      229.00483    
    114900  -20930.051      109.75317     -20820.298      171.02115      175.80045      229.07758    
    115000  -20930.109      109.69437     -20820.415      170.96339      175.75555      229.15032    
    115100  -20928.823      114.11749     -20814.706      170.91099      175.71341      229.22307    
    115200  -20924.125      115.54463     -20808.581      170.86102      175.66834      229.29582    
    115300  -20923.488      115.61636     -20807.872      170.81065      175.62264      229.36856    
    115400  -20923.804      110.43652     -20813.368      170.76414      175.57952      229.44131    
    115500  -20929.857      110.19425     -20819.662      170.71478      175.53014      229.51405    
    115600  -20929.334      107.83036     -20821.504      170.67152      175.48751      229.5868     
    115700  -20925.783      109.03716     -20816.746      170.62387      175.43963      229.65955    
    115800  -20925.195      115.03347     -20810.161      170.58032      175.39716      229.73229    
    115900  -20922.447      114.34725     -20808.1        170.53437      175.35034      229.80504    
    116000  -20923.482      110.77577     -20812.707      170.49033      175.30518      229.87779    
    116100  -20930.376      111.24842     -20819.127      170.44709      175.26251      229.95053    
    116200  -20932.853      110.97831     -20821.875      170.39857      175.21563      230.02328    
    116300  -20928.95       110.52895     -20818.421      170.35489      175.17499      230.09602    
    116400  -20927.262      114.90251     -20812.36       170.30607      175.13453      230.16877    
    116500  -20925.566      115.32548     -20810.24       170.2575       175.09823      230.24152    
    116600  -20925.918      111.8242      -20814.093      170.20556      175.06073      230.31426    
    116700  -20928.353      108.62458     -20819.729      170.1559       175.02662      230.38701    
    116800  -20931.637      108.94999     -20822.687      170.10659      174.99501      230.45975    
    116900  -20932.572      111.63493     -20820.937      170.05274      174.96124      230.5325     
    117000  -20930.056      114.33994     -20815.716      170.00354      174.9334       230.60525    
    117100  -20926.723      114.88068     -20811.842      169.94805      174.903        230.67799    
    117200  -20926.247      113.84978     -20812.397      169.89713      174.87831      230.75074    
    117300  -20929.588      113.31775     -20816.27       169.84429      174.85102      230.82348    
    117400  -20929.46       110.07545     -20819.384      169.79388      174.82931      230.89623    
    117500  -20931.03       111.3911      -20819.639      169.7426       174.8079       230.96898    
    117600  -20926.899      110.86428     -20816.035      169.6885       174.78332      231.04172    
    117700  -20925.119      113.72466     -20811.395      169.63915      174.76532      231.11447    
    117800  -20925.097      114.68055     -20810.417      169.58738      174.74304      231.18722    
    117900  -20925.235      111.6721      -20813.563      169.54029      174.72407      231.25996    
    118000  -20929.91       112.07138     -20817.839      169.49089      174.70145      231.33271    
    118100  -20929.184      109.85879     -20819.325      169.4436       174.67972      231.40545    
    118200  -20927.268      110.46814     -20816.8        169.39939      174.65736      231.4782     
    118300  -20925.369      