LAMMPS (2 Aug 2023 - Update 3)
OMP_NUM_THREADS environment is not set. Defaulting to 1 thread. (src/comm.cpp:98)
  using 1 OpenMP thread(s) per MPI task

# 1------general---------------
units                             metal      #单位为lammps 中的metel 类型
dimension                    3          #模拟的维度 三维
boundary                    p p p      #周期边界条件
atom_style                  atomic   #原子类型自动
atom_modify              map array sort 100 2.0
neighbor                    3.0 bin
neigh_modify            every 1 delay 0 check yes
#2 -----global variable-------定义全局变量，方便统一修改；
variable temperature equal 300
variable tstep equal 0.001
variable pressure equal 0
variable thermalstep equal 100
variable dumpstep equal 1000
variable relaxtime equal 0
variable totaltime equal 100000
variable deformrate equal 5e-3
#3 -------model------------
#box tilt large
read_data     1.lmp
Reading data file ...
  orthogonal box = (-100 -100 -2.3312515) to (100 100 46.166171)
  2 by 5 by 1 MPI processor grid
  reading atoms ...
  1480 atoms
  read_data CPU = 0.012 seconds
replicate 1 1 17
Replication is creating a 1x1x17 = 17 times larger system...
  orthogonal box = (-100 -100 -2.3312515) to (100 100 822.12494)
  1 by 2 by 5 MPI processor grid
  25160 atoms
  replicate CPU = 0.012 seconds
write_data z.data
System init for write_data ...
WARNING: Communication cutoff is 0.0. No ghost atoms will be generated. Atoms may get lost. (src/comm_brick.cpp:210)
pair_style hybrid airebo 3.0 airebo 3.0 airebo 3.0 lj/cut 10
pair_coeff * * airebo 1 CH.airebo C NULL NULL
Reading airebo potential file CH.airebo with DATE: 2011-10-25
pair_coeff * * airebo 2 CH.airebo NULL C NULL
Reading airebo potential file CH.airebo with DATE: 2011-10-25
pair_coeff * * airebo 3 CH.airebo NULL NULL C
Reading airebo potential file CH.airebo with DATE: 2011-10-25
pair_coeff 1 2 lj/cut 0.00456 3.431
pair_coeff 1 3 lj/cut 0.00456 3.431
pair_coeff 2 3 lj/cut 0.00456 3.431

# 5------minimize -----------
min_style      sd
minimize       1.0e-4 1.0e-6 100 1000
Neighbor list info ...
  update: every = 1 steps, delay = 0 steps, check = yes
  max neighbors/atom: 2000, page size: 100000
  master list distance cutoff = 13.2
  ghost atom cutoff = 13.2
  binsize = 6.6, bins = 31 31 125
  6 neighbor lists, perpetual/occasional/extra = 6 0 0
  (1) pair airebo, perpetual, skip from (5)
      attributes: full, newton on, ghost
      pair build: skip/ghost
      stencil: none
      bin: none
  (2) pair airebo, perpetual, skip from (5)
      attributes: full, newton on, ghost
      pair build: skip/ghost
      stencil: none
      bin: none
  (3) pair airebo, perpetual, skip from (5)
      attributes: full, newton on, ghost
      pair build: skip/ghost
      stencil: none
      bin: none
  (4) pair lj/cut, perpetual, skip from (6)
      attributes: half, newton on, cut 13
      pair build: skip
      stencil: none
      bin: none
  (5) neighbor class addition, perpetual
      attributes: full, newton on, ghost
      pair build: full/bin/ghost
      stencil: full/ghost/bin/3d
      bin: standard
  (6) neighbor class addition, perpetual
      attributes: half, newton on, cut 13
      pair build: half/bin/atomonly/newton
      stencil: half/bin/3d
      bin: standard
Per MPI rank memory allocation (min/avg/max) = 18.54 | 18.73 | 18.93 Mbytes
   Step          Temp          E_pair         E_mol          TotEng         Press     
         0   0             -182597.27      0             -182597.27      378.42796    
         4   0             -183048.99      0             -183048.99      50.287364    
Loop time of 0.662811 on 10 procs for 4 steps with 25160 atoms

80.1% CPU use with 10 MPI tasks x 1 OpenMP threads

Minimization stats:
  Stopping criterion = energy tolerance
  Energy initial, next-to-last, final = 
     -182597.269317146  -183037.820940405  -183048.987231094
  Force two-norm initial, final = 219.88154 35.229747
  Force max component initial, final = 3.434546 0.53009031
  Final line search alpha, max atom move = 0.13584282 0.072008965
  Iterations, force evaluations = 4 8

MPI task timing breakdown:
Section |  min time  |  avg time  |  max time  |%varavg| %total
---------------------------------------------------------------
Pair    | 0.26861    | 0.35779    | 0.52296    |  14.7 | 53.98
Neigh   | 0          | 0          | 0          |   0.0 |  0.00
Comm    | 0.023184   | 0.15832    | 0.2562     |  21.5 | 23.89
Output  | 0          | 0          | 0          |   0.0 |  0.00
Modify  | 0          | 0          | 0          |   0.0 |  0.00
Other   |            | 0.1467     |            |       | 22.13

Nlocal:           2516 ave        2587 max        2443 min
Histogram: 5 0 0 0 0 0 0 0 0 5
Nghost:           3299 ave        3379 max        3225 min
Histogram: 4 1 0 0 0 0 0 0 2 3
Neighs:              0 ave           0 max           0 min
Histogram: 10 0 0 0 0 0 0 0 0 0

Total # of neighbors = 0
Ave neighs/atom = 0
Neighbor list builds = 0
Dangerous builds = 0
#6----define computes------
variable nums equal count(all) #计算原子数目
variable toval equal 18.7166*18.7166*lz #计算系统总体积，单层石墨烯厚度为0.335nm
variable vol equal ${toval} #体系的初始体积
variable vol equal 288816.167999558 
variable vatom equal v_vol/v_nums #单个原子体积
compute 1 all stress/atom NULL #计算体系中单原子应力
compute xalls all reduce sum c_1[1]
variable xstress equal (c_xalls)/(v_toval*10000)
compute yalls all reduce sum c_1[2]
variable ystress equal (c_yalls)/(v_toval*10000)
compute zalls all reduce sum c_1[3]
variable zstress equal (c_zalls)/(v_toval*10000)
#7---------relaxation-------------------------
timestep ${tstep}
timestep 0.001
velocity all create ${temperature} 231743 units box dist gaussian
velocity all create 300 231743 units box dist gaussian
dump   1 all atom 100 all-cy.lammpstrj
#fix    1 all npt temp 300 300  0.1 aniso 0 0 10 drag 1  #三个方向独立控压
fix  1 all npt temp ${temperature} ${temperature} 0.1 x ${pressure} ${pressure} 10 y ${pressure} ${pressure} 10
fix  1 all npt temp 300 ${temperature} 0.1 x ${pressure} ${pressure} 10 y ${pressure} ${pressure} 10
fix  1 all npt temp 300 300 0.1 x ${pressure} ${pressure} 10 y ${pressure} ${pressure} 10
fix  1 all npt temp 300 300 0.1 x 0 ${pressure} 10 y ${pressure} ${pressure} 10
fix  1 all npt temp 300 300 0.1 x 0 0 10 y ${pressure} ${pressure} 10
fix  1 all npt temp 300 300 0.1 x 0 0 10 y 0 ${pressure} 10
fix  1 all npt temp 300 300 0.1 x 0 0 10 y 0 0 10
compute  2 all pe/atom
compute  pe all reduce sum c_2
variable PE equal "c_pe"
fix    pe all print 100 "${PE} " file PE.txt screen no
thermo  ${thermalstep}
thermo  100
#thermo_style  custom step pe ke etotal lx ly lz
run   ${relaxtime}
run   0
Per MPI rank memory allocation (min/avg/max) = 19.17 | 19.36 | 19.55 Mbytes
   Step          Temp          E_pair         E_mol          TotEng         Press          Volume    
         4   300           -183048.99      0             -182073.37      81.886179      32978248     
Loop time of 9.9456e-06 on 10 procs for 0 steps with 25160 atoms

99.5% CPU use with 10 MPI tasks x 1 OpenMP threads

MPI task timing breakdown:
Section |  min time  |  avg time  |  max time  |%varavg| %total
---------------------------------------------------------------
Pair    | 0          | 0          | 0          |   0.0 |  0.00
Neigh   | 0          | 0          | 0          |   0.0 |  0.00
Comm    | 0          | 0          | 0          |   0.0 |  0.00
Output  | 0          | 0          | 0          |   0.0 |  0.00
Modify  | 0          | 0          | 0          |   0.0 |  0.00
Other   |            | 9.946e-06  |            |       |100.00

Nlocal:           2516 ave        2522 max        2506 min
Histogram: 1 0 0 1 1 1 0 3 2 1
Nghost:           3299 ave        3316 max        3291 min
Histogram: 2 2 2 0 3 0 0 0 0 1
Neighs:              0 ave           0 max           0 min
Histogram: 10 0 0 0 0 0 0 0 0 0

Total # of neighbors = 0
Ave neighs/atom = 0
Neighbor list builds = 0
Dangerous builds = 0
#8 -------tension-----------------------------
unfix  1
undump  1
unfix  pe
reset_timestep 0
fix avestress all ave/atom 1 ${dumpstep} ${dumpstep} c_1[1] c_1[2] c_1[3] c_1[4] c_1[5] c_1[6]
fix avestress all ave/atom 1 1000 ${dumpstep} c_1[1] c_1[2] c_1[3] c_1[4] c_1[5] c_1[6]
fix avestress all ave/atom 1 1000 1000 c_1[1] c_1[2] c_1[3] c_1[4] c_1[5] c_1[6]

#-----calculation of strain and Cumulative compression--------
variable                tmp equal "lz"
variable                L0 equal ${tmp}
variable                L0 equal 824.456191
variable                strain equal "(lz - v_L0)/v_L0"
variable                Cumulativels equal "(lz - v_L0)/10"
fix Step all print 100 "${strain} ${Cumulativels} ${zstress}" file grapoten.txt screen no

dump 2 all custom ${dumpstep} tension.xyz type x y z f_avestress[1] f_avestress[2] f_avestress[3] f_avestress[4] f_avestress[5] f_avestress[6]
dump 2 all custom 1000 tension.xyz type x y z f_avestress[1] f_avestress[2] f_avestress[3] f_avestress[4] f_avestress[5] f_avestress[6]

fix  1 all npt temp ${temperature} ${temperature} 0.1 y ${pressure} ${pressure} 10 x ${pressure} ${pressure} 10
fix  1 all npt temp 300 ${temperature} 0.1 y ${pressure} ${pressure} 10 x ${pressure} ${pressure} 10
fix  1 all npt temp 300 300 0.1 y ${pressure} ${pressure} 10 x ${pressure} ${pressure} 10
fix  1 all npt temp 300 300 0.1 y 0 ${pressure} 10 x ${pressure} ${pressure} 10
fix  1 all npt temp 300 300 0.1 y 0 0 10 x ${pressure} ${pressure} 10
fix  1 all npt temp 300 300 0.1 y 0 0 10 x 0 ${pressure} 10
fix  1 all npt temp 300 300 0.1 y 0 0 10 x 0 0 10

thermo_style custom step pe ke etotal lx ly lz
fix   2 all deform 1 z erate ${deformrate} remap x units box
fix   2 all deform 1 z erate 0.005 remap x units box
fix   3 all ave/time 2 500 1000 v_xstress v_ystress v_zstress file pressure.out
run   ${totaltime}
run   100000
WARNING: Dump 2 includes no atom IDs and is not sorted by ID. This may complicate post-processing tasks or visualization (src/dump.cpp:221)
Per MPI rank memory allocation (min/avg/max) = 20.67 | 20.86 | 21.05 Mbytes
   Step         PotEng         KinEng         TotEng           Lx             Ly             Lz      
         0  -183048.99      975.6168      -182073.37      200            200            824.45619    
       100  -182503.32      492.90009     -182010.42      200.00269      199.98844      824.86842    
       200  -182550.99      624.01945     -181926.97      200.00836      199.96746      825.28065    
       300  -182469.55      641.27594     -181828.27      200.03691      199.95548      825.69288    
       400  -182437.35      716.38892     -181720.96      200.05206      199.92484      826.1051     
       500  -182393.6       785.2843      -181608.31      200.08618      199.90984      826.51733    
       600  -182345.2       851.71124     -181493.49      200.13008      199.89619      826.92956    
       700  -182288.65      903.43141     -181385.22      200.14836      199.85568      827.34179    
       800  -182220.2       931.75752     -181288.45      200.20108      199.82743      827.75402    
       900  -182200.57      986.19684     -181214.38      200.23622      199.77799      828.16624    
      1000  -182162.98      978.16582     -181184.82      200.26534      199.72603      828.57847    
      1100  -182194.1       987.96852     -181206.13      200.31534      199.68826      828.9907     
      1200  -182207.64      965.86966     -181241.77      200.32961      199.64621      829.40293    
      1300  -182236.89      978.38534     -181258.51      200.34519      199.61998      829.81516    
      1400  -182218.23      974.85708     -181243.37      200.35833      199.60856      830.22738    
      1500  -182187.6       981.48781     -181206.11      200.33694      199.5998       830.63961    
      1600  -182166.18      998.28828     -181167.89      200.32621      199.615        831.05184    
      1700  -182137.76      993.24502     -181144.51      200.29993      199.64337      831.46407    
      1800  -182154.27      996.84793     -181157.43      200.2681       199.68272      831.8763     
      1900  -182157.29      959.78808     -181197.5       200.24166      199.73738      832.28852    
      2000  -182186.95      955.55449     -181231.39      200.17907      199.78474      832.70075    
      2100  -182169.25      935.80631     -181233.44      200.1314       199.8452       833.11298    
      2200  -182158.59      966.92143     -181191.67      200.07862      199.89874      833.52521    
      2300  -182119.39      976.34435     -181143.05      200.02355      199.94443      833.93744    
      2400  -182112.29      996.17998     -181116.11      199.98872      199.9869       834.34967    
      2500  -182108.96      990.50055     -181118.46      199.95389      200.01398      834.76189    
      2600  -182117.56      980.38547     -181137.17      199.92312      200.02831      835.17412    
      2700  -182119.96      970.09401     -181149.86      199.9094       200.0406       835.58635    
      2800  -182098.28      960.88386     -181137.4       199.89305      200.04169      835.99858    
      2900  -182079.14      973.34543     -181105.79      199.88531      200.03965      836.41081    
      3000  -182055.24      978.36663     -181076.88      199.8909       200.03866      836.82303    
      3100  -182068.79      993.2144      -181075.57      199.88564      200.02357      837.23526    
      3200  -182065.39      967.72385     -181097.67      199.89436      200.01114      837.64749    
      3300  -182082.9       969.92665     -181112.98      199.90351      199.99261      838.05972    
      3400  -182076.54      966.97559     -181109.57      199.91065      199.97192      838.47195    
      3500  -182058.85      974.72544     -181084.13      199.92427      199.95497      838.88417    
      3600  -182045.35      989.93855     -181055.41      199.9313       199.93847      839.2964     
      3700  -182032.85      988.87688     -181043.97      199.9316       199.92588      839.70863    
      3800  -182041.64      987.58723     -181054.05      199.9283       199.92009      840.12086    
      3900  -182022.85      954.15179     -181068.7       199.91505      199.91932      840.53309    
      4000  -182016.29      955.45717     -181060.84      199.89972      199.92446      840.94531    
      4100  -181990.41      966.24379     -181024.17      199.8881       199.93843      841.35754    
      4200  -181981.2       991.37316     -180989.82      199.86685      199.95317      841.76977    
      4300  -181965.7       985.38325     -180980.32      199.84656      199.97393      842.182      
      4400  -181976.65      981.1633      -180995.49      199.82272      199.99507      842.59423    
      4500  -181981.78      972.13595     -181009.65      199.79622      200.01671      843.00646    
      4600  -181972.4       966.68116     -181005.72      199.77231      200.03827      843.41868    
      4700  -181946.79      970.4856      -180976.3       199.74787      200.0575       843.83091    
      4800  -181919.31      984.05659     -180935.25      199.72361      200.07148      844.24314    
      4900  -181899.96      988.72212     -180911.24      199.7072       200.08171      844.65537    
      5000  -181884.76      973.66399     -180911.09      199.69215      200.08472      845.0676     
      5100  -181894.58      972.28419     -180922.29      199.6816       200.08218      845.47982    
      5200  -181884.02      957.39808     -180926.62      199.68118      200.07964      845.89205    
      5300  -181879.02      966.87328     -180912.15      199.67849      200.07098      846.30428    
      5400  -181863.2       982.88554     -180880.32      199.67952      200.06092      846.71651    
      5500  -181841.09      989.11463     -180851.97      199.67949      200.04891      847.12874    
      5600  -181834.74      987.84521     -180846.9       199.67566      200.03576      847.54096    
      5700  -181825.3       971.86103     -180853.44      199.67303      200.02447      847.95319    
      5800  -181821.18      970.15417     -180851.02      199.67037      200.01524      848.36542    
      5900  -181801.7       969.67178     -180832.03      199.66781      200.01002      848.77765    
      6000  -181783.67      980.3335      -180803.34      199.66117      200.00826      849.18988    
      6100  -181764.46      985.01725     -180779.44      199.65021      200.00941      849.6021     
      6200  -181748.34      978.48262     -180769.86      199.63762      200.01485      850.01433    
      6300  -181739.43      971.08407     -180768.35      199.61859      200.02152      850.42656    
      6400  -181727.63      964.86053     -180762.77      199.60119      200.03159      850.83879    
      6500  -181718.02      975.48158     -180742.54      199.58269      200.04196      851.25102    
      6600  -181690.28      974.14071     -180716.14      199.56099      200.05029      851.66325    
      6700  -181669.54      975.10211     -180694.44      199.54517      200.06011      852.07547    
      6800  -181663.74      980.93147     -180682.81      199.52981      200.06701      852.4877     
      6900  -181653.03      974.33098     -180678.7       199.51609      200.07149      852.89993    
      7000  -181644.68      974.62803     -180670.05      199.50465      200.07298      853.31216    
      7100  -181621.15      971.7444      -180649.4       199.49322      200.07211      853.72439    
      7200  -181605.13      982.41565     -180622.71      199.48074      200.06925      854.13661    
      7300  -181584.77      982.88275     -180601.88      199.46963      200.0655       854.54884    
      7400  -181568.56      974.36314     -180594.2       199.46224      200.06085      854.96107    
      7500  -181557.52      967.82047     -180589.7       199.45684      200.05532      855.3733     
      7600  -181547.33      973.55031     -180573.78      199.44906      200.04741      855.78553    
      7700  -181524         976.66375     -180547.34      199.44328      200.04017      856.19775    
      7800  -181498.81      978.31685     -180520.49      199.4365       200.03276      856.60998    
      7900  -181476.88      977.15659     -180499.72      199.42873      200.02546      857.02221    
      8000  -181462.93      976.04095     -180486.89      199.42237      200.02008      857.43444    
      8100  -181444.82      967.31481     -180477.51      199.41302      200.01602      857.84667    
      8200  -181440.02      973.53907     -180466.48      199.40006      200.01278      858.25889    
      8300  -181419.06      970.95619     -180448.11      199.38892      200.01255      858.67112    
      8400  -181394.3       970.53879     -180423.76      199.37552      200.01272      859.08335    
      8500  -181371.03      973.12746     -180397.91      199.36026      200.01453      859.49558    
      8600  -181352.97      979.29768     -180373.68      199.34343      200.01797      859.90781    
      8700  -181342.96      983.70761     -180359.26      199.32508      200.02215      860.32004    
      8800  -181324.23      974.4343      -180349.79      199.30907      200.02831      860.73226    
      8900  -181306.11      972.15198     -180333.96      199.2916       200.03307      861.14449    
      9000  -181282.19      969.89882     -180312.29      199.27362      200.03743      861.55672    
      9100  -181260.78      977.81953     -180282.96      199.2537       200.03842      861.96895    
      9200  -181239.04      980.507       -180258.53      199.23877      200.03815      862.38118    
      9300  -181222.27      979.92589     -180242.34      199.22811      200.03578      862.7934     
      9400  -181205.83      974.66437     -180231.17      199.21998      200.03035      863.20563    
      9500  -181185.39      970.22096     -180215.17      199.21249      200.02232      863.61786    
      9600  -181166.06      976.68136     -180189.37      199.19992      200.01052      864.03009    
      9700  -181139.9       979.16143     -180160.74      199.18941      199.9988       864.44232    
      9800  -181117.44      979.58771     -180137.85      199.1829       199.98883      864.85454    
      9900  -181099.69      978.30863     -180121.38      199.17416      199.97847      865.26677    
     10000  -181077.52      972.79879     -180104.72      199.16518      199.96862      865.679      
     10100  -181059.2       977.74088     -180081.45      199.1563       199.96149      866.09123    
     10200  -181036.69      981.44494     -180055.24      199.14015      199.95434      866.50346    
     10300  -181015.69      982.15967     -180033.54      199.1257       199.95139      866.91568    
     10400  -180987.24      974.3948      -180012.85      199.11053      199.94969      867.32791    
     10500  -180969.56      975.98532     -179993.57      199.09303      199.94771      867.74014    
     10600  -180953.28      975.6934      -179977.59      199.0788       199.94854      868.15237    
     10700  -180929.37      973.66151     -179955.7       199.05952      199.94896      868.5646     
     10800  -180905.73      980.43764     -179925.29      199.04035      199.95005      868.97683    
     10900  -180869.98      976.80128     -179893.18      199.02046      199.95197      869.38905    
     11000  -180853.41      987.07443     -179866.34      198.99686      199.95202      869.80128    
     11100  -180830.39      980.58878     -179849.8       198.97895      199.95416      870.21351    
     11200  -180808.81      970.44021     -179838.37      198.95891      199.95256      870.62574    
     11300  -180789.55      970.05926     -179819.49      198.94027      199.94775      871.03797    
     11400  -180756.05      969.02054     -179787.03      198.9284       199.94248      871.45019    
     11500  -180728.67      982.5633      -179746.1       198.91396      199.93426      871.86242    
     11600  -180700.99      988.13708     -179712.86      198.90138      199.92635      872.27465    
     11700  -180682.07      984.71292     -179697.35      198.88905      199.91797      872.68688    
     11800  -180667.4       975.35539     -179692.05      198.87475      199.90618      873.09911    
     11900  -180647.19      965.90695     -179681.28      198.86363      199.89515      873.51133    
     12000  -180620.98      965.37108     -179655.61      198.85099      199.88314      873.92356    
     12100  -180592.81      974.93009     -179617.88      198.83837      199.87065      874.33579    
     12200  -180565.45      985.00273     -179580.44      198.82906      199.86066      874.74802    
     12300  -180534.83      984.22211     -179550.61      198.81442      199.85014      875.16025    
     12400  -180507.68      974.64101     -179533.04      198.79978      199.84275      875.57247    
     12500  -180487.7       970.13373     -179517.56      198.78249      199.83679      875.9847     
     12600  -180463.26      969.21742     -179494.04      198.76232      199.83113      876.39693    
     12700  -180430.38      970.71613     -179459.66      198.74436      199.82836      876.80916    
     12800  -180400.2       981.23462     -179418.97      198.7245       199.82523      877.22139    
     12900  -180362.71      975.89913     -179386.81      198.70495      199.82369      877.63362    
     13000  -180348.56      979.40006     -179369.16      198.68705      199.82308      878.04584    
     13100  -180318.91      964.93524     -179353.98      198.66665      199.82012      878.45807    
     13200  -180297.78      967.26985     -179330.51      198.64541      199.81575      878.8703     
     13300  -180270.31      969.42064     -179300.89      198.62712      199.81184      879.28253    
     13400  -180237.98      974.15692     -179263.83      198.60739      199.8058       879.69476    
     13500  -180211.8       984.78235     -179227.01      198.58923      199.7995       880.10698    
     13600  -180183.2       983.15008     -179200.05      198.57212      199.79252      880.51921    
     13700  -180164.89      981.39036     -179183.5       198.55215      199.78358      880.93144    
     13800  -180141.47      975.02259     -179166.45      198.53486      199.7753       881.34367    
     13900  -180105.8       966.19091     -179139.61      198.51844      199.76655      881.7559     
     14000  -180071.2       970.48051     -179100.72      198.50083      199.75651      882.16812    
     14100  -180043.4       982.7879      -179060.61      198.48739      199.74827      882.58035    
     14200  -180015.14      986.29937     -179028.84      198.47331      199.73924      882.99258    
     14300  -179991.84      983.25619     -179008.59      198.45452      199.72709      883.40481    
     14400  -179971.88      981.81052     -178990.07      198.43838      199.71655      883.81704    
     14500  -179933.68      968.42957     -178965.25      198.42057      199.70519      884.22926    
     14600  -179910.5       977.77882     -178932.72      198.40343      199.6948       884.64149    
     14700  -179873.63      978.37695     -178895.25      198.38979      199.68592      885.05372    
     14800  -179835.76      976.58983     -178859.17      198.37351      199.6767       885.46595    
     14900  -179807.62      977.72875     -178829.89      198.35416      199.66762      885.87818    
     15000  -179787.28      980.45839     -178806.82      198.33536      199.66079      886.29041    
     15100  -179753.42      969.23599     -178784.19      198.31484      199.65368      886.70263    
     15200  -179726.45      971.88296     -178754.56      198.29302      199.64648      887.11486    
     15300  -179694.45      979.28313     -178715.17      198.27321      199.6407       887.52709    
     15400  -179659.88      981.02635     -178678.86      198.25203      199.63487      887.93932    
     15500  -179630.01      977.4495      -178652.56      198.2302       199.62877      888.35155    
     15600  -179606.94      970.71244     -178636.23      198.2106       199.62242      888.76377    
     15700  -179572.56      969.89098     -178602.67      198.191        199.6143       889.176      
     15800  -179543.21      980.79788     -178562.41      198.17201      199.60545      889.58823    
     15900  -179502.04      975.32269     -178526.72      198.15292      199.59656      890.00046    
     16000  -179476.06      980.06786     -178495.99      198.13156      199.58568      890.41269    
     16100  -179451.63      977.19442     -178474.44      198.11245      199.57449      890.82491    
     16200  -179418.28      965.5601      -178452.72      198.09424      199.56332      891.23714    
     16300  -179388.74      973.87937     -178414.86      198.07598      199.5512       891.64937    
     16400  -179355.79      980.22823     -178375.56      198.06033      199.53957      892.0616     
     16500  -179313.5       975.38485     -178338.11      198.04244      199.52469      892.47383    
     16600  -179283.88      981.16691     -178302.71      198.02555      199.51046      892.88605    
     16700  -179252.09      979.12634     -178272.96      198.01132      199.49825      893.29828    
     16800  -179224.15      970.15952     -178254         197.99223      199.48461      893.71051    
     16900  -179186.93      963.07209     -178223.85      197.97356      199.47159      894.12274    
     17000  -179156.47      975.2888      -178181.18      197.95488      199.46018      894.53497    
     17100  -179117.97      976.55176     -178141.42      197.93201      199.44801      894.9472     
     17200  -179087.11      981.24246     -178105.87      197.91307      199.43949      895.35942    
     17300  -179045.66      973.73511     -178071.92      197.89333      199.43172      895.77165    
     17400  -179009.61      969.69576     -178039.91      197.87204      199.42392      896.18388    
     17500  -178980.14      968.90023     -178011.24      197.85271      199.41673      896.59611    
     17600  -178954.02      974.77589     -177979.24      197.8292       199.40775      897.00834    
     17700  -178919.76      980.49281     -177939.27      197.80852      199.40052      897.42056    
     17800  -178868.95      972.21113     -177896.74      197.78943      199.39235      897.83279    
     17900  -178839.43      977.51409     -177861.92      197.7677       199.38147      898.24502    
     18000  -178815.62      972.92374     -177842.7       197.74921      199.37068      898.65725    
     18100  -178779.6       968.29519     -177811.31      197.72968      199.35803      899.06948    
     18200  -178744.05      974.2513      -177769.8       197.7097       199.34377      899.4817     
     18300  -178707.41      980.48425     -177726.93      197.69383      199.33126      899.89393    
     18400  -178661.03      971.67886     -177689.35      197.67499      199.31652      900.30616    
     18500  -178636.55      980.97045     -177655.57      197.65602      199.30103      900.71839    
     18600  -178599.71      967.6744      -177632.03      197.64061      199.2869       901.13062    
     18700  -178576.84      972.0406      -177604.8       197.6213       199.27155      901.54284    
     18800  -178533.21      970.60316     -177562.61      197.6037       199.25911      901.95507    
     18900  -178496.92      978.95055     -177517.97      197.58602      199.24812      902.3673     
     19000  -178459.09      980.96183     -177478.13      197.56605      199.23667      902.77953    
     19100  -178420.12      978.10374     -177442.02      197.54713      199.22609      903.19176    
     19200  -178392.97      978.24204     -177414.73      197.52569      199.21525      903.60399    
     19300  -178356.6       968.34413     -177388.25      197.50392      199.20474      904.01621    
     19400  -178319.58      973.02036     -177346.56      197.48243      199.19533      904.42844    
     19500  -178274.44      972.40869     -177302.03      197.46023      199.18603      904.84067    
     19600  -178239.57      978.08929     -177261.48      197.4389       199.17651      905.2529     
     19700  -178198.52      974.9591      -177223.56      197.41804      199.16737      905.66513    
     19800  -178166.56      976.52857     -177190.04      197.39526      199.15825      906.07735    
     19900  -178135.25      972.47664     -177162.77      197.37292      199.14903      906.48958    
     20000  -178098.05      971.58792     -177126.47      197.35088      199.13865      906.90181    
     20100  -178052.76      975.2463      -177077.51      197.33011      199.1281       907.31404    
     20200  -178011.76      978.36868     -177033.4       197.31122      199.1172       907.72627    
     20300  -177975.05      979.2986      -176995.75      197.29196      199.10463      908.13849    
     20400  -177940.83      977.24233     -176963.59      197.27404      199.09122      908.55072    
     20500  -177903.61      968.76946     -176934.85      197.25719      199.07713      908.96295    
     20600  -177871.79      971.06844     -176900.73      197.23939      199.06167      909.37518    
     20700  -177818.85      966.43182     -176852.42      197.22325      199.04744      909.78741    
     20800  -177783.57      978.59985     -176804.97      197.20655      199.03301      910.19963    
     20900  -177743.07      974.98441     -176768.09      197.19005      199.01827      910.61186    
     21000  -177707.57      969.65689     -176737.92      197.17368      199.00392      911.02409    
     21100  -177679.56      977.57518     -176701.98      197.15537      198.98924      911.43632    
     21200  -177631.27      975.11796     -176656.15      197.13881      198.97621      911.84855    
     21300  -177588.41      983.19801     -176605.21      197.12216      198.96439      912.26078    
     21400  -177547.44      978.84343     -176568.6       197.10313      198.95235      912.673      
     21500  -177511.63      973.40676     -176538.23      197.08569      198.94272      913.08523    
     21600  -177475.84      973.3111      -176502.53      197.06636      198.93275      913.49746    
     21700  -177433.82      973.67405     -176460.14      197.04627      198.92284      913.90969    
     21800  -177387.99      976.85747     -176411.14      197.02637      198.9133       914.32192    
     21900  -177342.77      985.82054     -176356.95      197.00445      198.90343      914.73414    
     22000  -177302.04      980.2396      -176321.8       196.98431      198.89334      915.14637    
     22100  -177262.05      968.61334     -176293.44      196.96733      198.88281      915.5586     
     22200  -177234.31      972.97386     -176261.34      196.94934      198.87063      915.97083    
     22300  -177197.92      973.06847     -176224.85      196.93415      198.85896      916.38306    
     22400  -177149.14      972.16618     -176176.98      196.91869      198.84734      916.79528    
     22500  -177101.55      974.09363     -176127.45      196.9002       198.83469      917.20751    
     22600  -177064.23      976.15275     -176088.08      196.88329      198.82304      917.61974    
     22700  -177031.97      978.25445     -176053.71      196.8647       198.81001      918.03197    
     22800  -176990.08      969.86105     -176020.22      196.8473       198.79701      918.4442     
     22900  -176945.44      968.29672     -175977.14      196.83428      198.78555      918.85642    
     23000  -176904.39      971.60399     -175932.79      196.81873      198.77291      919.26865    
     23100  -176869.75      981.55531     -175888.19      196.80328      198.75988      919.68088    
     23200  -176826.49      983.80491     -175842.69      196.78944      198.74719      920.09311    
     23300  -176786.16      985.93981     -175800.22      196.77237      198.7336       920.50534    
     23400  -176741.47      973.17213     -175768.3       196.75523      198.72162      920.91757    
     23500  -176699.41      965.10496     -175734.3       196.73946      198.71123      921.32979    
     23600  -176656.76      969.96216     -175686.79      196.72272      198.70052      921.74202    
     23700  -176610.37      974.20013     -175636.17      196.70758      198.69103      922.15425    
     23800  -176566.36      974.15735     -175592.21      196.69136      198.68119      922.56648    
     23900  -176530.66      980.17735     -175550.48      196.67418      198.67053      922.97871    
     24000  -176483.86      968.89254     -175514.97      196.65879      198.66011      923.39093    
     24100  -176452.35      970.10621     -175482.24      196.64219      198.64906      923.80316    
     24200  -176402.64      966.91547     -175435.73      196.62507      198.63793      924.21539    
     24300  -176353.19      973.15506     -175380.04      196.60817      198.62674      924.62762    
     24400  -176311.51      976.75305     -175334.76      196.5917       198.61546      925.03985    
     24500  -176268.33      975.37288     -175292.95      196.57571      198.60462      925.45207    
     24600  -176230.36      973.4149      -175256.95      196.55825      198.5939       925.8643     
     24700  -176192.97      970.453       -175222.52      196.54253      198.58433      926.27653    
     24800  -176146.43      969.96642     -175176.46      196.52642      198.57394      926.68876    
     24900  -176098.15      979.1869      -175118.96      196.5094       198.56227      927.10099    
     25000  -176055.05      979.89676     -175075.15      196.49573      198.55159      927.51321    
     25100  -176011.39      975.35036     -175036.04      196.48067      198.53904      927.92544    
     25200  -175977.45      978.16871     -174999.28      196.46625      198.52648      928.33767    
     25300  -175925.23      966.62702     -174958.6       196.45287      198.5152       928.7499     
     25400  -175878.64      975.99122     -174902.65      196.43739      198.50291      929.16213    
     25500  -175826.11      973.7305      -174852.38      196.42315      198.49186      929.57436    
     25600  -175786.5       977.04062     -174809.46      196.40825      198.4809       929.98658    
     25700  -175746.19      973.67475     -174772.52      196.39121      198.46898      930.39881    
     25800  -175713.22      973.31143     -174739.91      196.37738      198.45912      930.81104    
     25900  -175663.33      970.381       -174692.95      196.36134      198.44977      931.22327    
     26000  -175617.58      975.0965      -174642.49      196.34273      198.4404       931.6355     
     26100  -175567.5       974.02673     -174593.47      196.32841      198.43386      932.04772    
     26200  -175523.18      979.11891     -174544.06      196.31059      198.42458      932.45995    
     26300  -175480.29      979.64432     -174500.64      196.29522      198.41495      932.87218    
     26400  -175440.65      970.4143      -174470.24      196.28414      198.40558      933.28441    
     26500  -175390.38      962.94449     -174427.44      196.26947      198.39402      933.69664    
     26600  -175348.17      976.29687     -174371.87      196.25673      198.38334      934.10886    
     26700  -175295.15      973.45131     -174321.7       196.24253      198.37138      934.52109    
     26800  -175248.79      972.946       -174275.85      196.22358      198.35601      934.93332    
     26900  -175206.19      975.15345     -174231.04      196.21111      198.34403      935.34555    
     27000  -175155.36      970.98074     -174184.37      196.1995       198.33206      935.75778    
     27100  -175118.63      983.5263      -174135.11      196.18531      198.31917      936.17       
     27200  -175063.84      974.12081     -174089.72      196.17466      198.30908      936.58223    
     27300  -175023.96      973.97841     -174049.98      196.15926      198.29728      936.99446    
     27400  -174980.07      968.31126     -174011.76      196.14367      198.28593      937.40669    
     27500  -174936.28      969.46233     -173966.82      196.13137      198.277        937.81892    
     27600  -174885.83      979.12512     -173906.71      196.11468      198.26695      938.23115    
     27700  -174834.57      978.30521     -173856.27      196.09882      198.25778      938.64337    
     27800  -174786.6       974.55824     -173812.04      196.0836       198.24802      939.0556     
     27900  -174752.07      979.1221      -173772.95      196.06773      198.23662      939.46783    
     28000  -174708.09      971.69706     -173736.4       196.05562      198.22661      939.88006    
     28100  -174659.66      974.96053     -173684.7       196.04119      198.21596      940.29229    
     28200  -174605.36      976.22741     -173629.13      196.02663      198.20568      940.70451    
     28300  -174555.04      974.63601     -173580.4       196.01393      198.19741      941.11674    
     28400  -174502.8       971.49723     -173531.3       195.99702      198.18811      941.52897    
     28500  -174460.21      975.68541     -173484.52      195.98066      198.17936      941.9412     
     28600  -174415.77      971.36126     -173444.41      195.96601      198.16982      942.35343    
     28700  -174372.07      968.85233     -173403.22      195.94942      198.15669      942.76565    
     28800  -174324.73      968.99914     -173355.74      195.93789      198.14482      943.17788    
     28900  -174274.93      977.64698     -173297.28      195.92698      198.13324      943.59011    
     29000  -174224.1       979.66306     -173244.43      195.91258      198.1206       944.00234    
     29100  -174176.2       976.27094     -173199.93      195.89971      198.10922      944.41457    
     29200  -174141.04      979.36334     -173161.68      195.88595      198.09736      944.82679    
     29300  -174089.36      965.63072     -173123.73      195.87146      198.08452      945.23902    
     29400  -174033.97      964.75642     -173069.22      195.862        198.07375      945.65125    
     29500  -173986.54      978.7153      -173007.83      195.85131      198.06174      946.06348    
     29600  -173939.12      981.51934     -172957.6       195.83625      198.04798      946.47571    
     29700  -173892.44      978.53702     -172913.9       195.82233      198.03616      946.88794    
     29800  -173853.74      979.69047     -172874.05      195.80733      198.02539      947.30016    
     29900  -173810.01      978.9975      -172831.01      195.79139      198.01437      947.71239    
     30000  -173749.57      969.25107     -172780.32      195.77915      198.00533      948.12462    
     30100  -173701.23      983.39312     -172717.84      195.76429      197.99599      948.53685    
     30200  -173650.6       980.80372     -172669.79      195.74739      197.98734      948.94908    
     30300  -173601.56      972.60915     -172628.96      195.73323      197.9808       949.3613     
     30400  -173548.69      963.3696      -172585.32      195.71664      197.97289      949.77353    
     30500  -173500.62      974.46595     -172526.15      195.70067      197.96474      950.18576    
     30600  -173453.28      983.91405     -172469.36      195.68838      197.95618      950.59799    
     30700  -173410.93      984.77779     -172426.15      195.67448      197.94474      951.01022    
     30800  -173361         975.72671     -172385.27      195.66146      197.9333       951.42244    
     30900  -173305.25      968.56353     -172336.69      195.65039      197.92309      951.83467    
     31000  -173248.35      972.55578     -172275.8       195.63479      197.91054      952.2469     
     31100  -173204.82      980.80149     -172224.02      195.62109      197.89765      952.65913    
     31200  -173156.06      976.83979     -172179.22      195.6109       197.88448      953.07136    
     31300  -173113.46      977.55712     -172135.9       195.59928      197.86997      953.48358    
     31400  -173064.06      973.3058      -172090.75      195.58924      197.8578       953.89581    
     31500  -173023.29      978.81914     -172044.47      195.57855      197.84623      954.30804    
     31600  -172958.78      970.73378     -171988.04      195.56409      197.83342      954.72027    
     31700  -172911.36      982.05313     -171929.31      195.55119      197.82227      955.1325     
     31800  -172856.37      978.63187     -171877.73      195.53663      197.81078      955.54473    
     31900  -172799.93      968.3518      -171831.58      195.52303      197.80044      955.95695    
     32000  -172764.62      973.44148     -171791.18      195.51083      197.79192      956.36918    
     32100  -172709.74      960.91575     -171748.82      195.4948       197.78264      956.78141    
     32200  -172664.29      973.74216     -171690.54      195.47689      197.77282      957.19364    
     32300  -172608.15      975.1475      -171633         195.46321      197.76423      957.60587    
     32400  -172554.67      974.72335     -171579.95      195.44878      197.75469      958.01809    
     32500  -172500.26      974.63215     -171525.63      195.43337      197.74492      958.43032    
     32600  -172446.44      975.30996     -171471.13      195.41933      197.73692      958.84255    
     32700  -172396.2       979.1179      -171417.08      195.40296      197.72756      959.25478    
     32800  -172354.29      983.88306     -171370.4       195.38699      197.71709      959.66701    
     32900  -172303.24      971.87402     -171331.37      195.37466      197.7072       960.07923    
     33000  -172256.84      972.83785     -171284.01      195.36036      197.69395      960.49146    
     33100  -172202.51      974.22835     -171228.28      195.34738      197.67993      960.90369    
     33200  -172146.15      979.18207     -171166.96      195.33716      197.66698      961.31592    
     33300  -172102.4       986.74923     -171115.65      195.3242       197.65361      961.72815    
     33400  -172050.3       981.31131     -171068.99      195.31098      197.64138      962.14037    
     33500  -171992.98      971.5322      -171021.44      195.29824      197.63065      962.5526     
     33600  -171950.18      974.79756     -170975.38      195.2826       197.61863      962.96483    
     33700  -171896.15      966.41206     -170929.74      195.26811      197.60699      963.37706    
     33800  -171850.32      970.09181     -170880.23      195.25753      197.59697      963.78929    
     33900  -171795.41      977.10808     -170818.3       195.2439       197.58508      964.20152    
     34000  -171735.95      975.56477     -170760.38      195.23021      197.57267      964.61374    
     34100  -171687.44      979.46191     -170707.98      195.21932      197.5621       965.02597    
     34200  -171635.31      975.90952     -170659.4       195.20486      197.55039      965.4382     
     34300  -171582.91      965.47395     -170617.44      195.18862      197.53872      965.85043    
     34400  -171543.08      971.33826     -170571.74      195.1746       197.52888      966.26266    
     34500  -171484.45      973.1535      -170511.29      195.15768      197.51685      966.67488    
     34600  -171427.23      975.19448     -170452.04      195.14333      197.50503      967.08711    
     34700  -171369.4       970.30868     -170399.09      195.13334      197.49558      967.49934    
     34800  -171327.02      980.24071     -170346.78      195.11798      197.48381      967.91157    
     34900  -171271.4       974.0228      -170297.38      195.10475      197.47402      968.3238     
     35000  -171225.37      972.78724     -170252.58      195.09219      197.46557      968.73602    
     35100  -171171.44      969.78254     -170201.66      195.07338      197.45457      969.14825    
     35200  -171113.63      975.5794      -170138.05      195.0577       197.44538      969.56048    
     35300  -171058.64      978.96274     -170079.68      195.04161      197.43521      969.97271    
     35400  -171009.82      981.05591     -170028.77      195.02554      197.42419      970.38494    
     35500  -170957.2       973.47307     -169983.73      195.01273      197.41373      970.79716    
     35600  -170906.85      966.3928      -169940.46      194.99885      197.40181      971.20939    
     35700  -170854.18      960.69479     -169893.48      194.98433      197.38964      971.62162    
     35800  -170802.01      971.59426     -169830.42      194.96966      197.37705      972.03385    
     35900  -170748.17      980.64825     -169767.52      194.95598      197.36468      972.44608    
     36000  -170686.21      974.47066     -169711.74      194.94391      197.35295      972.85831    
     36100  -170640.84      979.2936      -169661.55      194.93182      197.3403       973.27053    
     36200  -170590.57      973.34853     -169617.23      194.9186       197.32672      973.68276    
     36300  -170540.49      968.82432     -169571.66      194.9033       197.31318      974.09499    
     36400  -170488.8       976.27918     -169512.52      194.88802      197.30026      974.50722    
     36500  -170425.53      977.81906     -169447.71      194.87442      197.28733      974.91945    
     36600  -170366.67      970.02455     -169396.64      194.86138      197.2739       975.33167    
     36700  -170319.96      972.93793     -169347.02      194.84707      197.25961      975.7439     
     36800  -170269.16      974.84362     -169294.32      194.83469      197.24745      976.15613    
     36900  -170210.15      977.74818     -169232.4       194.82143      197.23566      976.56836    
     37000  -170151.81      977.64252     -169174.17      194.8048       197.22277      976.98059    
     37100  -170113.98      985.45031     -169128.53      194.79159      197.21305      977.39281    
     37200  -170054.5       968.20743     -169086.29      194.77705      197.2033       977.80504    
     37300  -170003.36      972.07148     -169031.29      194.75956      197.19174      978.21727    
     37400  -169948.71      977.05477     -168971.65      194.74663      197.18242      978.6295     
     37500  -169882.42      971.09421     -168911.32      194.73114      197.17174      979.04173    
     37600  -169839.94      982.20779     -168857.73      194.7132       197.15985      979.45395    
     37700  -169781.24      968.56976     -168812.67      194.69936      197.14949      979.86618    
     37800  -169738.35      962.37418     -168775.98      194.68392      197.1374       980.27841    
     37900  -169689.37      968.88493     -168720.49      194.66877      197.1252       980.69064    
     38000  -169622.88      967.42556     -168655.45      194.65754      197.11475      981.10287    
     38100  -169561.97      969.46988     -168592.5       194.64366      197.10174      981.5151     
     38200  -169517.25      983.23174     -168534.01      194.62863      197.08784      981.92732    
     38300  -169446.11      964.12893     -168481.98      194.61599      197.07614      982.33955    
     38400  -169414.35      978.24543     -168436.1       194.59913      197.06262      982.75178    
     38500  -169353.26      962.49759     -168390.77      194.58322      197.05049      983.16401    
     38600  -169301.25      965.20183     -168336.05      194.57094      197.04074      983.57624    
     38700  -169239.13      972.29542     -168266.83      194.55528      197.0289       983.98846    
     38800  -169187.97      977.50978     -168210.46      194.542        197.01802      984.40069    
     38900  -169132.33      973.62342     -168158.7       194.53072      197.00707      984.81292    
     39000  -169077.84      969.90678     -168107.93      194.51583      196.99321      985.22515    
     39100  -169028.74      972.668       -168056.08      194.50148      196.97974      985.63738    
     39200  -168967.41      967.45716     -167999.95      194.48712      196.9661       986.0496     
     39300  -168913.88      978.60354     -167935.28      194.47187      196.9531       986.46183    
     39400  -168856.6       980.65373     -167875.95      194.45773      196.94092      986.87406    
     39500  -168795.62      971.21082     -167824.41      194.44387      196.92892      987.28629    
     39600  -168759.1       978.77885     -167780.32      194.42917      196.91642      987.69852    
     39700  -168700.44      965.39326     -167735.05      194.41641      196.90467      988.11074    
     39800  -168649.62      973.7223      -167675.9       194.40285      196.89263      988.52297    
     39900  -168585.02      972.33708     -167612.68      194.38861      196.88116      988.9352     
     40000  -168533.42      979.49074     -167553.93      194.37335      196.87019      989.34743    
     40100  -168473.1       975.0986      -167498         194.35371      196.85847      989.75966    
     40200  -168417.53      976.66653     -167440.87      194.33594      196.84798      990.17189    
     40300  -168355.75      975.18296     -167380.57      194.32147      196.83853      990.58411    
     40400  -168304.3       979.45043     -167324.85      194.30771      196.8276       990.99634    
     40500  -168256.39      975.99485     -167280.39      194.29466      196.8163       991.40857    
     40600  -168209.63      977.79376     -167231.83      194.27988      196.80364      991.8208     
     40700  -168146.22      970.18148     -167176.04      194.26549      196.79014      992.23303    
     40800  -168098.05      983.67548     -167114.38      194.25228      196.77628      992.64525    
     40900  -168028.95      982.65114     -167046.3       194.23772      196.7608       993.05748    
     41000  -167975.3       981.24245     -166994.06      194.22443      196.74592      993.46971    
     41100  -167924.14      977.13477     -166947.01      194.21152      196.73123      993.88194    
     41200  -167870.11      971.78812     -166898.32      194.19732      196.7166       994.29417    
     41300  -167819.99      976.67171     -166843.31      194.18409      196.70349      994.70639    
     41400  -167756.07      977.53275     -166778.54      194.17055      196.69064      995.11862    
     41500  -167690.51      976.73165     -166713.77      194.15602      196.6766       995.53085    
     41600  -167642.17      979.22934     -166662.94      194.14457      196.66425      995.94308    
     41700  -167590.72      977.15385     -166613.56      194.13221      196.65197      996.35531    
     41800  -167535.37      974.79502     -166560.58      194.11651      196.63898      996.76753    
     41900  -167485.15      979.32954     -166505.82      194.10079      196.62679      997.17976    
     42000  -167423.79      973.68387     -166450.11      194.08523      196.61513      997.59199    
     42100  -167369.82      980.02739     -166389.79      194.06932      196.6028       998.00422    
     42200  -167308.21      980.93504     -166327.28      194.05691      196.5913       998.41645    
     42300  -167254.64      984.51402     -166270.12      194.04383      196.57933      998.82868    
     42400  -167199.86      977.49399     -166222.37      194.02805      196.56623      999.2409     
     42500  -167150.31      973.60759     -166176.7       194.0144       196.55413      999.65313    
     42600  -167091.51      971.47043     -166120.04      193.99816      196.54072      1000.0654    
     42700  -167039.17      980.57106     -166058.6       193.9818       196.52729      1000.4776    
     42800  -166980.8       979.98369     -166000.81      193.96952      196.51589      1000.8898    
     42900  -166921.32      976.59196     -165944.73      193.95388      196.50349      1001.302     
     43000  -166864.63      976.52968     -165888.1       193.93707      196.4916       1001.7143    
     43100  -166804.63      971.95956     -165832.67      193.92324      196.48203      1002.1265    
     43200  -166757.73      973.23352     -165784.5       193.90497      196.46976      1002.5387    
     43300  -166703.55      969.9787      -165733.57      193.88744      196.45755      1002.951     
     43400  -166639.61      970.97671     -165668.63      193.87363      196.44745      1003.3632    
     43500  -166582.08      977.32675     -165604.75      193.85763      196.43562      1003.7754    
     43600  -166526.44      978.84575     -165547.59      193.84246      196.42354      1004.1876    
     43700  -166472.17      977.5249      -165494.64      193.82902      196.41215      1004.5999    
     43800  -166420.04      972.9569      -165447.08      193.81181      196.39835      1005.0121    
     43900  -166365.08      966.40769     -165398.67      193.79666      196.38437      1005.4243    
     44000  -166306.35      974.15657     -165332.19      193.78321      196.36971      1005.8366    
     44100  -166245.54      975.96429     -165269.58      193.7687       196.35383      1006.2488    
     44200  -166188.55      975.02801     -165213.52      193.7563       196.33894      1006.661     
     44300  -166137.67      976.46854     -165161.2       193.74365      196.3249       1007.0732    
     44400  -166081.02      968.11077     -165112.91      193.72817      196.31139      1007.4855    
     44500  -166023.92      962.8415      -165061.07      193.7139       196.30073      1007.8977    
     44600  -165971.12      976.70929     -164994.41      193.69763      196.29088      1008.3099    
     44700  -165909.98      982.32429     -164927.66      193.67797      196.28076      1008.7221    
     44800  -165847.96      977.11065     -164870.85      193.66074      196.27261      1009.1344    
     44900  -165793.65      972.34309     -164821.31      193.64248      196.2633       1009.5466    
     45000  -165739.17      967.8666      -164771.3       193.62419      196.25255      1009.9588    
     45100  -165685.6       975.36263     -164710.24      193.6092       196.2425       1010.3711    
     45200  -165617.16      979.00909     -164638.15      193.59392      196.23093      1010.7833    
     45300  -165570.51      988.52294     -164581.99      193.57882      196.21811      1011.1955    
     45400  -165513.23      979.08711     -164534.14      193.56572      196.20563      1011.6077    
     45500  -165462.98      978.66235     -164484.32      193.55107      196.19255      1012.02      
     45600  -165398.22      970.61896     -164427.6       193.53432      196.17869      1012.4322    
     45700  -165342.31      978.11037     -164364.2       193.51931      196.16557      1012.8444    
     45800  -165276.1       980.88458     -164295.22      193.50516      196.15324      1013.2567    
     45900  -165219.13      980.02917     -164239.1       193.4893       196.14178      1013.6689    
     46000  -165168.69      979.95612     -164188.74      193.47388      196.13123      1014.0811    
     46100  -165116.18      978.82259     -164137.36      193.45813      196.12087      1014.4933    
     46200  -165055.75      970.74993     -164085         193.44128      196.10951      1014.9056    
     46300  -165008.3       977.16557     -164031.13      193.42501      196.09783      1015.3178    
     46400  -164945.81      970.85642     -163974.96      193.41126      196.08777      1015.73      
     46500  -164885.79      976.84461     -163908.94      193.39465      196.07649      1016.1423    
     46600  -164822.65      978.8901      -163843.76      193.37917      196.06577      1016.5545    
     46700  -164763.28      973.88552     -163789.39      193.36674      196.056        1016.9667    
     46800  -164715.47      973.12994     -163742.34      193.35021      196.04362      1017.3789    
     46900  -164664.09      977.03966     -163687.05      193.33313      196.0314       1017.7912    
     47000  -164598.64      971.8158      -163626.83      193.31859      196.02068      1018.2034    
     47100  -164547.44      979.98707     -163567.45      193.30139      196.00791      1018.6156    
     47200  -164486.59      977.75139     -163508.84      193.28531      195.99606      1019.0279    
     47300  -164427.17      976.34253     -163450.83      193.27081      195.98601      1019.4401    
     47400  -164368.02      972.57573     -163395.44      193.25467      195.97489      1019.8523    
     47500  -164314.75      972.81696     -163341.93      193.2388       195.96332      1020.2645    
     47600  -164262.85      976.98456     -163285.87      193.22507      195.95275      1020.6768    
     47700  -164194.66      971.33385     -163223.32      193.21086      195.94225      1021.089     
     47800  -164134.52      979.78985     -163154.73      193.19286      195.92999      1021.5012    
     47900  -164078.7       981.58906     -163097.11      193.17682      195.91904      1021.9134    
     48000  -164021.32      971.05945     -163050.26      193.16166      195.90817      1022.3257    
     48100  -163968.13      973.51511     -162994.62      193.14469      195.89493      1022.7379    
     48200  -163909.87      974.58954     -162935.28      193.1314       195.88186      1023.1501    
     48300  -163850.8       975.31073     -162875.49      193.1204       195.86907      1023.5624    
     48400  -163791.73      974.03322     -162817.7       193.106        195.8548       1023.9746    
     48500  -163737.78      970.8511      -162766.92      193.09282      195.84102      1024.3868    
     48600  -163684.65      969.73757     -162714.91      193.07989      195.82795      1024.799     
     48700  -163625.11      972.68105     -162652.43      193.06346      195.81374      1025.2113    
     48800  -163558.16      976.50131     -162581.65      193.04949      195.80122      1025.6235    
     48900  -163507.61      984.0809      -162523.53      193.03563      195.78917      1026.0357    
     49000  -163448.33      977.43121     -162470.9       193.01959      195.77598      1026.448     
     49100  -163394.18      977.50942     -162416.67      193.00709      195.76426      1026.8602    
     49200  -163338.69      975.71491     -162362.97      192.99482      195.75304      1027.2724    
     49300  -163274.61      966.58694     -162308.02      192.97879      195.74133      1027.6846    
     49400  -163222.79      968.6212      -162254.17      192.96328      195.73005      1028.0969    
     49500  -163170.8       973.31469     -162197.48      192.94771      195.71883      1028.5091    
     49600  -163107.86      977.01785     -162130.84      192.93127      195.70677      1028.9213    
     49700  -163041.72      977.41248     -162064.31      192.91712      195.69474      1029.3336    
     49800  -162984.83      978.43049     -162006.4       192.90365      195.68207      1029.7458    
     49900  -162930.71      971.0057      -161959.7       192.8918       195.66997      1030.158     
     50000  -162872.36      967.74337     -161904.62      192.87916      195.65823      1030.5702    
     50100  -162816.15      973.74816     -161842.41      192.86244      195.64643      1030.9825    
     50200  -162755.37      977.34339     -161778.03      192.84405      195.63581      1031.3947    
     50300  -162694.93      976.75087     -161718.18      192.82557      195.62551      1031.8069    
     50400  -162646.81      974.98909     -161671.83      192.80913      195.61582      1032.2192    
     50500  -162591.88      975.56685     -161616.31      192.79485      195.60571      1032.6314    
     50600  -162531.21      978.98499     -161552.23      192.78034      195.59351      1033.0436    
     50700  -162467.07      983.93741     -161483.13      192.7676       195.58032      1033.4558    
     50800  -162405.45      981.73038     -161423.72      192.7568       195.56776      1033.8681    
     50900  -162350.33      979.21477     -161371.11      192.74314      195.55448      1034.2803    
     51000  -162291.45      977.19879     -161314.25      192.72906      195.542        1034.6925    
     51100  -162230.41      971.43844     -161258.97      192.71322      195.52909      1035.1047    
     51200  -162181.22      977.81472     -161203.4       192.69654      195.51569      1035.517     
     51300  -162123.45      974.16065     -161149.29      192.68294      195.50332      1035.9292    
     51400  -162059.21      966.66529     -161092.55      192.66823      195.48963      1036.3414    
     51500  -162000.04      972.14756     -161027.89      192.65513      195.4768       1036.7537    
     51600  -161935.8       978.09102     -160957.71      192.64424      195.46537      1037.1659    
     51700  -161881.34      980.45562     -160900.89      192.62782      195.45146      1037.5781    
     51800  -161821.91      970.70515     -160851.2       192.61317      195.4377       1037.9903    
     51900  -161765.05      970.81668     -160794.23      192.60169      195.42488      1038.4026    
     52000  -161710.09      974.25483     -160735.83      192.58629      195.41117      1038.8148    
     52100  -161651.86      975.726       -160676.13      192.57238      195.39928      1039.227     
     52200  -161603.13      983.74296     -160619.38      192.55908      195.38859      1039.6393    
     52300  -161533.6       966.23288     -160567.37      192.54016      195.3763       1040.0515    
     52400  -161484.33      976.22125     -160508.11      192.52231      195.36529      1040.4637    
     52500  -161421.59      982.80578     -160438.78      192.50689      195.35478      1040.8759    
     52600  -161352.27      982.87597     -160369.39      192.4916       195.34317      1041.2882    
     52700  -161301.92      985.24902     -160316.67      192.47818      195.33279      1041.7004    
     52800  -161241.5       978.44308     -160263.05      192.46403      195.3226       1042.1126    
     52900  -161183.23      975.2576      -160207.98      192.44706      195.31172      1042.5249    
     53000  -161126.61      972.90495     -160153.71      192.42937      195.30155      1042.9371    
     53100  -161072.44      976.77433     -160095.67      192.41292      195.29143      1043.3493    
     53200  -161011.29      976.87483     -160034.42      192.39735      195.27975      1043.7615    
     53300  -160950.4       980.183       -159970.22      192.38228      195.26645      1044.1738    
     53400  -160880.12      973.65858     -159906.46      192.37027      195.25341      1044.586     
     53500  -160836.17      981.89409     -159854.27      192.35828      195.23905      1044.9982    
     53600  -160776.2       974.24478     -159801.95      192.34369      195.22377      1045.4105    
     53700  -160715.67      973.55908     -159742.11      192.32984      195.21077      1045.8227    
     53800  -160659.23      980.94233     -159678.29      192.3148       195.19934      1046.2349    
     53900  -160601.46      985.67508     -159615.79      192.29712      195.18789      1046.6471    
     54000  -160532.86      969.77601     -159563.08      192.27963      195.17771      1047.0594    
     54100  -160481.58      972.12675     -159509.45      192.26308      195.16871      1047.4716    
     54200  -160422.93      974.37195     -159448.56      192.24562      195.15882      1047.8838    
     54300  -160363.45      982.20191     -159381.25      192.23076      195.14932      1048.296     
     54400  -160288.97      979.66573     -159309.3       192.21799      195.14023      1048.7083    
     54500  -160230.02      980.88278     -159249.13      192.2027       195.12952      1049.1205    
     54600  -160182.74      981.97153     -159200.77      192.18732      195.1186       1049.5327    
     54700  -160122.48      977.43785     -159145.05      192.17161      195.10723      1049.945     
     54800  -160068.27      977.64869     -159090.62      192.1542       195.09403      1050.3572    
     54900  -160009.15      975.25172     -159033.89      192.13917      195.08013      1050.7694    
     55000  -159950.86      976.97073     -158973.89      192.12548      195.06606      1051.1816    
     55100  -159888.46      968.24493     -158920.22      192.10962      195.05277      1051.5939    
     55200  -159838.23      972.21182     -158866.02      192.09333      195.04063      1052.0061    
     55300  -159769.93      971.55474     -158798.38      192.07827      195.03008      1052.4183    
     55400  -159704.04      978.40773     -158725.63      192.06253      195.02031      1052.8306    
     55500  -159635.27      974.00604     -158661.26      192.04668      195.01059      1053.2428    
     55600  -159585.24      982.47894     -158602.77      192.0305       195.00079      1053.655     
     55700  -159529.46      979.64478     -158549.82      192.01223      194.98995      1054.0672    
     55800  -159475.67      980.32177     -158495.35      191.99582      194.97891      1054.4795    
     55900  -159413.8       976.11954     -158437.68      191.98061      194.96663      1054.8917    
     56000  -159350.16      970.86929     -158379.29      191.96584      194.95327      1055.3039    
     56100  -159295.24      973.86171     -158321.37      191.95156      194.93953      1055.7162    
     56200  -159239         967.87819     -158271.12      191.93634      194.92506      1056.1284    
     56300  -159177.22      966.99674     -158210.23      191.92167      194.91056      1056.5406    
     56400  -159114.32      972.94329     -158141.38      191.90648      194.89702      1056.9528    
     56500  -159055.95      981.49991     -158074.45      191.8908       194.88489      1057.3651    
     56600  -158996.87      985.81028     -158011.06      191.87504      194.87511      1057.7773    
     56700  -158926.52      972.7305      -157953.79      191.85704      194.86572      1058.1895    
     56800  -158869.66      974.84503     -157894.81      191.83929      194.85727      1058.6017    
     56900  -158811.92      979.07962     -157832.84      191.82219      194.84951      1059.014     
     57000  -158747.58      974.25463     -157773.32      191.80358      194.84036      1059.4262    
     57100  -158692.78      976.11449     -157716.67      191.78512      194.83078      1059.8384    
     57200  -158633.77      975.86623     -157657.9       191.76763      194.82054      1060.2507    
     57300  -158569.01      972.21385     -157596.8       191.75004      194.80764      1060.6629    
     57400  -158511.22      976.34039     -157534.88      191.73482      194.79348      1061.0751    
     57500  -158451.37      967.57598     -157483.79      191.72098      194.78077      1061.4873    
     57600  -158397.63      972.04972     -157425.58      191.70514      194.76851      1061.8996    
     57700  -158326.81      971.41591     -157355.39      191.68863      194.75741      1062.3118    
     57800  -158267.58      982.3818      -157285.2       191.67265      194.74793      1062.724     
     57900  -158209.56      982.88281     -157226.68      191.65362      194.73729      1063.1363    
     58000  -158145.99      975.00792     -157170.98      191.63625      194.72611      1063.5485    
     58100  -158088.03      978.8495      -157109.18      191.62063      194.71385      1063.9607    
     58200  -158032.41      981.71056     -157050.7       191.60512      194.69969      1064.3729    
     58300  -157967.9       976.36202     -156991.54      191.59135      194.68515      1064.7852    
     58400  -157906.49      977.94921     -156928.54      191.57766      194.6701       1065.1974    
     58500  -157832.98      968.48343     -156864.5       191.56316      194.65428      1065.6096    
     58600  -157782.05      980.9183      -156801.13      191.54848      194.63866      1066.0219    
     58700  -157722.03      981.27762     -156740.75      191.53416      194.62313      1066.4341    
     58800  -157661.1       981.05536     -156680.04      191.52028      194.60773      1066.8463    
     58900  -157601.3       982.39679     -156618.9       191.50559      194.5925       1067.2585    
     59000  -157536.68      979.01661     -156557.67      191.4918       194.57937      1067.6708    
     59100  -157468.46      972.17416     -156496.29      191.47513      194.56631      1068.083     
     59200  -157414.57      981.07127     -156433.5       191.45608      194.55331      1068.4952    
     59300  -157351.17      979.82393     -156371.34      191.44055      194.54259      1068.9075    
     59400  -157288.32      977.79196     -156310.53      191.42359      194.53099      1069.3197    
     59500  -157224.83      977.41914     -156247.41      191.4058       194.51855      1069.7319    
     59600  -157169.04      983.4176      -156185.62      191.39181      194.50744      1070.1441    
     59700  -157100.79      974.23987     -156126.55      191.3752       194.49496      1070.5564    
     59800  -157043.64      980.00698     -156063.63      191.35672      194.48201      1070.9686    
     59900  -156979.82      978.3903      -156001.43      191.3398       194.47093      1071.3808    
     60000  -156917.15      977.52743     -155939.62      191.32043      194.45915      1071.793     
     60100  -156853.92      977.87592     -155876.05      191.30233      194.44781      1072.2053    
     60200  -156795.82      982.79812     -155813.02      191.28679      194.43827      1072.6175    
     60300  -156730.98      979.75136     -155751.23      191.2678       194.42653      1073.0297    
     60400  -156668.58      980.28761     -155688.3       191.24835      194.41404      1073.442     
     60500  -156606.26      980.027       -155626.23      191.23132      194.40225      1073.8542    
     60600  -156539.61      975.41162     -155564.2       191.21317      194.38945      1074.2664    
     60700  -156473.25      974.28561     -155498.97      191.19629      194.37634      1074.6786    
     60800  -156417.38      981.82336     -155435.55      191.1823       194.36444      1075.0909    
     60900  -156350.05      976.33602     -155373.71      191.16622      194.35138      1075.5031    
     61000  -156288.68      980.03254     -155308.65      191.14911      194.33803      1075.9153    
     61100  -156221.89      975.99362     -155245.9       191.13356      194.32633      1076.3276    
     61200  -156169.1       985.29006     -155183.81      191.11491      194.31285      1076.7398    
     61300  -156099.79      982.15702     -155117.64      191.09681      194.29899      1077.152     
     61400  -156030.53      977.64221     -155052.89      191.08148      194.28565      1077.5642    
     61500  -155967.23      977.70427     -154989.53      191.0647       194.27141      1077.9765    
     61600  -155907.36      982.79995     -154924.56      191.04827      194.25641      1078.3887    
     61700  -155842.26      981.77068     -154860.49      191.03303      194.24218      1078.8009    
     61800  -155778.31      981.14665     -154797.16      191.01528      194.22785      1079.2132    
     61900  -155712.8       980.76143     -154732.04      190.99898      194.21507      1079.6254    
     62000  -155649.85      982.59177     -154667.25      190.98304      194.20293      1080.0376    
     62100  -155580.58      978.48748     -154602.1       190.96392      194.18969      1080.4498    
     62200  -155510.17      975.06692     -154535.1       190.9469       194.17841      1080.8621    
     62300  -155444.03      974.07748     -154469.96      190.92958      194.16746      1081.2743    
     62400  -155379.44      977.57874     -154401.86      190.91116      194.15562      1081.6865    
     62500  -155316.3       980.6786      -154335.62      190.89441      194.14425      1082.0988    
     62600  -155245.52      974.9273      -154270.59      190.87579      194.13151      1082.511     
     62700  -155185.27      981.18708     -154204.08      190.85666      194.11738      1082.9232    
     62800  -155120.02      982.08872     -154137.93      190.83929      194.10338      1083.3354    
     62900  -155050.11      978.52025     -154071.59      190.82321      194.08941      1083.7477    
     63000  -154985.91      981.44907     -154004.46      190.80723      194.0754       1084.1599    
     63100  -154916.6       978.16588     -153938.43      190.79068      194.06106      1084.5721    
     63200  -154848.41      977.97771     -153870.43      190.77364      194.04663      1084.9843    
     63300  -154782.74      979.78124     -153802.96      190.75652      194.03262      1085.3966    
     63400  -154715.45      980.63885     -153734.81      190.73723      194.01881      1085.8088    
     63500  -154648.99      981.97854     -153667.01      190.71983      194.00681      1086.221     
     63600  -154577.32      977.3375      -153599.98      190.70198      193.99383      1086.6333    
     63700  -154515.32      983.75641     -153531.57      190.68458      193.9803       1087.0455    
     63800  -154443.11      980.02454     -153463.08      190.66825      193.9677       1087.4577    
     63900  -154374.41      980.33251     -153394.08      190.64829      193.95367      1087.8699    
     64000  -154309.8       984.52116     -153325.28      190.62982      193.94032      1088.2822    
     64100  -154240.8       985.36819     -153255.43      190.61145      193.92649      1088.6944    
     64200  -154159.17      974.46895     -153184.7       190.59101      193.9111       1089.1066    
     64300  -154097.56      982.61705     -153114.95      190.57548      193.89793      1089.5189    
     64400  -154023.46      979.06259     -153044.4       190.558        193.88453      1089.9311    
     64500  -153951.27      977.23726     -152974.03      190.5397       193.87183      1090.3433    
     64600  -153888.32      983.90596     -152904.42      190.52143      193.86042      1090.7555    
     64700  -153808.88      976.31408     -152832.57      190.49913      193.84881      1091.1678    
     64800  -153749.1       987.18272     -152761.91      190.47944      193.83888      1091.58      
     64900  -153672.89      981.92594     -152690.97      190.45939      193.82768      1091.9922    
     65000  -153603.55      984.98973     -152618.56      190.44019      193.81551      1092.4045    
     65100  -153532.26      986.02155     -152546.24      190.42204      193.80251      1092.8167    
     65200  -153455.22      980.82482     -152474.39      190.40155      193.78784      1093.2289    
     65300  -153383.51      983.19088     -152400.32      190.38397      193.77516      1093.6411    
     65400  -153307.64      980.31626     -152327.33      190.36387      193.76075      1094.0534    
     65500  -153231.65      976.79515     -152254.85      190.34508      193.74609      1094.4656    
     65600  -153157.57      975.51667     -152182.05      190.32913      193.73242      1094.8778    
     65700  -153087.17      979.13138     -152108.04      190.31051      193.71799      1095.29      
     65800  -153016.93      983.32339     -152033.61      190.2923       193.70507      1095.7023    
     65900  -152941.51      980.16455     -151961.35      190.27337      193.69239      1096.1145    
     66000  -152865.96      979.72153     -151886.24      190.25432      193.67902      1096.5267    
     66100  -152800.41      990.1646      -151810.25      190.23703      193.66529      1096.939     
     66200  -152716.09      981.10227     -151734.99      190.21861      193.65003      1097.3512    
     66300  -152644.1       985.28792     -151658.81      190.20008      193.63375      1097.7634    
     66400  -152562.58      978.97445     -151583.6       190.18255      193.61778      1098.1756    
     66500  -152485.94      978.20229     -151507.74      190.16497      193.60199      1098.5879    
     66600  -152411.16      979.26733     -151431.89      190.14749      193.58653      1099.0001    
     66700  -152337.53      981.0854      -151356.45      190.13129      193.57213      1099.4123    
     66800  -152260.42      981.43026     -151278.99      190.11224      193.5577       1099.8246    
     66900  -152187.23      985.60016     -151201.63      190.09153      193.54421      1100.2368    
     67000  -152104.07      981.4777      -151122.59      190.07204      193.53164      1100.649     
     67100  -152028.52      984.21782     -151044.3       190.0517       193.51849      1101.0612    
     67200  -151944.22      978.45704     -150965.76      190.03298      193.50577      1101.4735    
     67300  -151866.88      979.9967      -150886.89      190.0156       193.49307      1101.8857    
     67400  -151790.87      982.70378     -150808.17      189.99656      193.47901      1102.2979    
     67500  -151706.74      978.28996     -150728.45      189.97778      193.46438      1102.7102    
     67600  -151634.72      984.82243     -150649.9       189.95808      193.4487       1103.1224    
     67700  -151553.66      982.02652     -150571.63      189.93982      193.43454      1103.5346    
     67800  -151469.75      977.35556     -150492.4       189.91992      193.42092      1103.9468    
     67900  -151393.92      982.50481     -150411.42      189.8996       193.40816      1104.3591    
     68000  -151315.59      983.47089     -150332.12      189.87945      193.39616      1104.7713    
     68100  -151231.48      982.29873     -150249.19      189.85817      193.38403      1105.1835    
     68200  -151144.83      979.67715     -150165.16      189.83863      193.37235      1105.5958    
     68300  -151069.87      986.52769     -150083.35      189.81844      193.35931      1106.008     
     68400  -150981.75      980.30398     -150001.44      189.79986      193.3459       1106.4202    
     68500  -150904.23      984.35132     -149919.88      189.78068      193.33178      1106.8324    
     68600  -150823.39      985.89952     -149837.49      189.76236      193.31816      1107.2447    
     68700  -150741.19      986.74368     -149754.45      189.74393      193.30452      1107.6569    
     68800  -150655.37      984.72152     -149670.65      189.72364      193.29003      1108.0691    
     68900  -150576.47      990.57456     -149585.9       189.70351      193.27615      1108.4813    
     69000  -150489.1       986.6879      -149502.42      189.68387      193.26359      1108.8936    
     69100  -150404.7       988.2344      -149416.46      189.66353      193.25134      1109.3058    
     69200  -150315.48      986.34076     -149329.14      189.64352      193.23879      1109.718     
     69300  -150221.25      978.51382     -149242.74      189.62443      193.22611      1110.1303    
     69400  -150144.08      988.29709     -149155.79      189.605        193.21238      1110.5425    
     69500  -150051.49      982.20067     -149069.29      189.58632      193.1984       1110.9547    
     69600  -149965.15      986.47306     -148978.67      189.56826      193.18465      1111.3669    
     69700  -149879.28      988.41395     -148890.87      189.54905      193.17057      1111.7792    
     69800  -149793.31      991.56212     -148801.75      189.5292       193.1566       1112.1914    
     69900  -149706.14      991.42404     -148714.72      189.50989      193.1429       1112.6036    
     70000  -149622.66      995.23276     -148627.43      189.4916       193.12901      1113.0159    
     70100  -149534.66      994.19372     -148540.47      189.47282      193.11449      1113.4281    
     70200  -149443.36      989.89994     -148453.46      189.45451      193.10056      1113.8403    
     70300  -149360.02      994.73138     -148365.29      189.43605      193.08767      1114.2525    
     70400  -149268.38      992.57026     -148275.81      189.41544      193.07382      1114.6648    
     70500  -149175.06      990.29037     -148184.77      189.39524      193.05949      1115.077     
     70600  -149088.47      992.35965     -148096.11      189.37581      193.04511      1115.4892    
     70700  -148994.38      989.03933     -148005.34      189.35677      193.03028      1115.9015    
     70800  -148902.81      988.16058     -147914.65      189.33979      193.01637      1116.3137    
     70900  -148816.35      993.87466     -147822.48      189.32158      193.00245      1116.7259    
     71000  -148728.88      999.11044     -147729.77      189.3023       192.98902      1117.1381    
     71100  -148637.1       1001.7805     -147635.32      189.28275      192.97636      1117.5504    
     71200  -148539.97      1002.1167     -147537.85      189.26179      192.96326      1117.9626    
     71300  -148445.29      1001.3054     -147443.98      189.24162      192.95042      1118.3748    
     71400  -148347.88      992.38417     -147355.5       189.22234      192.93788      1118.7871    
     71500  -148251.99      994.92838     -147257.06      189.20299      192.92517      1119.1993    
     71600  -148159.63      1000.7369     -147158.9       189.1839       192.91181      1119.6115    
     71700  -148064.28      1000.1358     -147064.14      189.16475      192.89761      1120.0237    
     71800  -147970.27      1003.0416     -146967.22      189.14528      192.88301      1120.436     
     71900  -147875.13      1003.5437     -146871.58      189.12508      192.86853      1120.8482    
     72000  -147783.73      1006.9035     -146776.82      189.10698      192.85486      1121.2604    
     72100  -147691.03      1009.836      -146681.2       189.08865      192.84076      1121.6726    
     72200  -147586.72      1003.1423     -146583.58      189.0697       192.82631      1122.0849    
     72300  -147495.32      1010.8945     -146484.42      189.05221      192.81273      1122.4971    
     72400  -147394.41      1008.2289     -146386.18      189.03331      192.79863      1122.9093    
     72500  -147295.71      1009.9627     -146285.75      189.01496      192.78492      1123.3216    
     72600  -147200.81      1012.4885     -146188.32      188.99694      192.77158      1123.7338    
     72700  -147094.26      1006.8039     -146087.45      188.97746      192.75737      1124.146     
     72800  -147000.12      1015.3985     -145984.72      188.95787      192.74308      1124.5582    
     72900  -146905.97      1022.6343     -145883.34      188.93742      192.72875      1124.9705    
     73000  -146800.07      1016.1249     -145783.95      188.91799      192.71523      1125.3827    
     73100  -146704.1       1017.6206     -145686.48      188.89865      192.7018       1125.7949    
     73200  -146607.76      1024.5461     -145583.21      188.87901      192.68851      1126.2072    
     73300  -146505.56      1028.6015     -145476.96      188.86035      192.67628      1126.6194    
     73400  -146403         1034.7831     -145368.22      188.84042      192.66345      1127.0316    
     73500  -146295.32      1031.8428     -145263.48      188.82093      192.65124      1127.4438    
     73600  -146203.33      1045.3938     -145157.94      188.80221      192.63968      1127.8561    
     73700  -146087.83      1037.51       -145050.32      188.78134      192.62696      1128.2683    
     73800  -145990.59      1046.8344     -144943.76      188.76113      192.61402      1128.6805    
     73900  -145894.48      1049.4147     -144845.07      188.74154      192.60061      1129.0928    
     74000  -145785.75      1045.2717     -144740.48      188.72142      192.5865       1129.505     
     74100  -145681.93      1053.7465     -144628.19      188.70273      192.57287      1129.9172    
     74200  -145581.14      1060.2979     -144520.84      188.68443      192.55871      1130.3294    
     74300  -145461.47      1045.5228     -144415.95      188.66571      192.5443       1130.7417    
     74400  -145362.1       1058.5102     -144303.59      188.64747      192.53059      1131.1539    
     74500  -145256.71      1057.6564     -144199.06      188.62777      192.51653      1131.5661    
     74600  -145142.69      1059.6725     -144083.02      188.60849      192.50253      1131.9784    
     74700  -145045.59      1073.6713     -143971.92      188.59019      192.48884      1132.3906    
     74800  -144925.68      1075.2        -143850.48      188.57118      192.47498      1132.8028    
     74900  -144823.46      1085.3496     -143738.11      188.55251      192.46161      1133.215     
     75000  -144716.89      1095.6833     -143621.2       188.53351      192.44806      1133.6273    
     75100  -144595.34      1087.2692     -143508.07      188.51416      192.43479      1134.0395    
     75200  -144482.25      1101.2545     -143380.99      188.49429      192.42171      1134.4517    
     75300  -144362.71      1096.7905     -143265.92      188.47472      192.40913      1134.8639    
     75400  -144257.88      1108.6278     -143149.25      188.45464      192.39663      1135.2762    
     75500  -144139.35      1111.637      -143027.72      188.43432      192.38405      1135.6884    
     75600  -144024.61      1114.0694     -142910.54      188.41397      192.37138      1136.1006    
     75700  -143907.18      1119.0948     -142788.08      188.39365      192.35838      1136.5129    
     75800  -143799.39      1134.4046     -142664.99      188.37417      192.3453       1136.9251    
     75900  -143684.58      1135.1475     -142549.44      188.35489      192.33205      1137.3373    
     76000  -143586.32      1157.6943     -142428.62      188.33531      192.31896      1137.7495    
     76100  -143605.12      1281.5615     -142323.56      188.31595      192.30613      1138.1618    
     76200  -143963.79      1690.1216     -142273.66      188.29828      192.29328      1138.574     
     76300  -144692.75      2228.2558     -142464.49      188.28414      192.28251      1138.9862    
     76400  -145891.87      2855.3937     -143036.48      188.27371      192.27623      1139.3985    
     76500  -147333.07      3203.2763     -144129.79      188.27361      192.27723      1139.8107    
     76600  -148674.78      3205.0019     -145469.78      188.27234      192.27985      1140.2229    
     76700  -149894.31      3041.1339     -146853.18      188.26652      192.27921      1140.6351    
     76800  -151026.94      2835.1881     -148191.75      188.26154      192.27905      1141.0474    
     76900  -152040.5       2616.9561     -149423.55      188.26194      192.28263      1141.4596    
     77000  -152981.82      2442.2321     -150539.58      188.26386      192.28675      1141.8718    
     77100  -153857.59      2292.2402     -151565.35      188.26535      192.2893       1142.2841    
     77200  -154689.68      2172.7953     -152516.88      188.27029      192.29229      1142.6963    
     77300  -155473.1       2062.8432     -153410.26      188.27901      192.29698      1143.1085    
     77400  -156220.08      1974.781      -154245.3       188.28832      192.30219      1143.5207    
     77500  -156935.5       1899.3628     -155036.14      188.2976       192.30835      1143.933     
     77600  -157617.5       1830.2368     -155787.26      188.30816      192.31624      1144.3452    
     77700  -158278.6       1775.1315     -156503.47      188.31849      192.32479      1144.7574    
     77800  -158914.41      1724.6091     -157189.8       188.32902      192.33382      1145.1696    
     77900  -159531.28      1680.4365     -157850.85      188.3415       192.34367      1145.5819    
     78000  -160126.01      1638.1604     -158487.84      188.35509      192.35343      1145.9941    
     78100  -160697.83      1597.4044     -159100.42      188.37081      192.36384      1146.4063    
     78200  -161252.1       1561.0374     -159691.06      188.38748      192.37496      1146.8186    
     78300  -161784.72      1525.5183     -160259.2       188.40418      192.3869       1147.2308    
     78400  -162296.03      1490.8582     -160805.17      188.42214      192.40029      1147.643     
     78500  -162790.53      1459.6755     -161330.86      188.44         192.41378      1148.0552    
     78600  -163269.94      1432.6926     -161837.24      188.45813      192.42682      1148.4675    
     78700  -163737.07      1409.4197     -162327.65      188.47707      192.4394       1148.8797    
     78800  -164189.93      1387.2727     -162802.66      188.49532      192.45165      1149.2919    
     78900  -164629.81      1366.2999     -163263.51      188.51368      192.46445      1149.7042    
     79000  -165056.93      1346.2969     -163710.63      188.53225      192.47787      1150.1164    
     79100  -165472.29      1327.8094     -164144.48      188.55096      192.4916       1150.5286    
     79200  -165876.76      1310.7038     -164566.06      188.56983      192.50575      1150.9408    
     79300  -166272.93      1296.2278     -164976.7       188.58815      192.52         1151.3531    
     79400  -166659.49      1282.232      -165377.26      188.60584      192.53425      1151.7653    
     79500  -167038.39      1269.9599     -165768.43      188.62366      192.54866      1152.1775    
     79600  -167409.87      1258.5201     -166151.35      188.64091      192.56288      1152.5898    
     79700  -167772.96      1246.8475     -166526.11      188.65772      192.57727      1153.002     
     79800  -168129.46      1236.5168     -166892.95      188.6746       192.59206      1153.4142    
     79900  -168481.01      1228.362      -167252.64      188.69111      192.60661      1153.8264    
     80000  -168825.16      1219.0818     -167606.08      188.7074       192.62105      1154.2387    
     80100  -169165.23      1211.7444     -167953.48      188.72371      192.63535      1154.6509    
     80200  -169498.24      1203.381      -168294.86      188.73944      192.64913      1155.0631    
     80300  -169826.67      1196.3665     -168630.3       188.75488      192.66255      1155.4754    
     80400  -170148.98      1188.6441     -168960.34      188.77031      192.67582      1155.8876    
     80500  -170468.1       1183.0381     -169285.06      188.78543      192.68871      1156.2998    
     80600  -170780.69      1175.9468     -169604.75      188.80037      192.70133      1156.712     
     80700  -171089.4       1169.8343     -169919.57      188.81521      192.71362      1157.1243    
     80800  -171394.48      1164.7513     -170229.73      188.82984      192.7255       1157.5365    
     80900  -171694.58      1158.8952     -170535.68      188.84463      192.73724      1157.9487    
     81000  -171992.28      1154.531      -170837.75      188.85942      192.74865      1158.3609    
     81100  -172285.34      1149.391      -171135.95      188.87425      192.75968      1158.7732    
     81200  -172575.17      1144.8675     -171430.31      188.88917      192.7707       1159.1854    
     81300  -172862.8       1141.5956     -171721.2       188.90395      192.78163      1159.5976    
     81400  -173146.32      1137.2201     -172009.1       188.9185       192.79245      1160.0099    
     81500  -173428.06      1134.0271     -172294.04      188.9328       192.80332      1160.4221    
     81600  -173706.74      1130.5831     -172576.16      188.94675      192.81425      1160.8343    
     81700  -173984.32      1128.2493     -172856.07      188.96044      192.82522      1161.2465    
     81800  -174258.75      1125.1746     -173133.57      188.97402      192.83615      1161.6588    
     81900  -174531.48      1122.7442     -173408.73      188.98725      192.84703      1162.071     
     82000  -174801.46      1119.8882     -173681.57      189.00015      192.85791      1162.4832    
     82100  -175069.65      1117.2856     -173952.36      189.01283      192.86884      1162.8955    
     82200  -175335.68      1114.6385     -174221.04      189.02525      192.87976      1163.3077    
     82300  -175598.97      1111.2846     -174487.68      189.03737      192.89065      1163.7199    
     82400  -175862.04      1109.636      -174752.41      189.04927      192.90164      1164.1321    
     82500  -176122.35      1106.9955     -175015.36      189.06093      192.91267      1164.5444    
     82600  -176381.96      1105.3065     -175276.65      189.07242      192.92367      1164.9566    
     82700  -176639.79      1103.5192     -175536.27      189.0838       192.93464      1165.3688    
     82800  -176896.45      1102.0763     -175794.37      189.09506      192.94552      1165.7811    
     82900  -177150.37      1099.4663     -176050.9       189.10618      192.95633      1166.1933    
     83000  -177403.11      1097.245      -176305.86      189.11709      192.96701      1166.6055    
     83100  -177655.51      1096.2613     -176559.25      189.12793      192.97761      1167.0177    
     83200  -177905.94      1094.8171     -176811.12      189.13864      192.98808      1167.43      
     83300  -178153.81      1092.3043     -177061.5       189.14916      192.99841      1167.8422    
     83400  -178392.9       1084.709      -177308.19      189.15963      193.00865      1168.2544    
     83500  -178624.34      1076.8452     -177547.5       189.1704       193.01891      1168.6667    
     83600  -178849.26      1069.8643     -177779.4       189.18123      193.02903      1169.0789    
     83700  -179069.03      1064.3842     -178004.65      189.19221      193.03904      1169.4911    
     83800  -179282.4       1058.5948     -178223.81      189.20333      193.04899      1169.9033    
     83900  -179489.4       1052.4033     -178437         189.21429      193.05873      1170.3156    
     84000  -179691.18      1047.1976     -178643.99      189.22539      193.06852      1170.7278    
     84100  -179886.51      1041.7497     -178844.76      189.23645      193.07826      1171.14      
     84200  -180075.7       1036.4701     -179039.23      189.24762      193.08805      1171.5522    
     84300  -180259.13      1031.5216     -179227.61      189.25902      193.09795      1171.9645    
     84400  -180436.74      1026.7842     -179409.95      189.2702       193.10787      1172.3767    
     84500  -180608.37      1022.1326     -179586.24      189.28131      193.11792      1172.7889    
     84600  -180773.82      1017.3731     -179756.45      189.2925       193.12811      1173.2012    
     84700  -180932.6       1012.4718     -179920.13      189.30368      193.13847      1173.6134    
     84800  -181084.09      1007.425      -180076.67      189.31519      193.14921      1174.0256    
     84900  -181229.47      1003.6771     -180225.79      189.32661      193.16025      1174.4378    
     85000  -181367.93      999.57435     -180368.35      189.33765      193.1715       1174.8501    
     85100  -181499.99      996.04179     -180503.95      189.34888      193.18326      1175.2623    
     85200  -181624.88      992.24426     -180632.64      189.36007      193.19521      1175.6745    
     85300  -181742.56      988.57347     -180753.99      189.37127      193.20741      1176.0868    
     85400  -181853.48      985.8682      -180867.61      189.3827       193.21987      1176.499     
     85500  -181955.6       981.94914     -180973.65      189.39419      193.23252      1176.9112    
     85600  -182047.8       977.8543      -181069.94      189.40577      193.24554      1177.3234    
     85700  -182129.86      975.1694      -181154.69      189.41761      193.25892      1177.7357    
     85800  -182205.16      976.15406     -181229.01      189.42959      193.27261      1178.1479    
     85900  -182272.7       975.95972     -181296.74      189.44159      193.28686      1178.5601    
     86000  -182336.46      976.15521     -181360.3       189.45263      193.30175      1178.9724    
     86100  -182391.83      972.00297     -181419.83      189.4631       193.31687      1179.3846    
     86200  -182438.07      968.81882     -181469.26      189.47338      193.33244      1179.7968    
     86300  -182476.17      970.9232      -181505.24      189.48333      193.34862      1180.209     
     86400  -182505.84      973.74226     -181532.1       189.49345      193.36519      1180.6213    
     86500  -182527.02      971.77924     -181555.25      189.50425      193.38194      1181.0335    
     86600  -182537.37      966.76931     -181570.6       189.51554      193.39886      1181.4457    
     86700  -182542.59      971.44715     -181571.15      189.52605      193.41594      1181.8579    
     86800  -182539.09      974.90777     -181564.18      189.53571      193.4329       1182.2702    
     86900  -182527.31      971.54903     -181555.76      189.54426      193.44945      1182.6824    
     87000  -182506.35      966.36734     -181539.98      189.55242      193.46614      1183.0946    
     87100  -182474.41      966.10919     -181508.3       189.55972      193.48342      1183.5069    
     87200  -182431.32      969.91102     -181461.41      189.5658       193.50071      1183.9191    
     87300  -182372.23      967.17184     -181405.06      189.57128      193.51842      1184.3313    
     87400  -182309.82      970.79073     -181339.03      189.57589      193.53663      1184.7435    
     87500  -182245.31      973.62598     -181271.69      189.57701      193.55544      1185.1558    
     87600  -182173.81      967.23867     -181206.57      189.57518      193.57837      1185.568     
     87700  -182100.94      967.16669     -181133.77      189.56914      193.60663      1185.9802    
     87800  -182034.5       977.86367     -181056.64      189.55549      193.63694      1186.3925    
     87900  -181974.31      982.60217     -180991.71      189.53914      193.66814      1186.8047    
     88000  -181933.59      989.16046     -180944.43      189.52229      193.69803      1187.2169    
     88100  -181907.99      984.62913     -180923.36      189.50622      193.72581      1187.6291    
     88200  -181897.33      977.49757     -180919.84      189.49068      193.74958      1188.0414    
     88300  -181890.56      973.33534     -180917.22      189.47649      193.76897      1188.4536    
     88400  -181906.37      989.18992     -180917.18      189.46789      193.78858      1188.8658    
     88500  -181889.34      958.90637     -180930.43      189.46328      193.80737      1189.2781    
     88600  -181884.65      968.22624     -180916.43      189.46243      193.82268      1189.6903    
     88700  -181860.42      973.98917     -180886.43      189.4691       193.83437      1190.1025    
     88800  -181841.49      986.57896     -180854.91      189.4806       193.83846      1190.5147    
     88900  -181822.58      984.37941     -180838.2       189.50298      193.8363       1190.927     
     89000  -181786.4       957.74541     -180828.65      189.53403      193.83509      1191.3392    
     89100  -181758.1       967.78991     -180790.31      189.5599       193.83291      1191.7514    
     89200  -181725.59      985.42475     -180740.16      189.58394      193.82912      1192.1637    
     89300  -181704.82      993.64556     -180711.18      189.61028      193.8285       1192.5759    
     89400  -181699.23      979.91424     -180719.31      189.63999      193.83064      1192.9881    
     89500  -181691.17      955.39716     -180735.77      189.67232      193.83228      1193.4003    
     89600  -181678.84      963.93908     -180714.9       189.70745      193.83325      1193.8126    
     89700  -181658.05      987.96524     -180670.09      189.74544      193.8295       1194.2248    
     89800  -181653.13      1001.3711     -180651.76      189.78018      193.82905      1194.637     
     89900  -181664.39      985.23376     -180679.16      189.81378      193.83496      1195.0492    
     90000  -181682.23      966.1941      -180716.03      189.84952      193.84155      1195.4615    
     90100  -181697.6       964.22653     -180733.37      189.89059      193.85136      1195.8737    
     90200  -181699.83      972.45384     -180727.38      189.92773      193.85831      1196.2859    
     90300  -181698.93      981.96109     -180716.97      189.96482      193.86395      1196.6982    
     90400  -181695.09      977.10097     -180717.99      190.00196      193.87174      1197.1104    
     90500  -181678.32      962.17567     -180716.15      190.04104      193.88198      1197.5226    
     90600  -181686.47      989.82491     -180696.65      190.0854       193.89278      1197.9348    
     90700  -181672.83      978.92451     -180693.9       190.13424      193.90618      1198.3471    
     90800  -181656.37      958.67002     -180697.7       190.17509      193.91967      1198.7593    
     90900  -181641.47      971.51956     -180669.95      190.21216      193.93471      1199.1715    
     91000  -181623.25      991.3538      -180631.9       190.24185      193.94786      1199.5838    
     91100  -181606.03      987.13108     -180618.9       190.27029      193.96187      1199.996     
     91200  -181611.51      981.02129     -180630.48      190.29749      193.97867      1200.4082    
     91300  -181609.31      959.98075     -180649.33      190.32611      193.99408      1200.8204    
     91400  -181608.1       967.78245     -180640.31      190.35441      194.00555      1201.2327    
     91500  -181612.69      995.87565     -180616.81      190.38706      194.01888      1201.6449    
     91600  -181613.78      986.19106     -180627.59      190.42086      194.02388      1202.0571    
     91700  -181607.26      953.25352     -180654.01      190.45464      194.03285      1202.4694    
     91800  -181601.35      951.77302     -180649.58      190.49244      194.04334      1202.8816    
     91900  -181590         979.98454     -180610.01      190.53232      194.05023      1203.2938    
     92000  -181573.75      1001.7451     -180572         190.57092      194.0586       1203.706     
     92100  -181571.14      988.79788     -180582.35      190.60032      194.06087      1204.1183    
     92200  -181568.8       952.08317     -180616.72      190.63091      194.06559      1204.5305    
     92300  -181566.09      953.16872     -180612.92      190.67006      194.07252      1204.9427    
     92400  -181561.1       991.17947     -180569.92      190.71042      194.07372      1205.355     
     92500  -181551.73      1007.2441     -180544.49      190.74214      194.0696       1205.7672    
     92600  -181561.87      985.64555     -180576.22      190.77924      194.06689      1206.1794    
     92700  -181550.2       963.92854     -180586.28      190.82236      194.0668       1206.5916    
     92800  -181544.41      935.68679     -180608.72      190.86612      194.06429      1207.0039    
     92900  -181541.36      975.86496     -180565.49      190.90489      194.06372      1207.4161    
     93000  -181533.13      1013.1025     -180520.02      190.94386      194.0637       1207.8283    
     93100  -181538.23      1000.2469     -180537.98      190.99173      194.06179      1208.2405    
     93200  -181545.35      954.7705      -180590.58      191.03998      194.05988      1208.6528    
     93300  -181542.56      937.40945     -180605.15      191.08779      194.06038      1209.065     
     93400  -181528.97      977.49595     -180551.47      191.13583      194.0596       1209.4772    
     93500  -181507.29      1010.2573     -180497.03      191.17997      194.05721      1209.8895    
     93600  -181504.19      996.26502     -180507.93      191.22178      194.05823      1210.3017    
     93700  -181513.49      959.86726     -180553.62      191.25989      194.06447      1210.7139    
     93800  -181510.45      943.77434     -180566.67      191.29128      194.07449      1211.1261    
     93900  -181511.35      981.70885     -180529.65      191.31559      194.08344      1211.5384    
     94000  -181500.01      1003.0712     -180496.93      191.33886      194.09372      1211.9506    
     94100  -181490.08      1000.5903     -180489.49      191.36381      194.10522      1212.3628    
     94200  -181498.74      972.25928     -180526.48      191.39233      194.11631      1212.7751    
     94300  -181501.03      940.02963     -180561         191.4222       194.12696      1213.1873    
     94400  -181492.76      958.57543     -180534.19      191.44803      194.13847      1213.5995    
     94500  -181470.36      993.43472     -180476.92      191.47192      194.14717      1214.0117    
     94600  -181472.43      1014.1658     -180458.26      191.49398      194.15724      1214.424     
     94700  -181492.56      984.09958     -180508.46      191.51593      194.16218      1214.8362    
     94800  -181510.13      946.19528     -180563.93      191.54284      194.16891      1215.2484    
     94900  -181510.68      947.74336     -180562.94      191.57346      194.17592      1215.6607    
     95000  -181504.46      992.2699      -180512.19      191.59782      194.18309      1216.0729    
     95100  -181487.33      1006.4245     -180480.91      191.61681      194.19261      1216.4851    
     95200  -181487.32      989.26935     -180498.05      191.63552      194.20283      1216.8973    
     95300  -181503.03      953.45523     -180549.57      191.6487       194.20997      1217.3096    
     95400  -181498.98      942.76167     -180556.22      191.66655      194.21719      1217.7218    
     95500  -181487.29      981.16029     -180506.13      191.68045      194.22053      1218.134     
     95600  -181472.01      1009.7626     -180462.25      191.69344      194.22465      1218.5463    
     95700  -181473.26      994.44024     -180478.82      191.70856      194.23043      1218.9585    
     95800  -181468.91      948.60334     -180520.31      191.72523      194.23285      1219.3707    
     95900  -181466.84      948.01082     -180518.83      191.74429      194.23896      1219.7829    
     96000  -181452.98      975.78547     -180477.19      191.76095      194.24537      1220.1952    
     96100  -181435.96      996.29413     -180439.67      191.76572      194.25391      1220.6074    
     96200  -181439.46      992.72317     -180446.74      191.76316      194.26752      1221.0196    
     96300  -181452.65      964.38728     -180488.26      191.75609      194.27932      1221.4318    
     96400  -181460.17      955.17626     -180505         191.7521       194.28958      1221.8441    
     96500  -181455.52      974.61399     -180480.9       191.74872      194.29382      1222.2563    
     96600  -181448.27      993.13697     -180455.13      191.7395       194.29619      1222.6685    
     96700  -181440.14      981.97594     -180458.16      191.73157      194.30015      1223.0808    
     96800  -181441.71      968.34889     -180473.36      191.72592      194.30771      1223.493     
     96900  -181447.28      970.25837     -180477.02      191.71994      194.31705      1223.9052    
     97000  -181437.15      967.95523     -180469.19      191.71384      194.32283      1224.3174    
     97100  -181431.2       977.25245     -180453.94      191.71107      194.32644      1224.7297    
     97200  -181423.39      983.01455     -180440.37      191.71909      194.33597      1225.1419    
     97300  -181418.04      978.84892     -180439.19      191.72393      194.34203      1225.5541    
     97400  -181417.28      970.31444     -180446.97      191.72288      194.3465       1225.9664    
     97500  -181414.02      970.72812     -180443.29      191.72149      194.35433      1226.3786    
     97600  -181410.2       984.42975     -180425.78      191.71681      194.35924      1226.7908    
     97700  -181399.39      987.0587      -180412.33      191.71216      194.36522      1227.203     
     97800  -181392.04      977.8552      -180414.19      191.70837      194.37096      1227.6153    
     97900  -181398.66      976.19858     -180422.46      191.7023       194.37582      1228.0275    
     98000  -181400.17      971.10823     -180429.07      191.69622      194.38458      1228.4397    
     98100  -181401.49      972.03689     -180429.45      191.6895       194.39031      1228.852     
     98200  -181393.52      974.20528     -180419.32      191.68757      194.3967       1229.2642    
     98300  -181387.76      982.16078     -180405.6       191.68534      194.40417      1229.6764    
     98400  -181390.99      987.58415     -180403.4       191.68068      194.41131      1230.0886    
     98500  -181399.32      977.7832      -180421.54      191.67845      194.42325      1230.5009    
     98600  -181400.06      960.87527     -180439.18      191.67702      194.43125      1230.9131    
     98700  -181398.14      966.70077     -180431.44      191.67777      194.43987      1231.3253    
     98800  -181382.85      981.00428     -180401.84      191.68202      194.44986      1231.7375    
     98900  -181372.81      989.70821     -180383.11      191.68882      194.45683      1232.1498    
     99000  -181368.11      980.04937     -180388.06      191.7039       194.46789      1232.562     
     99100  -181377.18      970.21231     -180406.97      191.71849      194.47621      1232.9742    
     99200  -181378.16      960.7058      -180417.46      191.72767      194.48476      1233.3865    
     99300  -181375.53      973.22612     -180402.31      191.73352      194.49245      1233.7987    
     99400  -181363.61      984.02013     -180379.59      191.74037      194.49938      1234.2109    
     99500  -181362.35      983.60953     -180378.74      191.74953      194.5064       1234.6231    
     99600  -181361.54      967.62688     -180393.91      191.75929      194.51372      1235.0354    
     99700  -181365.15      973.73172     -180391.42      191.76784      194.52529      1235.4476    
     99800  -181363.44      975.25193     -180388.19      191.77213      194.5365       1235.8598    
     99900  -181353.71      973.72376     -180379.99      191.77644      194.54488      1236.2721    
    100000  -181342.78      975.62228     -180367.16      191.78251      194.55577      1236.6843    
Loop time of 5598.35 on 10 procs for 100000 steps with 25160 atoms

Performance: 1.543 ns/day, 15.551 hours/ns, 17.862 timesteps/s, 449.418 katom-step/s
90.4% CPU use with 10 MPI tasks x 1 OpenMP threads

MPI task timing breakdown:
Section |  min time  |  avg time  |  max time  |%varavg| %total
---------------------------------------------------------------
Pair    | 2900.7     | 3791.2     | 4733.9     | 809.2 | 67.72
Neigh   | 18.291     | 30.481     | 36.674     | 102.8 |  0.54
Comm    | 429.82     | 1206.6     | 1851.1     |1284.8 | 21.55
Output  | 1.426      | 1.5083     | 1.5832     |   3.9 |  0.03
Modify  | 278.87     | 562.14     | 828.27     | 992.1 | 10.04
Other   |            | 6.36       |            |       |  0.11

Nlocal:           2516 ave        4537 max         533 min
Histogram: 2 0 1 2 1 0 0 0 2 2
Nghost:         3342.3 ave        6121 max         528 min
Histogram: 2 0 3 1 0 0 0 0 1 3
Neighs:              0 ave           0 max           0 min
Histogram: 10 0 0 0 0 0 0 0 0 0

Total # of neighbors = 0
Ave neighs/atom = 0
Neighbor list builds = 988
Dangerous builds = 0
Total wall time: 1:33:19
