LAMMPS (2 Aug 2023 - Update 3)
OMP_NUM_THREADS environment is not set. Defaulting to 1 thread. (src/comm.cpp:98)
  using 1 OpenMP thread(s) per MPI task

# 1------general---------------
units                             metal      #单位为lammps 中的metel 类型
dimension                    3          #模拟的维度 三维
boundary                    p p p      #周期边界条件
atom_style                  atomic   #原子类型自动
atom_modify              map array sort 100 2.0
neighbor                    3.0 bin
neigh_modify            every 1 delay 0 check yes
#2 -----global variable-------定义全局变量，方便统一修改；
variable temperature equal 300
variable tstep equal 0.001
variable pressure equal 0
variable thermalstep equal 100
variable dumpstep equal 1000
variable relaxtime equal 0
variable totaltime equal 100000
variable deformrate equal 5e-3
#3 -------model------------
#box tilt large
read_data     1.lmp
Reading data file ...
  orthogonal box = (-100 -100 -2.1416495) to (100 100 39.081159)
  4 by 3 by 1 MPI processor grid
  reading atoms ...
  1620 atoms
  read_data CPU = 0.996 seconds
group SR type 2 3
600 atoms in group SR
delete_atoms group SR
Deleted 600 atoms, new total = 1020
replicate 1 1 7
Replication is creating a 1x1x7 = 7 times larger system...
  orthogonal box = (-100 -100 -2.1416495) to (100 100 286.41801)
  2 by 2 by 3 MPI processor grid
  7140 atoms
  replicate CPU = 0.660 seconds
write_data h.data
System init for write_data ...
WARNING: Communication cutoff is 0.0. No ghost atoms will be generated. Atoms may get lost. (src/comm_brick.cpp:210)
pair_style hybrid airebo 3.0 airebo 3.0 airebo 3.0 lj/cut 10
pair_coeff * * airebo 1 CH.airebo C NULL NULL
Reading airebo potential file CH.airebo with DATE: 2011-10-25
pair_coeff * * airebo 2 CH.airebo NULL C NULL
Reading airebo potential file CH.airebo with DATE: 2011-10-25
pair_coeff * * airebo 3 CH.airebo NULL NULL C
Reading airebo potential file CH.airebo with DATE: 2011-10-25
pair_coeff 1 2 lj/cut 0.00456 3.431
pair_coeff 1 3 lj/cut 0.00456 3.431
pair_coeff 2 3 lj/cut 0.00456 3.431

# 5------minimize -----------
min_style      sd
minimize       1.0e-4 1.0e-6 100 1000
Neighbor list info ...
  update: every = 1 steps, delay = 0 steps, check = yes
  max neighbors/atom: 2000, page size: 100000
  master list distance cutoff = 13.2
  ghost atom cutoff = 13.2
  binsize = 6.6, bins = 31 31 44
  6 neighbor lists, perpetual/occasional/extra = 6 0 0
  (1) pair airebo, perpetual, skip from (5)
      attributes: full, newton on, ghost
      pair build: skip/ghost
      stencil: none
      bin: none
  (2) pair airebo, perpetual, skip from (5)
      attributes: full, newton on, ghost
      pair build: skip/ghost
      stencil: none
      bin: none
  (3) pair airebo, perpetual, skip from (5)
      attributes: full, newton on, ghost
      pair build: skip/ghost
      stencil: none
      bin: none
  (4) pair lj/cut, perpetual, skip from (6)
      attributes: half, newton on, cut 13
      pair build: skip
      stencil: none
      bin: none
  (5) neighbor class addition, perpetual
      attributes: full, newton on, ghost
      pair build: full/bin/ghost
      stencil: full/ghost/bin/3d
      bin: standard
  (6) neighbor class addition, perpetual
      attributes: half, newton on, cut 13
      pair build: half/bin/atomonly/newton
      stencil: half/bin/3d
      bin: standard
Per MPI rank memory allocation (min/avg/max) = 11.63 | 11.64 | 11.64 Mbytes
   Step          Temp          E_pair         E_mol          TotEng         Press     
         0   0             -52938.365      0             -52938.365     -58.353665    
         1   0             -52938.425      0             -52938.425     -58.244675    
Loop time of 1.17 on 12 procs for 1 steps with 7140 atoms

34.0% CPU use with 12 MPI tasks x 1 OpenMP threads

Minimization stats:
  Stopping criterion = energy tolerance
  Energy initial, next-to-last, final = 
     -52938.3653873454  -52938.3653873454  -52938.4250919274
  Force two-norm initial, final = 3.9060363 0.76228922
  Force max component initial, final = 0.046231127 0.0090219153
  Final line search alpha, max atom move = 1 0.0090219153
  Iterations, force evaluations = 1 2

MPI task timing breakdown:
Section |  min time  |  avg time  |  max time  |%varavg| %total
---------------------------------------------------------------
Pair    | 0.022247   | 0.046965   | 0.088315   |   8.2 |  4.01
Neigh   | 0          | 0          | 0          |   0.0 |  0.00
Comm    | 0.21174    | 0.26108    | 0.33351    |   7.0 | 22.31
Output  | 0          | 0          | 0          |   0.0 |  0.00
Modify  | 0          | 0          | 0          |   0.0 |  0.00
Other   |            | 0.862      |            |       | 73.67

Nlocal:            595 ave         640 max         553 min
Histogram: 3 0 0 0 4 2 0 0 0 3
Nghost:           2435 ave        2477 max        2390 min
Histogram: 3 0 0 0 2 4 0 0 0 3
Neighs:              0 ave           0 max           0 min
Histogram: 12 0 0 0 0 0 0 0 0 0

Total # of neighbors = 0
Ave neighs/atom = 0
Neighbor list builds = 0
Dangerous builds = 0
#6----define computes------
variable nums equal count(all) #计算原子数目
variable toval equal 20.535*20.0413*lz #计算系统总体积，单层石墨烯厚度为0.335nm
variable vol equal ${toval} #体系的初始体积
variable vol equal 118756.179745772 
variable vatom equal v_vol/v_nums #单个原子体积
compute 1 all stress/atom NULL #计算体系中单原子应力
compute xalls all reduce sum c_1[1]
variable xstress equal (c_xalls)/(v_toval*10000)
compute yalls all reduce sum c_1[2]
variable ystress equal (c_yalls)/(v_toval*10000)
compute zalls all reduce sum c_1[3]
variable zstress equal (c_zalls)/(v_toval*10000)
#7---------relaxation-------------------------
timestep ${tstep}
timestep 0.001
velocity all create ${temperature} 231743 units box dist gaussian
velocity all create 300 231743 units box dist gaussian
dump   1 all atom 100 all-cy.lammpstrj
#fix    1 all npt temp 300 300  0.1 aniso 0 0 10 drag 1  #三个方向独立控压
fix  1 all npt temp ${temperature} ${temperature} 0.1 x ${pressure} ${pressure} 10 y ${pressure} ${pressure} 10
fix  1 all npt temp 300 ${temperature} 0.1 x ${pressure} ${pressure} 10 y ${pressure} ${pressure} 10
fix  1 all npt temp 300 300 0.1 x ${pressure} ${pressure} 10 y ${pressure} ${pressure} 10
fix  1 all npt temp 300 300 0.1 x 0 ${pressure} 10 y ${pressure} ${pressure} 10
fix  1 all npt temp 300 300 0.1 x 0 0 10 y ${pressure} ${pressure} 10
fix  1 all npt temp 300 300 0.1 x 0 0 10 y 0 ${pressure} 10
fix  1 all npt temp 300 300 0.1 x 0 0 10 y 0 0 10
compute  2 all pe/atom
compute  pe all reduce sum c_2
variable PE equal "c_pe"
fix    pe all print 100 "${PE} " file PE.txt screen no
thermo  ${thermalstep}
thermo  100
#thermo_style  custom step pe ke etotal lx ly lz
run   ${relaxtime}
run   0
Per MPI rank memory allocation (min/avg/max) = 12.26 | 12.26 | 12.26 Mbytes
   Step          Temp          E_pair         E_mol          TotEng         Press          Volume    
         1   300           -52938.425      0             -52661.589     -32.626584      11542387     
Loop time of 0.0473314 on 12 procs for 0 steps with 7140 atoms

34.5% CPU use with 12 MPI tasks x 1 OpenMP threads

MPI task timing breakdown:
Section |  min time  |  avg time  |  max time  |%varavg| %total
---------------------------------------------------------------
Pair    | 0          | 0          | 0          |   0.0 |  0.00
Neigh   | 0          | 0          | 0          |   0.0 |  0.00
Comm    | 0          | 0          | 0          |   0.0 |  0.00
Output  | 0          | 0          | 0          |   0.0 |  0.00
Modify  | 0          | 0          | 0          |   0.0 |  0.00
Other   |            | 0.04733    |            |       |100.00

Nlocal:            595 ave         640 max         553 min
Histogram: 6 0 0 0 0 0 0 0 0 6
Nghost:           2435 ave        2477 max        2390 min
Histogram: 6 0 0 0 0 0 0 0 0 6
Neighs:              0 ave           0 max           0 min
Histogram: 12 0 0 0 0 0 0 0 0 0

Total # of neighbors = 0
Ave neighs/atom = 0
Neighbor list builds = 0
Dangerous builds = 0
#8 -------tension-----------------------------
unfix  1
undump  1
unfix  pe
reset_timestep 0
fix avestress all ave/atom 1 ${dumpstep} ${dumpstep} c_1[1] c_1[2] c_1[3] c_1[4] c_1[5] c_1[6]
fix avestress all ave/atom 1 1000 ${dumpstep} c_1[1] c_1[2] c_1[3] c_1[4] c_1[5] c_1[6]
fix avestress all ave/atom 1 1000 1000 c_1[1] c_1[2] c_1[3] c_1[4] c_1[5] c_1[6]

#-----calculation of strain and Cumulative compression--------
variable                tmp equal "lz"
variable                L0 equal ${tmp}
variable                L0 equal 288.559663
variable                strain equal "(lz - v_L0)/v_L0"
variable                Cumulativels equal "(lz - v_L0)/10"
fix Step all print 100 "${strain} ${Cumulativels} ${zstress}" file grapoten.txt screen no

dump 2 all custom ${dumpstep} tension.xyz type x y z f_avestress[1] f_avestress[2] f_avestress[3] f_avestress[4] f_avestress[5] f_avestress[6]
dump 2 all custom 1000 tension.xyz type x y z f_avestress[1] f_avestress[2] f_avestress[3] f_avestress[4] f_avestress[5] f_avestress[6]

fix  1 all npt temp ${temperature} ${temperature} 0.1 y ${pressure} ${pressure} 10 x ${pressure} ${pressure} 10
fix  1 all npt temp 300 ${temperature} 0.1 y ${pressure} ${pressure} 10 x ${pressure} ${pressure} 10
fix  1 all npt temp 300 300 0.1 y ${pressure} ${pressure} 10 x ${pressure} ${pressure} 10
fix  1 all npt temp 300 300 0.1 y 0 ${pressure} 10 x ${pressure} ${pressure} 10
fix  1 all npt temp 300 300 0.1 y 0 0 10 x ${pressure} ${pressure} 10
fix  1 all npt temp 300 300 0.1 y 0 0 10 x 0 ${pressure} 10
fix  1 all npt temp 300 300 0.1 y 0 0 10 x 0 0 10

thermo_style custom step pe ke etotal lx ly lz
fix   2 all deform 1 z erate ${deformrate} remap x units box
fix   2 all deform 1 z erate 0.005 remap x units box
fix   3 all ave/time 2 500 1000 v_xstress v_ystress v_zstress file pressure.out
run   ${totaltime}
run   100000
WARNING: Dump 2 includes no atom IDs and is not sorted by ID. This may complicate post-processing tasks or visualization (src/dump.cpp:221)
Per MPI rank memory allocation (min/avg/max) = 13.76 | 13.76 | 13.76 Mbytes
   Step         PotEng         KinEng         TotEng           Lx             Ly             Lz      
         0  -52938.425      276.83645     -52661.589      200            200            288.55966    
       100  -52775.934      135.85525     -52640.079      199.99206      199.9905       288.70394    
       200  -52779.539      169.54853     -52609.99       199.98671      199.9838       288.84822    
       300  -52753.626      179.5935      -52574.032      199.99584      199.99129      288.9925     
       400  -52739.237      204.61905     -52534.618      199.98722      199.98013      289.13678    
       500  -52715.98       222.52955     -52493.451      199.98337      199.97365      289.28106    
       600  -52695.949      243.53222     -52452.417      199.99371      199.98124      289.42534    
       700  -52679.123      264.32322     -52414.8        199.98469      199.96851      289.56962    
       800  -52661.094      276.96811     -52384.126      199.98089      199.95966      289.7139     
       900  -52650.165      283.88005     -52366.285      199.99254      199.96743      289.85818    
      1000  -52649.155      282.72192     -52366.434      199.98328      199.95351      290.00246    
      1100  -52662.736      281.50764     -52381.228      199.97814      199.94188      290.14674    
      1200  -52661.983      268.68924     -52393.294      199.98987      199.94679      290.29102    
      1300  -52663.841      272.14526     -52391.695      199.9816       199.9313       290.4353     
      1400  -52656.609      277.208       -52379.401      199.97914      199.92066      290.57958    
      1500  -52645.595      278.83664     -52366.758      199.9903       199.92206      290.72386    
      1600  -52646.066      283.1246      -52362.941      199.98508      199.90555      290.86814    
      1700  -52650.041      279.82318     -52370.218      199.98319      199.89211      291.01242    
      1800  -52652.006      273.86098     -52378.145      199.99277      199.89021      291.1567     
      1900  -52648.74       270.5533      -52378.186      199.98969      199.87351      291.30098    
      2000  -52646.986      276.85652     -52370.129      199.98974      199.85962      291.44526    
      2100  -52638.53       279.3134      -52359.216      199.99747      199.85411      291.58954    
      2200  -52636.574      283.26505     -52353.308      199.9945       199.83632      291.73382    
      2300  -52633.936      277.13759     -52356.798      199.99603      199.82223      291.8781     
      2400  -52636.538      273.84181     -52362.697      200.00172      199.81346      292.02238    
      2500  -52635.292      271.96596     -52363.326      199.99863      199.79548      292.16666    
      2600  -52632.878      275.59188     -52357.286      199.99999      199.7814       292.31094    
      2700  -52626.657      279.22472     -52347.433      200.00474      199.77104      292.45522    
      2800  -52619.477      278.69924     -52340.778      200.00077      199.7526       292.5995     
      2900  -52618.853      277.21846     -52341.635      200.00157      199.73846      292.74378    
      3000  -52618.446      272.93153     -52345.514      200.00485      199.72653      292.88806    
      3100  -52623.418      276.82888     -52346.589      200.0008       199.70727      293.03234    
      3200  -52615.874      274.82965     -52341.045      199.99969      199.69193      293.17662    
      3300  -52609.689      278.50837     -52331.181      200.00171      199.67968      293.3209     
      3400  -52605.048      281.61356     -52323.435      199.9987       199.66236      293.46518    
      3500  -52601.806      278.86242     -52322.944      199.99702      199.64751      293.60946    
      3600  -52598.533      271.64878     -52326.884      199.99546      199.63416      293.75374    
      3700  -52606.149      278.15999     -52327.989      199.9899       199.61632      293.89802    
      3800  -52596.861      273.55804     -52323.303      199.98849      199.60323      294.0423     
      3900  -52593.027      278.9077      -52314.119      199.98662      199.59006      294.18658    
      4000  -52585.864      279.538       -52306.326      199.98         199.57293      294.33086    
      4100  -52583.295      279.68046     -52303.614      199.97494      199.55747      294.47514    
      4200  -52579.234      275.02893     -52304.206      199.97184      199.54354      294.61942    
      4300  -52580.898      277.29721     -52303.601      199.96512      199.52693      294.7637     
      4400  -52574.497      274.87688     -52299.62       199.96081      199.51372      294.90798    
      4500  -52568.519      275.86724     -52292.651      199.95693      199.50011      295.05226    
      4600  -52562.123      276.9001      -52285.223      199.94812      199.48237      295.19654    
      4700  -52555.477      275.60156     -52279.876      199.94199      199.46781      295.34082    
      4800  -52554.251      276.77648     -52277.475      199.93763      199.4549       295.48509    
      4900  -52554.754      278.14011     -52276.614      199.92919      199.43775      295.62937    
      5000  -52552.094      277.81996     -52274.274      199.92199      199.42256      295.77365    
      5100  -52541.287      271.81817     -52269.469      199.91611      199.40911      295.91793    
      5200  -52538.95       277.22722     -52261.723      199.90569      199.39123      296.06221    
      5300  -52530.127      275.36949     -52254.757      199.89845      199.37585      296.20649    
      5400  -52529.291      279.27115     -52250.019      199.89161      199.36209      296.35077    
      5500  -52521.532      274.1196      -52247.412      199.87935      199.34318      296.49505    
      5600  -52522.142      277.40521     -52244.737      199.87061      199.3271       296.63933    
      5700  -52519.25       278.88036     -52240.369      199.86359      199.31205      296.78361    
      5800  -52511.722      277.48193     -52234.24       199.8511       199.29328      296.92789    
      5900  -52506.487      279.79743     -52226.69       199.84004      199.27483      297.07217    
      6000  -52492.173      272.43512     -52219.738      199.83227      199.25847      297.21645    
      6100  -52494.62       279.68304     -52214.937      199.8201       199.23763      297.36073    
      6200  -52490.323      277.66313     -52212.66       199.80843      199.218        297.50501    
      6300  -52486.93       277.54341     -52209.387      199.79902      199.1992       297.64929    
      6400  -52481.01       277.18548     -52203.825      199.78794      199.17765      297.79357    
      6500  -52472.825      276.29877     -52196.526      199.77587      199.15636      297.93785    
      6600  -52467.242      279.52338     -52187.719      199.76373      199.13476      298.08213    
      6700  -52460.104      278.62498     -52181.479      199.75351      199.1133       298.22641    
      6800  -52456.151      277.01312     -52179.138      199.74173      199.09041      298.37069    
      6900  -52452.485      274.93198     -52177.553      199.7291       199.06598      298.51497    
      7000  -52448.512      275.25847     -52173.254      199.71889      199.04232      298.65925    
      7100  -52441.865      276.72909     -52165.136      199.70778      199.01723      298.80353    
      7200  -52431.63       277.07424     -52154.556      199.694        198.99004      298.94781    
      7300  -52428.387      281.88706     -52146.5        199.6845       198.9657       299.09209    
      7400  -52420.272      277.17012     -52143.102      199.67388      198.9386       299.23637    
      7500  -52415.712      274.65866     -52141.053      199.65891      198.90818      299.38065    
      7600  -52408.119      271.67917     -52136.44       199.64849      198.88171      299.52493    
      7700  -52402.05       274.67559     -52127.375      199.63901      198.85366      299.66921    
      7800  -52394.816      277.87058     -52116.945      199.62537      198.82191      299.81349    
      7900  -52388.771      279.80351     -52108.967      199.61372      198.79298      299.95777    
      8000  -52382.75       278.08987     -52104.66       199.60384      198.76336      300.10205    
      8100  -52377.906      275.73589     -52102.17       199.59032      198.72982      300.24633    
      8200  -52373.419      276.18855     -52097.23       199.57756      198.69854      300.39061    
      8300  -52362.521      274.26677     -52088.254      199.56653      198.66809      300.53489    
      8400  -52354.356      276.88769     -52077.468      199.55384      198.63384      300.67917    
      8500  -52348.829      280.24167     -52068.587      199.54096      198.60081      300.82345    
      8600  -52342.052      278.96178     -52063.09       199.52736      198.56827      300.96773    
      8700  -52334.678      275.46781     -52059.21       199.51249      198.53213      301.11201    
      8800  -52325.648      272.20478     -52053.443      199.49895      198.49725      301.25629    
      8900  -52323.149      277.95164     -52045.197      199.48495      198.46341      301.40057    
      9000  -52311.483      277.23092     -52034.253      199.46779      198.42607      301.54485    
      9100  -52303.647      279.67775     -52023.969      199.45226      198.38935      301.68913    
      9200  -52296.487      279.22421     -52017.263      199.437        198.35335      301.83341    
      9300  -52291.296      274.44812     -52016.848      199.41793      198.31541      301.97769    
      9400  -52285.127      274.72123     -52010.406      199.4001       198.27752      302.12197    
      9500  -52274.014      274.22811     -51999.786      199.3832       198.24138      302.26625    
      9600  -52268.451      280.34236     -51988.108      199.36144      198.20183      302.41053    
      9700  -52258.347      278.58952     -51979.757      199.34065      198.16297      302.55481    
      9800  -52250.816      277.00108     -51973.815      199.32238      198.12643      302.69909    
      9900  -52242.972      275.51185     -51967.46       199.29781      198.08454      302.84337    
     10000  -52235.255      273.94261     -51961.312      199.27423      198.04419      302.98765    
     10100  -52232.747      274.68852     -51958.058      199.25562      198.00784      303.13193    
     10200  -52224.211      270.93493     -51953.276      199.22885      197.96404      303.27621    
     10300  -52217.521      277.74261     -51939.778      199.202        197.92176      303.42049    
     10400  -52204.477      277.10217     -51927.375      199.1827       197.8855       303.56477    
     10500  -52196.169      278.48919     -51917.679      199.15539      197.84103      303.70905    
     10600  -52185.39       275.76773     -51909.622      199.12673      197.79612      303.85333    
     10700  -52181.281      276.38812     -51904.893      199.1049       197.75768      303.9976     
     10800  -52175.241      275.11651     -51900.124      199.07725      197.71288      304.14188    
     10900  -52168.639      277.51734     -51891.121      199.04853      197.66686      304.28616    
     11000  -52153.515      278.5736      -51874.942      199.02539      197.62756      304.43044    
     11100  -52142.546      278.40923     -51864.137      198.99641      197.58159      304.57472    
     11200  -52137.735      279.74679     -51857.988      198.96532      197.53242      304.719      
     11300  -52128.628      274.63927     -51853.988      198.94172      197.49173      304.86328    
     11400  -52120.074      274.77965     -51845.294      198.91302      197.44523      305.00756    
     11500  -52113.616      278.90526     -51834.711      198.88085      197.39387      305.15184    
     11600  -52100.892      276.90334     -51823.988      198.85503      197.34878      305.29612    
     11700  -52090.017      277.43508     -51812.582      198.826        197.30161      305.4404     
     11800  -52078.346      277.0805      -51801.265      198.79373      197.24926      305.58468    
     11900  -52068.129      279.64554     -51788.483      198.76675      197.20112      305.72896    
     12000  -52054.222      276.42537     -51777.797      198.73831      197.15186      305.87324    
     12100  -52050.047      276.0151      -51774.032      198.70443      197.09685      306.01752    
     12200  -52043.863      275.21472     -51768.649      198.67639      197.04596      306.1618     
     12300  -52032.057      273.14518     -51758.912      198.64765      196.99483      306.30608    
     12400  -52022.91       276.96995     -51745.94       198.61426      196.93937      306.45036    
     12500  -52012.344      281.7728      -51730.572      198.58402      196.88609      306.59464    
     12600  -52000.736      280.48824     -51720.247      198.55479      196.83331      306.73892    
     12700  -51993.986      273.99578     -51719.991      198.52107      196.77601      306.8832     
     12800  -51985.114      273.04675     -51712.067      198.4903       196.72067      307.02748    
     12900  -51978.727      277.54315     -51701.184      198.46094      196.66581      307.17176    
     13000  -51964.332      276.68765     -51687.645      198.42748      196.60735      307.31604    
     13100  -51954.057      279.44104     -51674.616      198.39634      196.55103      307.46032    
     13200  -51944.261      278.50268     -51665.759      198.36684      196.49496      307.6046     
     13300  -51941.09       278.22779     -51662.862      198.33345      196.43489      307.74888    
     13400  -51926.033      273.22416     -51652.809      198.3016       196.377        307.89316    
     13500  -51914.803      275.67004     -51639.133      198.2737       196.32211      308.03744    
     13600  -51901.745      276.71423     -51625.031      198.24106      196.26137      308.18172    
     13700  -51891.549      276.68706     -51614.862      198.20921      196.20244      308.326      
     13800  -51886.687      272.77234     -51613.915      198.18126      196.14734      308.47028    
     13900  -51882.357      278.39685     -51603.96       198.14822      196.0864       308.61456    
     14000  -51862.014      273.53568     -51588.478      198.11767      196.02805      308.75884    
     14100  -51848.585      274.73264     -51573.852      198.09014      195.974        308.90312    
     14200  -51839.357      278.42996     -51560.927      198.05549      195.91251      309.0474     
     14300  -51828.436      277.06826     -51551.367      198.02448      195.85416      309.19168    
     14400  -51824.161      276.23653     -51547.924      197.99858      195.80179      309.33596    
     14500  -51812.953      275.69688     -51537.256      197.96384      195.74266      309.48024    
     14600  -51797.004      274.92345     -51522.081      197.93115      195.68505      309.62452    
     14700  -51784.938      276.81665     -51508.121      197.90486      195.634        309.7688     
     14800  -51772.893      276.78399     -51496.109      197.87056      195.57746      309.91308    
     14900  -51763.738      277.84285     -51485.895      197.83632      195.52072      310.05736    
     15000  -51755.322      278.69314     -51476.629      197.80951      195.47086      310.20164    
     15100  -51746.902      276.54374     -51470.359      197.7761       195.41696      310.34592    
     15200  -51731.495      270.21836     -51461.276      197.74089      195.36204      310.4902     
     15300  -51721.852      277.4891      -51444.363      197.7126       195.31293      310.63448    
     15400  -51705.148      276.29359     -51428.854      197.68071      195.26214      310.77876    
     15500  -51693.397      276.1492      -51417.248      197.6448       195.20929      310.92304    
     15600  -51684.624      276.74297     -51407.881      197.61549      195.16159      311.06732    
     15700  -51676.82       275.5933      -51401.227      197.58399      195.11237      311.2116     
     15800  -51667.064      274.50904     -51392.555      197.54847      195.06169      311.35588    
     15900  -51649.886      275.71673     -51374.169      197.51826      195.01643      311.50016    
     16000  -51635.884      277.88454     -51357.999      197.48858      194.97076      311.64444    
     16100  -51625.142      278.9419      -51346.2        197.45473      194.92257      311.78872    
     16200  -51615.508      277.327       -51338.181      197.42405      194.879        311.933      
     16300  -51606.889      276.74003     -51330.149      197.39493      194.83533      312.07728    
     16400  -51595.516      277.97668     -51317.539      197.36412      194.79009      312.22156    
     16500  -51575.567      277.95814     -51297.608      197.3355       194.74865      312.36584    
     16600  -51562.272      279.10763     -51283.164      197.30626      194.70623      312.51012    
     16700  -51552.377      278.03517     -51274.341      197.2775       194.66302      312.65439    
     16800  -51544.074      277.87589     -51266.198      197.25115      194.62374      312.79867    
     16900  -51530.906      276.58941     -51254.317      197.2229       194.583        312.94295    
     17000  -51518.033      278.87407     -51239.159      197.19621      194.54222      313.08723    
     17100  -51497.888      279.23887     -51218.649      197.17218      194.50429      313.23151    
     17200  -51486.422      281.45487     -51204.967      197.14492      194.46485      313.37579    
     17300  -51476.209      278.63455     -51197.575      197.11994      194.42669      313.52007    
     17400  -51465.746      276.58865     -51189.158      197.09732      194.39005      313.66435    
     17500  -51454.526      276.91761     -51177.608      197.07054      194.35168      313.80863    
     17600  -51440.929      276.9705      -51163.959      197.04698      194.31579      313.95291    
     17700  -51423.363      277.9505      -51145.412      197.02613      194.28185      314.09719    
     17800  -51411.814      281.63458     -51130.179      197.00137      194.24503      314.24147    
     17900  -51399.317      277.65378     -51121.663      196.97809      194.20993      314.38575    
     18000  -51391.051      278.98965     -51112.061      196.95782      194.17682      314.53003    
     18100  -51378.237      278.74825     -51099.489      196.93485      194.14134      314.67431    
     18200  -51359.852      274.07945     -51085.772      196.91221      194.10735      314.81859    
     18300  -51344.619      275.04546     -51069.574      196.89295      194.07626      314.96287    
     18400  -51330.274      279.10905     -51051.165      196.87248      194.04293      315.10715    
     18500  -51320.477      281.81198     -51038.665      196.85123      194.0099       315.25143    
     18600  -51310.013      277.12756     -51032.886      196.83403      193.97966      315.39571    
     18700  -51295.782      274.56706     -51021.215      196.81655      193.94881      315.53999    
     18800  -51285.463      277.29596     -51008.167      196.79737      193.91706      315.68427    
     18900  -51271.524      277.00841     -50994.516      196.78064      193.88793      315.82855    
     19000  -51254.817      276.00698     -50978.81       196.76441      193.8586       315.97283    
     19100  -51241.592      280.23561     -50961.356      196.74721      193.82893      316.11711    
     19200  -51225.634      277.30055     -50948.334      196.73258      193.80139      316.26139    
     19300  -51217.588      275.97969     -50941.608      196.71686      193.77308      316.40567    
     19400  -51205.913      276.34754     -50929.565      196.70019      193.74418      316.54995    
     19500  -51186.81       273.80304     -50913.007      196.68713      193.71899      316.69423    
     19600  -51173.214      276.90354     -50896.311      196.67411      193.69417      316.83851    
     19700  -51160.234      278.10884     -50882.125      196.65798      193.66621      316.98279    
     19800  -51146.388      277.45619     -50868.932      196.64408      193.64144      317.12707    
     19900  -51135.588      280.31914     -50855.269      196.63193      193.61796      317.27135    
     20000  -51116.364      274.91198     -50841.452      196.6166       193.59192      317.41563    
     20100  -51104.692      277.88496     -50826.807      196.60254      193.568        317.55991    
     20200  -51085.474      273.80728     -50811.667      196.58997      193.54645      317.70419    
     20300  -51071.8        275.54593     -50796.254      196.57545      193.52298      317.84847    
     20400  -51054.282      276.73283     -50777.549      196.55996      193.49902      317.99275    
     20500  -51043.075      279.70622     -50763.369      196.54705      193.4789       318.13703    
     20600  -51034.732      279.67499     -50755.057      196.53347      193.45806      318.28131    
     20700  -51022.391      278.46826     -50743.923      196.51733      193.43474      318.42559    
     20800  -51002.593      273.80687     -50728.786      196.50335      193.41502      318.56987    
     20900  -50986.949      276.96807     -50709.981      196.49024      193.39686      318.71415    
     21000  -50971.16       280.20172     -50690.958      196.47491      193.37563      318.85843    
     21100  -50957.076      278.16307     -50678.913      196.46071      193.3563       319.00271    
     21200  -50947.505      274.02688     -50673.478      196.44702      193.33951      319.14699    
     21300  -50934.511      276.05578     -50658.455      196.43149      193.31963      319.29127    
     21400  -50917.534      277.11046     -50640.423      196.41803      193.30203      319.43555    
     21500  -50900.028      277.2972      -50622.731      196.40515      193.28582      319.57983    
     21600  -50884.748      277.91194     -50606.836      196.3893       193.26692      319.72411    
     21700  -50873.014      277.64176     -50595.372      196.37588      193.25046      319.86839    
     21800  -50859.592      273.18376     -50586.408      196.36364      193.23588      320.01267    
     21900  -50845.866      275.24713     -50570.619      196.3486       193.2185       320.15695    
     22000  -50827.705      276.69347     -50551.011      196.33542      193.20281      320.30123    
     22100  -50808.357      274.5371      -50533.819      196.32298      193.18817      320.44551    
     22200  -50797.483      278.71817     -50518.765      196.308        193.17116      320.58979    
     22300  -50782.625      277.55566     -50505.07       196.29559      193.15644      320.73407    
     22400  -50768.982      276.02751     -50492.954      196.284        193.14272      320.87835    
     22500  -50754.586      272.6451      -50481.941      196.26816      193.12576      321.02263    
     22600  -50740.676      276.22053     -50464.455      196.25453      193.11058      321.1669     
     22700  -50714.86       272.23381     -50442.626      196.24426      193.09861      321.31118    
     22800  -50703.01       277.25159     -50425.759      196.22886      193.08211      321.45546    
     22900  -50689.806      278.19835     -50411.607      196.21426      193.06618      321.59974    
     23000  -50676.112      275.95722     -50400.155      196.20284      193.05301      321.74402    
     23100  -50666.213      277.45018     -50388.763      196.18785      193.03724      321.8883     
     23200  -50644.521      273.12731     -50371.394      196.17244      193.02139      322.03258    
     23300  -50623.975      275.34125     -50348.634      196.1607       193.00804      322.17686    
     23400  -50607.203      275.48673     -50331.717      196.14739      192.99284      322.32114    
     23500  -50599.444      281.09184     -50318.353      196.13182      192.97645      322.46542    
     23600  -50581.28       273.27276     -50308.007      196.11996      192.96241      322.6097     
     23700  -50569.639      275.30757     -50294.332      196.10803      192.94778      322.75398    
     23800  -50548.731      273.86181     -50274.869      196.09344      192.93089      322.89826    
     23900  -50527.904      275.68461     -50252.219      196.08039      192.91554      323.04254    
     24000  -50515.756      277.71842     -50238.037      196.06985      192.90103      323.18682    
     24100  -50504.434      277.76224     -50226.672      196.05608      192.88386      323.3311     
     24200  -50487.395      274.07692     -50213.318      196.04334      192.8677       323.47538    
     24300  -50471.076      275.89526     -50195.181      196.03411      192.85333      323.61966    
     24400  -50451.333      279.91448     -50171.419      196.02225      192.83557      323.76394    
     24500  -50433.092      276.97196     -50156.12       196.01009      192.81899      323.90822    
     24600  -50421.753      276.71851     -50145.034      196.00199      192.8053       324.0525     
     24700  -50406.091      274.71626     -50131.375      195.9909       192.78761      324.19678    
     24800  -50389.598      275.84323     -50113.755      195.97755      192.76823      324.34106    
     24900  -50371.37       280.24958     -50091.12       195.96924      192.75452      324.48534    
     25000  -50354.98       283.08762     -50071.893      195.96008      192.73813      324.62962    
     25100  -50335.568      276.72928     -50058.838      195.94633      192.71806      324.7739     
     25200  -50326.056      279.57042     -50046.485      195.93588      192.70229      324.91818    
     25300  -50306.328      273.55989     -50032.769      195.92701      192.68689      325.06246    
     25400  -50289.867      275.76651     -50014.1        195.91253      192.66604      325.20674    
     25500  -50269.228      278.87227     -49990.356      195.90133      192.64938      325.35102    
     25600  -50252.985      278.70588     -49974.279      195.89247      192.63551      325.4953     
     25700  -50241.852      280.64702     -49961.205      195.87741      192.61396      325.63958    
     25800  -50221.651      273.6714      -49947.98       195.86509      192.59583      325.78386    
     25900  -50208.656      276.49491     -49932.161      195.85588      192.58208      325.92814    
     26000  -50191.447      276.48905     -49914.958      195.84147      192.56208      326.07242    
     26100  -50171.711      273.48437     -49898.226      195.82759      192.54308      326.2167     
     26200  -50156.192      274.78311     -49881.409      195.8177       192.5282       326.36098    
     26300  -50139.985      276.52839     -49863.457      195.80356      192.50941      326.50526    
     26400  -50123.712      280.39637     -49843.316      195.78883      192.4897       326.64954    
     26500  -50103.653      281.1745      -49822.478      195.77943      192.47524      326.79382    
     26600  -50084.555      277.42625     -49807.129      195.76544      192.4571       326.9381     
     26700  -50075.454      277.85223     -49797.602      195.74921      192.43676      327.08238    
     26800  -50058.354      275.92289     -49782.431      195.73998      192.42329      327.22666    
     26900  -50040.877      277.64789     -49763.229      195.7272       192.40631      327.37094    
     27000  -50018.742      276.59925     -49742.143      195.70988      192.38579      327.51522    
     27100  -50005.342      281.41788     -49723.924      195.69924      192.37154      327.6595     
     27200  -49982.803      271.5874      -49711.215      195.68663      192.35579      327.80378    
     27300  -49973.688      273.60436     -49700.084      195.66755      192.33478      327.94806    
     27400  -49953.324      273.3487      -49679.976      195.65509      192.31954      328.09234    
     27500  -49936.213      278.92553     -49657.288      195.64359      192.30624      328.23662    
     27600  -49917.178      279.05322     -49638.125      195.62335      192.28565      328.3809     
     27700  -49898.222      277.17832     -49621.043      195.60717      192.26839      328.52518    
     27800  -49880.743      275.10001     -49605.643      195.59521      192.25504      328.66946    
     27900  -49866.55       274.1118      -49592.438      195.57517      192.2356       328.81374    
     28000  -49849.105      273.89867     -49575.206      195.55629      192.21695      328.95802    
     28100  -49827.48       276.06308     -49551.417      195.54393      192.2031       329.1023     
     28200  -49808.717      276.90418     -49531.813      195.52545      192.1856       329.24658    
     28300  -49797.179      280.95278     -49516.226      195.50405      192.16601      329.39086    
     28400  -49779.878      276.73076     -49503.147      195.48951      192.15052      329.53514    
     28500  -49760.502      272.30754     -49488.194      195.47175      192.13375      329.67941    
     28600  -49746.762      276.25529     -49470.507      195.4501       192.11408      329.82369    
     28700  -49725.553      278.08598     -49447.467      195.43402      192.09765      329.96797    
     28800  -49703.838      277.88498     -49425.953      195.41705      192.08058      330.11225    
     28900  -49688.012      279.79621     -49408.216      195.39638      192.0609       330.25653    
     29000  -49668.835      273.51398     -49395.321      195.3795       192.0435       330.40081    
     29100  -49657.705      276.33171     -49381.374      195.36312      192.02591      330.54509    
     29200  -49639.652      277.18957     -49362.463      195.34404      192.00715      330.68937    
     29300  -49618.316      276.84815     -49341.468      195.32713      191.9888       330.83365    
     29400  -49603.747      280.77802     -49322.968      195.31064      191.97043      330.97793    
     29500  -49583.353      278.54785     -49304.805      195.2915       191.95064      331.12221    
     29600  -49564.091      278.26276     -49285.828      195.27372      191.93134      331.26649    
     29700  -49540.692      275.50526     -49265.187      195.2579       191.91245      331.41077    
     29800  -49523.1        279.69044     -49243.41       195.23868      191.89205      331.55505    
     29900  -49503.368      277.53497     -49225.833      195.22014      191.87195      331.69933    
     30000  -49490.642      275.78977     -49214.853      195.20293      191.85128      331.84361    
     30100  -49474.288      275.30625     -49198.982      195.18456      191.8306       331.98789    
     30200  -49454.219      276.23626     -49177.982      195.16665      191.81052      332.13217    
     30300  -49436.811      280.9535      -49155.858      195.14906      191.78867      332.27645    
     30400  -49415.597      278.4659      -49137.132      195.12984      191.76604      332.42073    
     30500  -49396.169      276.0512      -49120.118      195.11132      191.74528      332.56501    
     30600  -49380.127      276.06533     -49104.062      195.09407      191.72288      332.70929    
     30700  -49362.879      274.26952     -49088.61       195.07435      191.69863      332.85357    
     30800  -49346.236      269.66246     -49076.574      195.05552      191.67645      332.99785    
     30900  -49328.928      271.03941     -49057.888      195.03781      191.65299      333.14213    
     31000  -49306.094      272.92194     -49033.172      195.0186       191.62797      333.28641    
     31100  -49288.217      275.93327     -49012.284      194.99981      191.60551      333.43069    
     31200  -49266.254      274.61162     -48991.642      194.98259      191.58237      333.57497    
     31300  -49251.397      279.67621     -48971.72       194.96326      191.55627      333.71925    
     31400  -49232.509      280.33784     -48952.171      194.9447       191.5326       333.86353    
     31500  -49216.97       279.31968     -48937.651      194.9296       191.51138      334.00781    
     31600  -49199.465      275.49184     -48923.973      194.91008      191.48464      334.15209    
     31700  -49181.645      276.33907     -48905.306      194.88973      191.45785      334.29637    
     31800  -49154.336      273.3811      -48880.954      194.87393      191.43598      334.44065    
     31900  -49140.454      280.79545     -48859.659      194.85628      191.41055      334.58493    
     32000  -49117.549      275.72577     -48841.824      194.834        191.38228      334.72921    
     32100  -49099.539      274.98827     -48824.551      194.81706      191.35922      334.87349    
     32200  -49082.7        274.29021     -48808.41       194.80044      191.33584      335.01777    
     32300  -49065.622      274.39409     -48791.228      194.77724      191.30699      335.16205    
     32400  -49045.733      276.90564     -48768.827      194.75777      191.28224      335.30633    
     32500  -49023.275      278.28789     -48744.987      194.74169      191.26034      335.45061    
     32600  -49003.553      278.51661     -48725.037      194.71776      191.2314       335.59489    
     32700  -48983.769      274.43993     -48709.329      194.69487      191.20472      335.73917    
     32800  -48970.174      273.68757     -48696.486      194.67756      191.18305      335.88345    
     32900  -48956.155      276.81085     -48679.344      194.65375      191.15558      336.02773    
     33000  -48933.595      281.02942     -48652.565      194.62775      191.12689      336.17201    
     33100  -48910.629      279.91936     -48630.71       194.60878      191.10489      336.31629    
     33200  -48893.47       279.3554      -48614.114      194.58685      191.0802       336.46057    
     33300  -48873.444      274.54578     -48598.898      194.55841      191.05026      336.60485    
     33400  -48857.466      275.06283     -48582.404      194.53765      191.02719      336.74913    
     33500  -48836.64       274.66014     -48561.98       194.51742      191.00443      336.89341    
     33600  -48818.087      282.01449     -48536.072      194.48807      190.97423      337.03769    
     33700  -48794.346      277.83154     -48516.515      194.46446      190.94961      337.18197    
     33800  -48776.894      276.2657      -48500.628      194.44611      190.92924      337.32625    
     33900  -48761.958      277.07192     -48484.887      194.41756      190.90055      337.47053    
     34000  -48742.679      275.60396     -48467.075      194.39079      190.87324      337.61481    
     34100  -48719.764      274.84948     -48444.914      194.37178      190.85337      337.75909    
     34200  -48699.472      279.73992     -48419.732      194.34499      190.82648      337.90337    
     34300  -48676.562      277.50064     -48399.061      194.31639      190.79818      338.04765    
     34400  -48659.559      277.27392     -48382.285      194.29598      190.77689      338.19193    
     34500  -48643.27       275.65093     -48367.619      194.2705       190.75242      338.3362     
     34600  -48624.216      274.04495     -48350.171      194.24058      190.72341      338.48048    
     34700  -48598.31       273.63582     -48324.674      194.21812      190.70067      338.62476    
     34800  -48579.169      278.2914      -48300.877      194.19407      190.67781      338.76904    
     34900  -48562.088      280.15818     -48281.93       194.16307      190.64772      338.91332    
     35000  -48545.206      277.81584     -48267.39       194.13736      190.62224      339.0576     
     35100  -48528.129      277.65133     -48250.478      194.11263      190.59919      339.20188    
     35200  -48505.892      277.54579     -48228.346      194.08272      190.57076      339.34616    
     35300  -48482.554      281.78645     -48200.767      194.05446      190.54283      339.49044    
     35400  -48459.77       276.9389      -48182.831      194.02984      190.51988      339.63472    
     35500  -48445.104      276.75007     -48168.354      194.0008       190.49234      339.779      
     35600  -48428.539      277.12212     -48151.417      193.97039      190.46187      339.92328    
     35700  -48404.23       273.04978     -48131.181      193.94601      190.43859      340.06756    
     35800  -48386.426      281.83333     -48104.593      193.91897      190.41261      340.21184    
     35900  -48361.068      277.89342     -48083.175      193.88915      190.38143      340.35612    
     36000  -48347.399      280.03417     -48067.365      193.86304      190.35514      340.5004     
     36100  -48327.887      276.93128     -48050.956      193.83745      190.32961      340.64468    
     36200  -48309.247      276.42429     -48032.822      193.80937      190.29891      340.78896    
     36300  -48286.851      274.36465     -48012.486      193.78227      190.27019      340.93324    
     36400  -48263.936      278.69643     -47985.24       193.75835      190.24495      341.07752    
     36500  -48243.152      279.61151     -47963.54       193.73218      190.21479      341.2218     
     36600  -48226.978      279.30804     -47947.67       193.70411      190.1838       341.36608    
     36700  -48207.898      275.93455     -47931.964      193.68022      190.15668      341.51036    
     36800  -48185.465      273.28806     -47912.177      193.6557       190.12727      341.65464    
     36900  -48165.946      275.62444     -47890.321      193.62798      190.09566      341.79892    
     37000  -48143.943      274.7705      -47869.172      193.60315      190.06664      341.9432     
     37100  -48126.629      277.35154     -47849.277      193.5795       190.03698      342.08748    
     37200  -48106.202      276.71653     -47829.485      193.55265      190.0054       342.23176    
     37300  -48082.569      274.97104     -47807.598      193.52552      189.97406      342.37604    
     37400  -48061.735      279.48262     -47782.252      193.50181      189.94395      342.52032    
     37500  -48040.106      278.17507     -47761.931      193.47567      189.91249      342.6646     
     37600  -48024.309      275.27572     -47749.034      193.44803      189.88043      342.80888    
     37700  -48005.476      274.57354     -47730.902      193.42321      189.84942      342.95316    
     37800  -47983.248      273.62267     -47709.625      193.39686      189.81719      343.09744    
     37900  -47964.313      278.08425     -47686.229      193.36914      189.78519      343.24172    
     38000  -47938.14       275.269       -47662.871      193.34513      189.75441      343.386      
     38100  -47924.264      280.89839     -47643.365      193.3201       189.7231       343.53028    
     38200  -47909.991      279.0214      -47630.97       193.29181      189.69019      343.67456    
     38300  -47890.851      277.36364     -47613.488      193.26711      189.65852      343.81884    
     38400  -47863.648      272.44476     -47591.204      193.24325      189.62777      343.96312    
     38500  -47845.09       279.08163     -47566.008      193.21537      189.59543      344.1074     
     38600  -47824.092      279.58075     -47544.511      193.19022      189.56298      344.25168    
     38700  -47805.104      279.53985     -47525.564      193.16641      189.53259      344.39596    
     38800  -47777.865      271.16284     -47506.702      193.14009      189.50146      344.54024    
     38900  -47762.611      276.43755     -47486.174      193.11359      189.46837      344.68452    
     39000  -47743.008      277.73278     -47465.275      193.08993      189.43902      344.8288     
     39100  -47724.097      280.436       -47443.661      193.06441      189.40943      344.97308    
     39200  -47697.575      278.94184     -47418.633      193.03621      189.37587      345.11736    
     39300  -47678.347      282.11756     -47396.229      193.01201      189.34687      345.26164    
     39400  -47659.201      278.03972     -47381.161      192.98608      189.31831      345.40592    
     39500  -47642.594      277.02074     -47365.573      192.95707      189.28481      345.5502     
     39600  -47614.895      270.47952     -47344.416      192.93106      189.25585      345.69448    
     39700  -47599.112      277.76435     -47321.348      192.90535      189.22959      345.83876    
     39800  -47574.33       276.63523     -47297.695      192.87444      189.19609      345.98304    
     39900  -47551.66       276.8312      -47274.829      192.84506      189.16493      346.12732    
     40000  -47532.75       280.77847     -47251.972      192.82064      189.14198      346.2716     
     40100  -47514.951      279.53582     -47235.415      192.79155      189.11138      346.41588    
     40200  -47496.874      276.34645     -47220.527      192.75747      189.07739      346.56016    
     40300  -47476.617      274.68669     -47201.931      192.73079      189.0534       346.70444    
     40400  -47453.054      273.073       -47179.981      192.70654      189.02856      346.84871    
     40500  -47433.44       279.96038     -47153.48       192.67239      188.99531      346.99299    
     40600  -47409.102      276.79046     -47132.312      192.64222      188.96865      347.13727    
     40700  -47395.067      279.15192     -47115.915      192.62004      188.94591      347.28155    
     40800  -47373.914      277.19183     -47096.722      192.588        188.91549      347.42583    
     40900  -47350.217      273.50413     -47076.712      192.55482      188.88584      347.57011    
     41000  -47332.902      277.77461     -47055.127      192.53306      188.86385      347.71439    
     41100  -47307.893      277.84937     -47030.044      192.50462      188.83706      347.85867    
     41200  -47287.953      282.24753     -47005.706      192.47032      188.80587      348.00295    
     41300  -47265.442      276.52826     -46988.914      192.44766      188.7826       348.14723    
     41400  -47245.236      272.29561     -46972.94       192.42261      188.7591       348.29151    
     41500  -47226.753      275.02488     -46951.728      192.38885      188.72856      348.43579    
     41600  -47205.997      276.91797     -46929.079      192.36347      188.70249      348.58007    
     41700  -47186.151      281.67198     -46904.479      192.33938      188.68053      348.72435    
     41800  -47161.39       280.56169     -46880.829      192.30747      188.65196      348.86863    
     41900  -47138.304      278.8032      -46859.501      192.27936      188.62253      349.01291    
     42000  -47122.69       277.83956     -46844.85       192.25597      188.60204      349.15719    
     42100  -47101.84       273.92953     -46827.91       192.22602      188.57495      349.30147    
     42200  -47083.421      277.03915     -46806.382      192.1959       188.5428       349.44575    
     42300  -47058.145      276.88754     -46781.258      192.17246      188.52167      349.59003    
     42400  -47033.143      277.19176     -46755.952      192.14618      188.49709      349.73431    
     42500  -47013.937      276.66551     -46737.271      192.11603      188.46441      349.87859    
     42600  -46995.234      275.01572     -46720.218      192.09024      188.43998      350.02287    
     42700  -46979.509      279.4711      -46700.038      192.06764      188.41746      350.16715    
     42800  -46951.783      271.85464     -46679.928      192.04005      188.38665      350.31143    
     42900  -46934.092      273.71938     -46660.373      192.01236      188.35925      350.45571    
     43000  -46918.714      278.0357      -46640.679      191.99125      188.33606      350.59999    
     43100  -46896.721      278.30941     -46618.412      191.96766      188.30823      350.74427    
     43200  -46873.357      281.02606     -46592.331      191.93978      188.27911      350.88855    
     43300  -46849.555      280.3194      -46569.236      191.91782      188.25384      351.03283    
     43400  -46826.734      275.10917     -46551.625      191.89783      188.22837      351.17711    
     43500  -46815.076      277.39719     -46537.679      191.87229      188.20098      351.32139    
     43600  -46792.592      277.25849     -46515.334      191.84946      188.17343      351.46567    
     43700  -46765.993      275.73998     -46490.253      191.83003      188.1477       351.60995    
     43800  -46743.553      277.36883     -46466.184      191.80658      188.12233      351.75423    
     43900  -46724.709      279.64128     -46445.068      191.78512      188.09476      351.89851    
     44000  -46701.483      275.53079     -46425.952      191.76432      188.06811      352.04279    
     44100  -46683.561      272.2984      -46411.262      191.74049      188.04232      352.18707    
     44200  -46662.238      269.33638     -46392.902      191.71976      188.01477      352.33135    
     44300  -46643.487      277.47648     -46366.01       191.69938      187.98866      352.47563    
     44400  -46618.902      278.23983     -46340.663      191.67531      187.96304      352.61991    
     44500  -46597.149      278.94494     -46318.204      191.6548       187.93487      352.76419    
     44600  -46574.132      276.02526     -46298.107      191.63317      187.90868      352.90847    
     44700  -46555.932      273.71879     -46282.214      191.61158      187.88398      353.05275    
     44800  -46536.865      272.38637     -46264.479      191.59148      187.85684      353.19703    
     44900  -46514.088      274.38441     -46239.703      191.56843      187.8294       353.34131    
     45000  -46492.176      277.73109     -46214.445      191.54726      187.80537      353.48559    
     45100  -46470.436      277.05718     -46193.378      191.5291       187.78048      353.62987    
     45200  -46450.479      276.70827     -46173.77       191.50519      187.75308      353.77415    
     45300  -46429.371      273.45985     -46155.911      191.48379      187.72783      353.91843    
     45400  -46410.448      274.23996     -46136.208      191.46741      187.70418      354.06271    
     45500  -46384.03       273.62444     -46110.406      191.44532      187.67938      354.20699    
     45600  -46365.592      281.75883     -46083.833      191.42403      187.65356      354.35127    
     45700  -46342.77       278.95726     -46063.812      191.40703      187.63092      354.49555    
     45800  -46325.435      278.65089     -46046.784      191.38641      187.60786      354.63983    
     45900  -46301.364      273.23814     -46028.126      191.36535      187.58271      354.78411    
     46000  -46284.81       279.05501     -46005.755      191.34779      187.56053      354.92839    
     46100  -46255.292      272.31821     -45982.973      191.32729      187.53869      355.07267    
     46200  -46241.083      281.30897     -45959.774      191.30533      187.51389      355.21695    
     46300  -46212.238      276.6638      -45935.574      191.28643      187.49216      355.36122    
     46400  -46189.898      277.315       -45912.583      191.26653      187.47295      355.5055     
     46500  -46172.942      279.53136     -45893.411      191.24363      187.44841      355.64978    
     46600  -46153.191      275.58558     -45877.606      191.22136      187.42543      355.79406    
     46700  -46129.574      272.5473      -45857.026      191.20254      187.40857      355.93834    
     46800  -46106.915      275.73494     -45831.18       191.18088      187.38702      356.08262    
     46900  -46085.472      280.58743     -45804.885      191.15625      187.3633       356.2269     
     47000  -46063.106      278.96999     -45784.136      191.13438      187.34502      356.37118    
     47100  -46046.908      281.84472     -45765.063      191.1158       187.32646      356.51546    
     47200  -46027.821      280.70042     -45747.121      191.09148      187.30523      356.65974    
     47300  -46007.395      279.47072     -45727.925      191.06745      187.28518      356.80402    
     47400  -45979.493      271.79367     -45707.699      191.04909      187.26776      356.9483     
     47500  -45960.13       276.15787     -45683.973      191.02581      187.24857      357.09258    
     47600  -45935.375      279.13191     -45656.243      191.00098      187.22737      357.23686    
     47700  -45913.694      279.04512     -45634.649      190.98226      187.21042      357.38114    
     47800  -45897.918      279.20366     -45618.715      190.96263      187.19472      357.52542    
     47900  -45874.177      275.27093     -45598.906      190.93838      187.17409      357.6697     
     48000  -45850.595      273.95701     -45576.637      190.91788      187.15604      357.81398    
     48100  -45829.216      276.5527      -45552.663      190.89988      187.14232      357.95826    
     48200  -45808.027      282.4756      -45525.551      190.87777      187.12348      358.10254    
     48300  -45786.847      284.41218     -45502.435      190.85448      187.10297      358.24682    
     48400  -45765.006      277.69351     -45487.313      190.83624      187.08868      358.3911     
     48500  -45745.003      277.47785     -45467.525      190.81733      187.07318      358.53538    
     48600  -45718.403      273.19432     -45445.209      190.79395      187.05219      358.67966    
     48700  -45697.382      277.28547     -45420.097      190.77269      187.03534      358.82394    
     48800  -45676.569      282.96694     -45393.602      190.7555       187.02029      358.96822    
     48900  -45654.574      280.02597     -45374.548      190.73351      187.00079      359.1125     
     49000  -45634.281      274.6863      -45359.594      190.71129      186.98212      359.25678    
     49100  -45615.444      276.86661     -45338.578      190.69346      186.96577      359.40106    
     49200  -45594.65       279.26008     -45315.39       190.673        186.94778      359.54534    
     49300  -45565.032      273.19655     -45291.835      190.6524       186.92927      359.68962    
     49400  -45547.446      276.99325     -45270.453      190.63358      186.91122      359.8339     
     49500  -45530.857      277.50635     -45253.35       190.61392      186.89316      359.97818    
     49600  -45506.857      272.63134     -45234.226      190.59431      186.87409      360.12246    
     49700  -45485.644      276.12352     -45209.52       190.57684      186.85616      360.26674    
     49800  -45459.835      279.15718     -45180.678      190.55922      186.8386       360.41102    
     49900  -45436.88       279.99991     -45156.88       190.53941      186.81774      360.5553     
     50000  -45419.472      280.89828     -45138.574      190.52231      186.7989       360.69958    
     50100  -45399.514      280.41507     -45119.099      190.50727      186.78245      360.84386    
     50200  -45377.004      275.89018     -45101.114      190.49039      186.76258      360.98814    
     50300  -45354.507      272.7304      -45081.777      190.47267      186.74216      361.13242    
     50400  -45332.824      273.91013     -45058.913      190.45832      186.72475      361.2767     
     50500  -45303.581      273.73579     -45029.846      190.44348      186.7063       361.42098    
     50600  -45286.358      280.33375     -45006.025      190.42557      186.68439      361.56526    
     50700  -45264.271      277.73501     -44986.536      190.41124      186.66571      361.70954    
     50800  -45246.103      279.11506     -44966.988      190.39765      186.64862      361.85382    
     50900  -45221.85       275.87831     -44945.971      190.38063      186.62674      361.9981     
     51000  -45198.179      274.24682     -44923.932      190.36418      186.60639      362.14238    
     51100  -45178.076      274.34116     -44903.735      190.35076      186.58903      362.28666    
     51200  -45160.106      273.70403     -44886.401      190.3347       186.56828      362.43094    
     51300  -45141.839      277.81038     -44864.028      190.31786      186.5473       362.57522    
     51400  -45115.733      279.29961     -44836.433      190.305        186.5295       362.7195     
     51500  -45091.21       279.96724     -44811.243      190.28941      186.50863      362.86378    
     51600  -45072.161      281.15243     -44791.009      190.27112      186.48636      363.00806    
     51700  -45053.991      281.65341     -44772.337      190.25759      186.4685       363.15234    
     51800  -45029.305      278.34552     -44750.96       190.24562      186.45084      363.29662    
     51900  -45011.1        282.0574      -44729.042      190.22693      186.42865      363.4409     
     52000  -44986.117      278.80263     -44707.315      190.21034      186.40716      363.58518    
     52100  -44962.255      277.0465      -44685.209      190.19881      186.38986      363.72946    
     52200  -44939.986      275.67894     -44664.307      190.18413      186.37178      363.87374    
     52300  -44917.144      271.18916     -44645.955      190.16783      186.35017      364.01801    
     52400  -44897.315      271.98231     -44625.332      190.15365      186.33145      364.16229    
     52500  -44874.794      277.2562      -44597.537      190.14         186.31389      364.30657    
     52600  -44851.044      280.72788     -44570.316      190.12516      186.29419      364.45085    
     52700  -44829.76       279.71793     -44550.042      190.10991      186.27526      364.59513    
     52800  -44808.516      277.78142     -44530.735      190.09606      186.25752      364.73941    
     52900  -44787.76       277.65271     -44510.108      190.08053      186.23898      364.88369    
     53000  -44763.064      276.5109      -44486.553      190.06433      186.22012      365.02797    
     53100  -44735.963      273.30875     -44462.654      190.0505       186.20338      365.17225    
     53200  -44716.079      278.54469     -44437.535      190.03459      186.18601      365.31653    
     53300  -44697.461      281.73677     -44415.724      190.01665      186.16725      365.46081    
     53400  -44675.58       276.97158     -44398.608      190.00129      186.1501       365.60509    
     53500  -44653.29       274.62635     -44378.664      189.98615      186.13523      365.74937    
     53600  -44631.922      275.52979     -44356.392      189.96744      186.1161       365.89365    
     53700  -44609.463      276.98328     -44332.48       189.94881      186.09794      366.03793    
     53800  -44588.08       280.3109      -44307.769      189.9333       186.08358      366.18221    
     53900  -44565.445      279.28773     -44286.157      189.91612      186.06699      366.32649    
     54000  -44543.398      274.63191     -44268.766      189.89646      186.04986      366.47077    
     54100  -44524.368      276.65317     -44247.715      189.87827      186.03419      366.61505    
     54200  -44500.907      277.14955     -44223.757      189.86064      186.01798      366.75933    
     54300  -44474.879      276.79155     -44198.088      189.84225      186.00298      366.90361    
     54400  -44452.847      281.60089     -44171.246      189.82452      185.98798      367.04789    
     54500  -44435.203      283.2057      -44151.998      189.80598      185.97181      367.19217    
     54600  -44410.615      276.27241     -44134.342      189.78751      185.95707      367.33645    
     54700  -44390.165      277.18249     -44112.982      189.77075      185.94276      367.48073    
     54800  -44369.714      278.15447     -44091.56       189.75215      185.9277       367.62501    
     54900  -44347.447      276.43942     -44071.007      189.73363      185.91327      367.76929    
     55000  -44324.433      274.25965     -44050.173      189.71603      185.89796      367.91357    
     55100  -44299.824      274.42662     -44025.397      189.697        185.88339      368.05785    
     55200  -44274.765      279.09857     -43995.666      189.67898      185.8689       368.20213    
     55300  -44251.88       280.05456     -43971.825      189.66132      185.85443      368.34641    
     55400  -44229.372      276.63764     -43952.735      189.64128      185.83925      368.49069    
     55500  -44209.502      277.23912     -43932.263      189.62247      185.82408      368.63497    
     55600  -44189.237      279.26423     -43909.973      189.60453      185.81005      368.77925    
     55700  -44165.725      276.8172      -43888.908      189.58586      185.79592      368.92353    
     55800  -44144.606      275.54056     -43869.065      189.56592      185.77971      369.06781    
     55900  -44123.636      272.27573     -43851.36       189.54696      185.76407      369.21209    
     56000  -44101.792      270.58388     -43831.208      189.52942      185.75114      369.35637    
     56100  -44077.095      277.66436     -43799.43       189.50955      185.73427      369.50065    
     56200  -44052.333      280.58108     -43771.752      189.48909      185.71722      369.64493    
     56300  -44030.017      279.75226     -43750.265      189.47156      185.70308      369.78921    
     56400  -44010.692      278.6513      -43732.041      189.45384      185.688        369.93349    
     56500  -43985.893      274.79487     -43711.099      189.43397      185.67023      370.07777    
     56600  -43965.563      277.27628     -43688.287      189.41686      185.65513      370.22205    
     56700  -43944.365      278.49288     -43665.872      189.40131      185.64003      370.36633    
     56800  -43924.948      275.99252     -43648.955      189.38205      185.62241      370.51061    
     56900  -43899.357      273.45769     -43625.899      189.36479      185.60482      370.65489    
     57000  -43873.925      276.04193     -43597.883      189.35044      185.58954      370.79917    
     57100  -43848.745      277.6515      -43571.094      189.33325      185.57312      370.94345    
     57200  -43825.723      277.9499      -43547.773      189.31506      185.55253      371.08773    
     57300  -43807.079      281.45674     -43525.622      189.29932      185.53602      371.23201    
     57400  -43785.252      279.72447     -43505.527      189.28582      185.52187      371.37629    
     57500  -43760.024      276.0326      -43483.992      189.26849      185.50192      371.52057    
     57600  -43737.373      277.5918      -43459.781      189.25074      185.48247      371.66485    
     57700  -43715.178      279.27187     -43435.906      189.23649      185.46738      371.80913    
     57800  -43691.444      278.16607     -43413.278      189.22105      185.4483       371.95341    
     57900  -43668.802      277.95057     -43390.852      189.20237      185.42777      372.09769    
     58000  -43648.541      280.38004     -43368.161      189.18681      185.41112      372.24197    
     58100  -43625.834      279.61737     -43346.217      189.17318      185.39328      372.38625    
     58200  -43601.079      275.94779     -43325.131      189.15304      185.37129      372.53052    
     58300  -43576.893      272.32798     -43304.565      189.1378       185.35337      372.6748     
     58400  -43559.606      270.79041     -43288.815      189.12543      185.33674      372.81908    
     58500  -43540.254      276.24197     -43264.012      189.10704      185.31562      372.96336    
     58600  -43511.432      277.1709      -43234.261      189.08819      185.29391      373.10764    
     58700  -43487.414      280.49408     -43206.92       189.07505      185.27678      373.25192    
     58800  -43462.614      278.05467     -43184.559      189.06029      185.25815      373.3962     
     58900  -43439.901      274.68059     -43165.22       189.04157      185.23617      373.54048    
     59000  -43418.953      277.4719      -43141.481      189.02801      185.21828      373.68476    
     59100  -43398.83       280.55218     -43118.278      189.01388      185.19992      373.82904    
     59200  -43371.181      273.77251     -43097.409      188.99542      185.17804      373.97332    
     59300  -43348.163      273.52397     -43074.639      188.98128      185.15933      374.1176     
     59400  -43326.81       277.40406     -43049.406      188.96826      185.1418       374.26188    
     59500  -43302.289      281.0812      -43021.208      188.94947      185.12001      374.40616    
     59600  -43277.088      284.12007     -42992.968      188.9336       185.10021      374.55044    
     59700  -43255.223      282.08998     -42973.133      188.92157      185.08341      374.69472    
     59800  -43232.818      279.0568      -42953.761      188.90456      185.06374      374.839      
     59900  -43207.31       274.91551     -42932.394      188.88487      185.04198      374.98328    
     60000  -43186.534      276.8768      -42909.657      188.87069      185.02396      375.12756    
     60100  -43164.521      277.40005     -42887.121      188.85559      185.00656      375.27184    
     60200  -43143.757      278.03371     -42865.723      188.83512      184.98516      375.41612    
     60300  -43117.942      272.73436     -42845.208      188.81802      184.96478      375.5604     
     60400  -43097.686      276.70203     -42820.984      188.80307      184.94822      375.70468    
     60500  -43071.857      280.81391     -42791.043      188.78276      184.92818      375.84896    
     60600  -43037.649      276.55304     -42761.096      188.7628       184.90626      375.99324    
     60700  -43020.542      282.03117     -42738.51       188.74702      184.88965      376.13752    
     60800  -42999.075      280.72021     -42718.354      188.72979      184.87305      376.2818     
     60900  -42971.686      276.22622     -42695.46       188.70883      184.85108      376.42608    
     61000  -42949.588      275.7886      -42673.799      188.69083      184.83289      376.57036    
     61100  -42926.526      275.20287     -42651.324      188.67494      184.81801      376.71464    
     61200  -42906.382      277.93435     -42628.448      188.65415      184.797        376.85892    
     61300  -42878.014      275.22237     -42602.792      188.63439      184.77759      377.0032     
     61400  -42854.22       277.49636     -42576.724      188.61887      184.76314      377.14748    
     61500  -42828.639      274.4358      -42554.203      188.5985       184.74289      377.29176    
     61600  -42810.489      275.1845      -42535.304      188.57816      184.72381      377.43604    
     61700  -42784.071      277.23788     -42506.833      188.5627       184.70979      377.58032    
     61800  -42757.342      279.14712     -42478.195      188.54088      184.68943      377.7246     
     61900  -42733.325      280.7567      -42452.569      188.51842      184.66893      377.86888    
     62000  -42705.748      273.30127     -42432.447      188.50339      184.65586      378.01316    
     62100  -42684.476      275.66942     -42408.807      188.48274      184.63791      378.15744    
     62200  -42660.336      276.77595     -42383.561      188.45819      184.61647      378.30172    
     62300  -42638.088      280.76393     -42357.324      188.44024      184.60149      378.446      
     62400  -42612.188      275.51382     -42336.674      188.42087      184.58578      378.59028    
     62500  -42587.341      274.2734      -42313.067      188.39652      184.56493      378.73456    
     62600  -42563.641      278.7386      -42284.903      188.37556      184.54788      378.87884    
     62700  -42533.733      276.46986     -42257.263      188.35643      184.53245      379.02312    
     62800  -42514.466      276.85104     -42237.615      188.33345      184.51294      379.1674     
     62900  -42491.419      278.64191     -42212.777      188.31189      184.4954       379.31168    
     63000  -42463.514      277.16214     -42186.352      188.29214      184.4793       379.45596    
     63100  -42437.731      275.64601     -42162.085      188.26992      184.46085      379.60024    
     63200  -42416.5        276.83432     -42139.666      188.24695      184.44184      379.74452    
     63300  -42388.506      275.90066     -42112.605      188.22903      184.42684      379.8888     
     63400  -42362.122      277.30041     -42084.822      188.20708      184.40882      380.03308    
     63500  -42337.689      279.73711     -42057.951      188.18379      184.38837      380.17736    
     63600  -42308.479      276.14616     -42032.333      188.16539      184.37293      380.32164    
     63700  -42283.039      275.11934     -42007.919      188.14459      184.35566      380.46592    
     63800  -42259.125      278.10482     -41981.02       188.12136      184.33483      380.6102     
     63900  -42232.285      278.25216     -41954.033      188.10222      184.31814      380.75448    
     64000  -42210.572      280.0921      -41930.48       188.08183      184.30086      380.89876    
     64100  -42179.763      274.46098     -41905.302      188.05963      184.28076      381.04303    
     64200  -42153.593      276.05345     -41877.54       188.03942      184.26273      381.18731    
     64300  -42131.007      279.95659     -41851.051      188.01955      184.24547      381.33159    
     64400  -42104.371      279.23699     -41825.134      187.9969       184.22503      381.47587    
     64500  -42076.815      279.74177     -41797.073      187.97518      184.20507      381.62015    
     64600  -42051.831      281.46727     -41770.364      187.95606      184.1883       381.76443    
     64700  -42026.273      279.91076     -41746.362      187.9345       184.16817      381.90871    
     64800  -41995.943      276.11009     -41719.833      187.91313      184.14717      382.05299    
     64900  -41974.623      281.7999      -41692.823      187.89341      184.12859      382.19727    
     65000  -41947.619      281.16923     -41666.45       187.87287      184.10858      382.34155    
     65100  -41921.864      282.75799     -41639.106      187.85286      184.08801      382.48583    
     65200  -41892.253      280.42775     -41611.825      187.83389      184.06838      382.63011    
     65300  -41865.235      279.71848     -41585.517      187.8138       184.04807      382.77439    
     65400  -41835.651      277.06932     -41558.582      187.79398      184.02693      382.91867    
     65500  -41807.627      277.42762     -41530.2        187.77619      184.00715      383.06295    
     65600  -41781.448      278.83101     -41502.617      187.75716      183.98609      383.20723    
     65700  -41755.775      281.10078     -41474.674      187.73799      183.96515      383.35151    
     65800  -41722.938      276.25299     -41446.685      187.72028      183.9447       383.49579    
     65900  -41701.105      282.15932     -41418.946      187.70182      183.92289      383.64007    
     66000  -41669.549      278.3449      -41391.204      187.68266      183.90174      383.78435    
     66100  -41639.161      276.18125     -41362.979      187.66461      183.88105      383.92863    
     66200  -41612.678      278.09389     -41334.584      187.64719      183.85982      384.07291    
     66300  -41586.556      280.092       -41306.464      187.62728      183.83738      384.21719    
     66400  -41554.992      277.34098     -41277.651      187.60928      183.8166       384.36147    
     66500  -41526.876      277.21008     -41249.666      187.59151      183.79517      384.50575    
     66600  -41501.707      279.79703     -41221.91       187.57264      183.77305      384.65003    
     66700  -41471.655      279.23531     -41192.42       187.55497      183.75218      384.79431    
     66800  -41440.468      277.09589     -41163.372      187.53589      183.72983      384.93859    
     66900  -41411.28       275.74716     -41135.533      187.51735      183.70781      385.08287    
     67000  -41384.474      278.19825     -41106.276      187.50108      183.68835      385.22715    
     67100  -41356.13       278.86355     -41077.267      187.48278      183.66673      385.37143    
     67200  -41328.434      280.28689     -41048.147      187.46356      183.64393      385.51571    
     67300  -41300.934      281.49464     -41019.439      187.44711      183.62396      385.65999    
     67400  -41267.883      276.91581     -40990.968      187.42863      183.60287      385.80427    
     67500  -41240.985      280.55712     -40960.428      187.41043      183.5809       385.94855    
     67600  -41207.747      277.71997     -40930.027      187.39484      183.5616       386.09283    
     67700  -41177.52       278.16866     -40899.352      187.37641      183.54063      386.23711    
     67800  -41148.716      280.82613     -40867.89       187.35782      183.51928      386.38139    
     67900  -41115.823      278.82463     -40836.998      187.34101      183.49937      386.52567    
     68000  -41085.232      278.34564     -40806.887      187.32324      183.4797       386.66995    
     68100  -41054.44       277.8635      -40776.576      187.30428      183.45865      386.81423    
     68200  -41022.81       276.66492     -40746.145      187.28723      183.43938      386.95851    
     68300  -40992.022      276.7824      -40715.239      187.26902      183.41976      387.10279    
     68400  -40962.509      278.80893     -40683.7        187.24886      183.39896      387.24707    
     68500  -40934.29       280.60626     -40653.684      187.23204      183.38136      387.39135    
     68600  -40905.058      282.30765     -40622.75       187.21384      183.36209      387.53563    
     68700  -40871.167      279.27669     -40591.891      187.19304      183.34129      387.67991    
     68800  -40842.698      280.75027     -40561.947      187.17602      183.32419      387.82419    
     68900  -40808.691      279.63653     -40529.055      187.15818      183.3061       387.96847    
     69000  -40776.196      278.57926     -40497.617      187.13801      183.28619      388.11275    
     69100  -40745.227      278.28678     -40466.94       187.12095      183.26956      388.25703    
     69200  -40713.47       278.94577     -40434.524      187.10372      183.25243      388.40131    
     69300  -40684.557      282.5369      -40402.02       187.08232      183.2317       388.54559    
     69400  -40649.178      279.87729     -40369.301      187.06526      183.21551      388.68987    
     69500  -40616.545      279.89367     -40336.651      187.0496       183.20072      388.83415    
     69600  -40588.341      283.02489     -40305.316      187.02859      183.18016      388.97843    
     69700  -40555.252      282.51148     -40272.741      187.01066      183.16342      389.12271    
     69800  -40521.524      280.39852     -40241.125      186.99587      183.15034      389.26699    
     69900  -40486.584      278.20763     -40208.376      186.97502      183.131        389.41127    
     70000  -40455.519      281.06694     -40174.452      186.95606      183.1134       389.55555    
     70100  -40419.776      280.00413     -40139.772      186.94074      183.10076      389.69982    
     70200  -40389.852      284.19154     -40105.66       186.92098      183.08344      389.8441     
     70300  -40350.926      278.43017     -40072.496      186.90052      183.06484      389.98838    
     70400  -40319.944      281.23001     -40038.714      186.88547      183.05205      390.13266    
     70500  -40286.695      281.95926     -40004.736      186.86674      183.0369       390.27694    
     70600  -40253.616      281.98445     -39971.632      186.84587      183.019        390.42122    
     70700  -40219.155      281.43995     -39937.715      186.83049      183.0058       390.5655     
     70800  -40185.646      282.01954     -39903.626      186.81251      182.99116      390.70978    
     70900  -40149.914      279.62425     -39870.29       186.79212      182.97438      390.85406    
     71000  -40117.292      281.49927     -39835.793      186.77577      182.96007      390.99834    
     71100  -40083.282      282.97396     -39800.308      186.75991      182.94682      391.14262    
     71200  -40047.331      282.93999     -39764.391      186.74034      182.93101      391.2869     
     71300  -40014.407      284.64071     -39729.766      186.72339      182.91662      391.43118    
     71400  -39977.336      281.83258     -39695.504      186.7085       182.9039       391.57546    
     71500  -39946.137      285.3825      -39660.755      186.68938      182.88793      391.71974    
     71600  -39910.291      285.80334     -39624.488      186.67239      182.87406      391.86402    
     71700  -39876.831      287.42103     -39589.41       186.65737      182.86107      392.0083     
     71800  -39841.221      288.0533      -39553.168      186.63931      182.84574      392.15258    
     71900  -39800.625      283.8249      -39516.8        186.62216      182.83179      392.29686    
     72000  -39766.705      286.66735     -39480.037      186.60756      182.81921      392.44114    
     72100  -39728.366      284.08155     -39444.284      186.59078      182.80418      392.58542    
     72200  -39697.086      287.29725     -39409.789      186.57348      182.78995      392.7297     
     72300  -39660.987      288.1637      -39372.823      186.55844      182.77721      392.87398    
     72400  -39623.868      288.00643     -39335.861      186.54249      182.76261      393.01826    
     72500  -39584          286.12584     -39297.874      186.5258       182.74801      393.16254    
     72600  -39549.637      291.43156     -39258.205      186.51112      182.73524      393.30682    
     72700  -39513.379      289.06893     -39224.31       186.49617      182.72144      393.4511     
     72800  -39476.178      291.62974     -39184.549      186.48016      182.70657      393.59538    
     72900  -39437.691      291.80221     -39145.889      186.4655       182.69336      393.73966    
     73000  -39401.476      291.67537     -39109.801      186.45112      182.67975      393.88394    
     73100  -39365.839      292.45482     -39073.385      186.43625      182.66542      394.02822    
     73200  -39326.43       286.29061     -39040.14       186.42221      182.65237      394.1725     
     73300  -39290.345      289.01826     -39001.326      186.40755      182.63813      394.31678    
     73400  -39250.409      289.55863     -38960.85       186.39314      182.62379      394.46106    
     73500  -39213.588      293.79003     -38919.798      186.37969      182.61089      394.60534    
     73600  -39173.044      289.17158     -38883.872      186.36548      182.59716      394.74962    
     73700  -39137.6        293.63341     -38843.966      186.35101      182.58214      394.8939     
     73800  -39100.146      296.06735     -38804.079      186.33811      182.56933      395.03818    
     73900  -39056.956      291.67067     -38765.285      186.32452      182.55581      395.18246    
     74000  -39022.601      299.58374     -38723.017      186.30958      182.54031      395.32674    
     74100  -38977.698      297.31965     -38680.378      186.2967       182.52685      395.47102    
     74200  -38940.887      296.47989     -38644.407      186.28419      182.51421      395.6153     
     74300  -38903.442      299.53528     -38603.907      186.27004      182.49946      395.75958    
     74400  -38860.68       300.87359     -38559.806      186.2566       182.48499      395.90386    
     74500  -38819.481      300.11517     -38519.366      186.24415      182.47212      396.04814    
     74600  -38783.04       303.01308     -38480.027      186.23068      182.45776      396.19242    
     74700  -38745.253      305.72734     -38439.525      186.2174       182.44331      396.3367     
     74800  -38705.472      304.79071     -38400.681      186.2052       182.43033      396.48098    
     74900  -38664.282      305.73362     -38358.549      186.19178      182.41608      396.62526    
     75000  -38619.445      305.80593     -38313.639      186.17856      182.40149      396.76954    
     75100  -38578.631      305.0411      -38273.589      186.16617      182.38809      396.91382    
     75200  -38536.328      304.10724     -38232.22       186.1532       182.37426      397.0581     
     75300  -38498.171      309.33876     -38188.832      186.13981      182.35957      397.20238    
     75400  -38458.133      306.36345     -38151.77       186.1275       182.34601      397.34666    
     75500  -38418.037      308.76042     -38109.276      186.11462      182.33219      397.49094    
     75600  -38382.54       313.51487     -38069.025      186.10108      182.31744      397.63522    
     75700  -38337.101      310.77152     -38026.33       186.08852      182.30354      397.7795     
     75800  -38295.574      314.23147     -37981.342      186.07613      182.28994      397.92378    
     75900  -38250.07       311.67588     -37938.394      186.0623       182.27506      398.06806    
     76000  -38209.689      317.69551     -37891.993      186.04915      182.26066      398.21233    
     76100  -38165.71       321.77344     -37843.936      186.03702      182.24728      398.35661    
     76200  -38122.17       324.13894     -37798.031      186.02336      182.23255      398.50089    
     76300  -38076.129      328.06979     -37748.059      186.01001      182.21792      398.64517    
     76400  -38027.734      326.6098      -37701.124      185.99756      182.20421      398.78945    
     76500  -37984.656      326.14471     -37658.511      185.98395      182.18955      398.93373    
     76600  -37952.239      336.6153      -37615.624      185.97031      182.17474      399.07801    
     76700  -37908.536      331.59693     -37576.939      185.95776      182.16084      399.22229    
     76800  -37862.219      325.33745     -37536.881      185.94411      182.14636      399.36657    
     76900  -37816.227      324.59091     -37491.637      185.93016      182.13129      399.51085    
     77000  -37777.081      333.4632      -37443.617      185.91703      182.11673      399.65513    
     77100  -37725.938      338.85231     -37387.085      185.90303      182.1022       399.79941    
     77200  -37675.665      340.61332     -37335.051      185.88886      182.08706      399.94369    
     77300  -37631.005      341.65554     -37289.35       185.87513      182.07183      400.08797    
     77400  -37583.998      343.50082     -37240.497      185.86116      182.05746      400.23225    
     77500  -37541.823      350.91214     -37190.911      185.84712      182.04253      400.37653    
     77600  -37487.694      340.92223     -37146.772      185.8328       182.02692      400.52081    
     77700  -37448.908      348.85634     -37100.052      185.81849      182.01218      400.66509    
     77800  -37405.561      349.73708     -37055.824      185.80445      181.99734      400.80937    
     77900  -37353.554      349.34959     -37004.205      185.78982      181.98172      400.95365    
     78000  -37307.388      350.98178     -36956.407      185.77499      181.96626      401.09793    
     78100  -37256.425      351.19787     -36905.227      185.76045      181.95123      401.24221    
     78200  -37217.344      363.05237     -36854.291      185.7459       181.93585      401.38649    
     78300  -37171.428      371.30022     -36800.128      185.73049      181.91993      401.53077    
     78400  -37274.037      490.51187     -36783.525      185.71593      181.90456      401.67505    
     78500  -37902.669      971.77828     -36930.89       185.70205      181.89239      401.81933    
     78600  -39417.86       1678.6626     -37739.198      185.70239      181.88867      401.96361    
     78700  -41543.378      2152.7645     -39390.614      185.71891      181.90203      402.10789    
     78800  -43697.268      2003.0773     -41694.191      185.76471      181.95113      402.25217    
     78900  -45533.56       1761.3809     -43772.179      185.81456      182.00181      402.39645    
     79000  -47267.283      1565.3679     -45701.915      185.87993      182.07104      402.54073    
     79100  -48526.579      1243.8402     -47282.739      185.97773      182.17163      402.68501    
     79200  -49295.464      926.046       -48369.418      186.06536      182.2689       402.82929    
     79300  -49865.961      742.49681     -49123.465      186.14071      182.35381      402.97357    
     79400  -50384.077      669.9004      -49714.177      186.22096      182.43962      403.11785    
     79500  -50868.498      627.33779     -50241.16       186.29487      182.51865      403.26213    
     79600  -51266.291      554.75362     -50711.537      186.35709      182.58893      403.40641    
     79700  -51504.25       443.71377     -51060.536      186.42751      182.67191      403.55069    
     79800  -51639.953      348.90085     -51291.052      186.50215      182.75926      403.69497    
     79900  -51697.696      271.84919     -51425.847      186.57564      182.84404      403.83925    
     80000  -51682.417      208.12644     -51474.29       186.6564       182.9348       403.98353    
     80100  -51613.379      186.0931      -51427.286      186.72478      183.00892      404.12781    
     80200  -51512.988      174.81497     -51338.173      186.78324      183.07049      404.27209    
     80300  -51457.503      212.96966     -51244.533      186.8485       183.14033      404.41637    
     80400  -51464.987      321.82269     -51143.164      186.89088      183.18045      404.56065    
     80500  -51475.427      338.20696     -51137.22       186.91846      183.20951      404.70493    
     80600  -51502.993      278.08996     -51224.903      186.96044      183.25692      404.84921    
     80700  -51542.533      259.33831     -51283.195      187.0185       183.32618      404.99349    
     80800  -51563.719      260.91074     -51302.808      187.07156      183.39222      405.13777    
     80900  -51575.504      278.6155      -51296.888      187.11135      183.44339      405.28205    
     81000  -51566.745      273.22272     -51293.522      187.15647      183.49652      405.42633    
     81100  -51564.15       275.23349     -51288.917      187.19653      183.54546      405.57061    
     81200  -51561.735      278.76877     -51282.966      187.23886      183.60064      405.71489    
     81300  -51565.196      282.168       -51283.028      187.27544      183.64911      405.85917    
     81400  -51560.678      268.4369      -51292.241      187.30858      183.69172      406.00345    
     81500  -51571.09       277.31019     -51293.779      187.34094      183.7345       406.14773    
     81600  -51571.013      278.07596     -51292.937      187.37381      183.78448      406.29201    
     81700  -51570.07       272.71263     -51297.358      187.40786      183.84157      406.43629    
     81800  -51557.786      263.88242     -51293.904      187.42495      183.87876      406.58057    
     81900  -51539.261      270.26151     -51268.999      187.44722      183.92027      406.72484    
     82000  -51510.547      277.74822     -51232.799      187.47426      183.96903      406.86912    
     82100  -51488.448      284.85879     -51203.59       187.49198      184.01203      407.0134     
     82200  -51473.887      282.31757     -51191.569      187.51372      184.05368      407.15768    
     82300  -51462.993      272.32811     -51190.665      187.534        184.08707      407.30196    
     82400  -51476.577      282.65122     -51193.926      187.55966      184.12703      407.44624    
     82500  -51477.771      276.03254     -51201.738      187.58399      184.16157      407.59052    
     82600  -51482.61       276.76611     -51205.844      187.59975      184.18847      407.7348     
     82700  -51478.8        274.77129     -51204.029      187.62486      184.21937      407.87908    
     82800  -51475.364      277.24373     -51198.121      187.64722      184.23603      408.02336    
     82900  -51475.552      279.71235     -51195.839      187.68008      184.25704      408.16764    
     83000  -51487.768      282.58181     -51205.186      187.72424      184.27761      408.31192    
     83100  -51497.279      272.43102     -51224.848      187.76122      184.28604      408.4562     
     83200  -51509.876      271.69184     -51238.184      187.80326      184.29716      408.60048    
     83300  -51521.205      281.3557      -51239.849      187.85242      184.3161       408.74476    
     83400  -51521.968      281.16197     -51240.806      187.89565      184.328        408.88904    
     83500  -51523.372      277.11935     -51246.253      187.93602      184.3402       409.03332    
     83600  -51526.161      276.29661     -51249.864      187.97568      184.35627      409.1776     
     83700  -51523.563      274.72665     -51248.836      188.01336      184.3718       409.32188    
     83800  -51527.945      278.61491     -51249.33       188.04711      184.38922      409.46616    
     83900  -51534.81       278.38463     -51256.426      188.0815       184.40288      409.61044    
     84000  -51537.054      270.1832      -51266.871      188.11298      184.41663      409.75472    
     84100  -51542.646      272.79082     -51269.856      188.13742      184.42948      409.899      
     84200  -51541.991      279.40641     -51262.584      188.16054      184.44735      410.04328    
     84300  -51536.098      279.52175     -51256.577      188.18711      184.46701      410.18756    
     84400  -51536.769      280.87281     -51255.896      188.21817      184.48832      410.33184    
     84500  -51536.236      273.71923     -51262.516      188.24718      184.51028      410.47612    
     84600  -51545.359      276.83417     -51268.525      188.27166      184.5299       410.6204     
     84700  -51543.733      273.07933     -51270.654      188.29739      184.55293      410.76468    
     84800  -51537.27       271.19492     -51266.075      188.32231      184.57386      410.90896    
     84900  -51529.796      275.69816     -51254.098      188.33858      184.58421      411.05324    
     85000  -51522.421      282.71914     -51239.702      188.36222      184.59908      411.19752    
     85100  -51522.356      285.91041     -51236.445      188.38427      184.61616      411.3418     
     85200  -51532.804      281.05004     -51251.754      188.40482      184.63693      411.48608    
     85300  -51543.173      271.93187     -51271.241      188.42468      184.6485       411.63036    
     85400  -51548.798      267.92218     -51280.876      188.44295      184.6572       411.77464    
     85500  -51548.328      274.64862     -51273.68       188.45768      184.66465      411.91892    
     85600  -51545.846      286.78705     -51259.059      188.47957      184.66875      412.0632     
     85700  -51541.483      285.04349     -51256.44       188.49828      184.67311      412.20748    
     85800  -51549.321      278.39318     -51270.927      188.51325      184.67767      412.35176    
     85900  -51556.937      269.91193     -51287.025      188.53875      184.68702      412.49604    
     86000  -51558.026      271.6088      -51286.417      188.5539       184.68525      412.64032    
     86100  -51551.342      278.98479     -51272.357      188.56855      184.68912      412.7846     
     86200  -51545.38       283.74249     -51261.637      188.58979      184.69844      412.92888    
     86300  -51540.647      278.54017     -51262.107      188.60156      184.69449      413.07316    
     86400  -51541.769      275.73487     -51266.034      188.62464      184.69555      413.21744    
     86500  -51537.289      270.55625     -51266.733      188.65231      184.70311      413.36172    
     86600  -51535.99       275.97462     -51260.015      188.66137      184.69645      413.506      
     86700  -51534.621      283.73673     -51250.885      188.68598      184.70336      413.65028    
     86800  -51532.664      282.84729     -51249.816      188.71136      184.70897      413.79456    
     86900  -51539.809      280.14285     -51259.666      188.7202       184.70712      413.93884    
     87000  -51551.569      277.37565     -51274.193      188.73889      184.7262       414.08312    
     87100  -51555.946      271.03169     -51284.914      188.75627      184.7511       414.2274     
     87200  -51558.771      273.52451     -51285.247      188.75467      184.76472      414.37168    
     87300  -51550.325      273.04407     -51277.281      188.75874      184.78575      414.51596    
     87400  -51551.575      283.95274     -51267.622      188.75519      184.80272      414.66024    
     87500  -51553.642      284.30197     -51269.34       188.74518      184.81774      414.80452    
     87600  -51552.076      273.20478     -51278.871      188.7436       184.84236      414.9488     
     87700  -51555.114      271.61503     -51283.499      188.74174      184.86752      415.09308    
     87800  -51556.058      277.52828     -51278.53       188.73914      184.88936      415.23736    
     87900  -51552.676      281.36971     -51271.307      188.73812      184.91864      415.38163    
     88000  -51550.699      280.31118     -51270.387      188.73167      184.94089      415.52591    
     88100  -51548.587      274.62516     -51273.962      188.72308      184.95255      415.67019    
     88200  -51553.013      277.60643     -51275.407      188.7277       184.97434      415.81447    
     88300  -51553.843      276.99179     -51276.852      188.74088      184.99461      415.95875    
     88400  -51556.987      277.32462     -51279.662      188.74854      185.00772      416.10303    
     88500  -51555.775      273.96177     -51281.814      188.75534      185.02134      416.24731    
     88600  -51554.958      274.61802     -51280.34       188.7656       185.03132      416.39159    
     88700  -51557.079      278.13448     -51278.944      188.77035      185.03519      416.53587    
     88800  -51557.465      276.946       -51280.519      188.77629      185.04453      416.68015    
     88900  -51551.641      273.58531     -51278.055      188.78191      185.04827      416.82443    
     89000  -51546.379      276.24416     -51270.134      188.78973      185.04554      416.96871    
     89100  -51543.016      281.68692     -51261.329      188.80685      185.05154      417.11299    
     89200  -51547.989      286.56621     -51261.422      188.82651      185.06162      417.25727    
     89300  -51548.266      275.43091     -51272.836      188.83435      185.05996      417.40155    
     89400  -51558.563      274.04862     -51284.515      188.84424      185.06152      417.54583    
     89500  -51552.222      266.33744     -51285.884      188.85685      185.06284      417.69011    
     89600  -51550.172      275.05122     -51275.12       188.86378      185.05552      417.83439    
     89700  -51541.907      279.92538     -51261.982      188.88083      185.05007      417.97867    
     89800  -51540.79       281.29885     -51259.491      188.89831      185.04324      418.12295    
     89900  -51547.791      278.13956     -51269.651      188.90753      185.02888      418.26723    
     90000  -51555.07       272.63018     -51282.44       188.9222       185.02006      418.41151    
     90100  -51560.888      275.35813     -51285.53       188.93509      185.00939      418.55579    
     90200  -51555.222      275.20094     -51280.021      188.94064      184.99417      418.70007    
     90300  -51551.03       278.67001     -51272.36       188.95439      184.98966      418.84435    
     90400  -51550.817      280.63706     -51270.18       188.9642       184.97948      418.98863    
     90500  -51553.192      279.74816     -51273.444      188.96711      184.96646      419.13291    
     90600  -51553.69       276.2758      -51277.414      188.97228      184.96097      419.27719    
     90700  -51555.873      276.40548     -51279.468      188.97054      184.95625      419.42147    
     90800  -51555.733      276.62681     -51279.107      188.96664      184.95469      419.56575    
     90900  -51551.178      274.81155     -51276.367      188.95917      184.95427      419.71003    
     91000  -51552.741      279.4647      -51273.277      188.94854      184.95632      419.85431    
     91100  -51554.858      280.68708     -51274.171      188.9383       184.96425      419.99859    
     91200  -51560.57       280.31244     -51280.257      188.92543      184.97612      420.14287    
     91300  -51565.186      275.92457     -51289.261      188.90348      184.98821      420.28715    
     91400  -51565.398      271.28911     -51294.109      188.87581      184.99988      420.43143    
     91500  -51562.747      271.93071     -51290.817      188.84494      185.01185      420.57571    
     91600  -51558.773      278.85387     -51279.919      188.81431      185.02246      420.71999    
     91700  -51553.69       283.35555     -51270.335      188.78944      185.03598      420.86427    
     91800  -51552.746      280.48891     -51272.257      188.76425      185.04939      421.00855    
     91900  -51557.03       274.80256     -51282.228      188.73578      185.05646      421.15283    
     92000  -51559.427      270.49195     -51288.936      188.71062      185.06033      421.29711    
     92100  -51558.322      275.33435     -51282.987      188.68818      185.06612      421.44139    
     92200  -51550.679      281.79928     -51268.88       188.6698       185.07654      421.58567    
     92300  -51545.617      284.99373     -51260.624      188.65074      185.08129      421.72995    
     92400  -51548.831      280.06623     -51268.765      188.63245      185.08835      421.87423    
     92500  -51561.04       274.80125     -51286.239      188.61432      185.09379      422.01851    
     92600  -51564.713      267.81444     -51296.899      188.59872      185.09539      422.16279    
     92700  -51560.893      269.88456     -51291.008      188.58415      185.10109      422.30707    
     92800  -51551.625      276.3365      -51275.289      188.5696       185.10137      422.45135    
     92900  -51548.322      283.33783     -51264.985      188.56089      185.09683      422.59563    
     93000  -51553.672      285.11638     -51268.555      188.55521      185.09717      422.73991    
     93100  -51553.356      272.75859     -51280.597      188.54284      185.09504      422.88419    
     93200  -51557.578      270.98836     -51286.59       188.52736      185.09149      423.02847    
     93300  -51555.848      273.64253     -51282.206      188.51647      185.09242      423.17275    
     93400  -51551.822      277.61429     -51274.208      188.50703      185.09092      423.31703    
     93500  -51552.573      282.25736     -51270.316      188.49554      185.08354      423.46131    
     93600  -51553.931      278.00838     -51275.923      188.48815      185.07944      423.60559    
     93700  -51559.384      273.7012      -51285.682      188.48049      185.07527      423.74987    
     93800  -51563.096      272.26698     -51290.829      188.47092      185.07069      423.89414    
     93900  -51566.575      275.77093     -51290.804      188.46267      185.06554      424.03842    
     94000  -51561.536      277.65905     -51283.877      188.45343      185.05883      424.1827     
     94100  -51556.525      278.7898      -51277.735      188.44555      185.05148      424.32698    
     94200  -51555.119      278.47995     -51276.639      188.43729      185.04712      424.47126    
     94300  -51557.781      277.39864     -51280.382      188.42402      185.04145      424.61554    
     94400  -51559.936      275.33673     -51284.6        188.40907      185.03567      424.75982    
     94500  -51558.809      275.05287     -51283.756      188.39678      185.03005      424.9041     
     94600  -51559.629      280.6218      -51279.007      188.38622      185.02839      425.04838    
     94700  -51554.313      278.52342     -51275.79       188.37003      185.02527      425.19266    
     94800  -51554.55       276.4281      -51278.122      188.3466       185.01748      425.33694    
     94900  -51561.458      279.10773     -51282.351      188.32838      185.0157       425.48122    
     95000  -51556.99       271.9653      -51285.025      188.31448      185.01528      425.6255     
     95100  -51558.377      273.55323     -51284.824      188.29615      185.00657      425.76978    
     95200  -51554.541      274.58493     -51279.956      188.27716      184.99841      425.91406    
     95300  -51553.393      278.89901     -51274.494      188.25915      184.99488      426.05834    
     95400  -51549.825      277.09052     -51272.735      188.24045      184.99129      426.20262    
     95500  -51553.224      276.84228     -51276.381      188.22297      184.98801      426.3469     
     95600  -51558          275.39343     -51282.607      188.20373      184.98433      426.49118    
     95700  -51558.498      273.30138     -51285.197      188.18294      184.97972      426.63546    
     95800  -51558.233      276.19968     -51282.034      188.16155      184.9775       426.77974    
     95900  -51556.64       280.32897     -51276.311      188.14032      184.97409      426.92402    
     96000  -51549.626      276.96497     -51272.661      188.11794      184.96743      427.0683     
     96100  -51553.471      276.99942     -51276.472      188.09556      184.96301      427.21258    
     96200  -51555.442      272.43483     -51283.007      188.07093      184.95945      427.35686    
     96300  -51563.373      278.33289     -51285.04       188.04851      184.95389      427.50114    
     96400  -51558.866      276.59349     -51282.273      188.03026      184.9487       427.64542    
     96500  -51556.934      279.42397     -51277.51       188.00863      184.94127      427.7897     
     96600  -51553.089      277.83463     -51275.254      187.98284      184.93385      427.93398    
     96700  -51556.832      279.60353     -51277.229      187.95769      184.92634      428.07826    
     96800  -51551.397      270.92964     -51280.468      187.93664      184.91997      428.22254    
     96900  -51559.579      277.55494     -51282.024      187.9148       184.91379      428.36682    
     97000  -51556.576      276.00453     -51280.572      187.89118      184.90383      428.5111     
     97100  -51553.743      275.34813     -51278.395      187.86788      184.89433      428.65538    
     97200  -51558.547      280.53247     -51278.015      187.84253      184.8886       428.79966    
     97300  -51559.871      279.33893     -51280.532      187.81944      184.88193      428.94394    
     97400  -51561.82       274.15139     -51287.669      187.79487      184.87349      429.08822    
     97500  -51566.664      274.67463     -51291.99       187.77055      184.86963      429.2325     
     97600  -51562.852      272.61894     -51290.233      187.74468      184.8628       429.37678    
     97700  -51557.523      274.56592     -51282.957      187.72174      184.85646      429.52106    
     97800  -51556.028      279.9999      -51276.028      187.69878      184.85225      429.66534    
     97900  -51561.333      285.0533      -51276.28       187.67427      184.84515      429.80962    
     98000  -51560.141      276.56091     -51283.58       187.64792      184.83797      429.9539     
     98100  -51562.437      270.97897     -51291.458      187.62157      184.83364      430.09818    
     98200  -51565.908      274.13675     -51291.771      187.59727      184.82842      430.24246    
     98300  -51561.461      278.22567     -51283.235      187.57015      184.81824      430.38674    
     98400  -51557.864      282.97965     -51274.885      187.54624      184.80792      430.53102    
     98500  -51559.94       281.70887     -51278.231      187.52518      184.80036      430.6753     
     98600  -51564.496      273.70272     -51290.794      187.50505      184.78969      430.81958    
     98700  -51568.384      266.6397      -51301.744      187.48364      184.77812      430.96386    
     98800  -51570.439      268.92513     -51301.514      187.4649       184.76862      431.10814    
     98900  -51567.189      276.2205      -51290.968      187.44392      184.75468      431.25242    
     99000  -51559.354      281.51131     -51277.842      187.4223       184.74094      431.3967     
     99100  -51559.778      283.71666     -51276.061      187.40276      184.72825      431.54098    
     99200  -51561.505      276.96753     -51284.538      187.38466      184.71189      431.68526    
     99300  -51569.062      273.59701     -51295.465      187.36861      184.69719      431.82954    
     99400  -51571.925      273.55332     -51298.372      187.3509       184.68235      431.97382    
     99500  -51564.924      273.91665     -51291.008      187.33248      184.66845      432.1181     
     99600  -51559.235      279.28159     -51279.953      187.31282      184.65656      432.26238    
     99700  -51557.783      281.95702     -51275.826      187.29202      184.6429       432.40666    
     99800  -51565.2        280.59794     -51284.602      187.27067      184.62887      432.55093    
     99900  -51567.447      270.85773     -51296.589      187.25014      184.61793      432.69521    
    100000  -51569.811      271.7747      -51298.036      187.22729      184.60669      432.83949    
Loop time of 33581 on 12 procs for 100000 steps with 7140 atoms

Performance: 0.257 ns/day, 93.280 hours/ns, 2.978 timesteps/s, 21.262 katom-step/s
39.1% CPU use with 12 MPI tasks x 1 OpenMP threads

MPI task timing breakdown:
Section |  min time  |  avg time  |  max time  |%varavg| %total
---------------------------------------------------------------
Pair    | 1673.9     | 1864.4     | 2163.2     | 299.1 |  5.55
Neigh   | 7.7794     | 8.703      | 10.511     |  29.9 |  0.03
Comm    | 4757.1     | 5333       | 5674.5     | 345.6 | 15.88
Output  | 100.49     | 103.3      | 105.96     |  17.9 |  0.31
Modify  | 23070      | 23328      | 23599      | 117.9 | 69.47
Other   |            | 2943       |            |       |  8.76

Nlocal:            595 ave         775 max         465 min
Histogram: 2 2 2 2 0 0 0 1 1 2
Nghost:        2147.58 ave        2433 max        1953 min
Histogram: 4 0 0 3 1 0 1 1 1 1
Neighs:              0 ave           0 max           0 min
Histogram: 12 0 0 0 0 0 0 0 0 0

Total # of neighbors = 0
Ave neighs/atom = 0
Neighbor list builds = 505
Dangerous builds = 0
Total wall time: 9:19:53
