LAMMPS (2 Aug 2023 - Update 3)
OMP_NUM_THREADS environment is not set. Defaulting to 1 thread. (src/comm.cpp:98)
  using 1 OpenMP thread(s) per MPI task

# 1------general---------------
units                             metal      #单位为lammps 中的metel 类型
dimension                    3          #模拟的维度 三维
boundary                    p p p      #周期边界条件
atom_style                  atomic   #原子类型自动
atom_modify              map array sort 100 2.0
neighbor                    3.0 bin
neigh_modify            every 1 delay 0 check yes
#2 -----global variable-------定义全局变量，方便统一修改；
variable temperature equal 300
variable tstep equal 0.001
variable pressure equal 0
variable thermalstep equal 100
variable dumpstep equal 1000
variable relaxtime equal 0
variable totaltime equal 100000
variable deformrate equal 5e-3
#3 -------model------------
#box tilt large
read_data     1.lmp
Reading data file ...
  orthogonal box = (-100 -100 -2.3312515) to (100 100 46.166171)
  4 by 8 by 1 MPI processor grid
  reading atoms ...
  1480 atoms
  read_data CPU = 0.005 seconds
replicate 1 1 3
Replication is creating a 1x1x3 = 3 times larger system...
  orthogonal box = (-100 -100 -2.3312515) to (100 100 143.16102)
  4 by 4 by 2 MPI processor grid
  4440 atoms
  replicate CPU = 0.002 seconds
write_data z.data
System init for write_data ...
WARNING: Communication cutoff is 0.0. No ghost atoms will be generated. Atoms may get lost. (src/comm_brick.cpp:210)
pair_style hybrid airebo 3.0 airebo 3.0 airebo 3.0 lj/cut 10
pair_coeff * * airebo 1 CH.airebo C NULL NULL
Reading airebo potential file CH.airebo with DATE: 2011-10-25
pair_coeff * * airebo 2 CH.airebo NULL C NULL
Reading airebo potential file CH.airebo with DATE: 2011-10-25
pair_coeff * * airebo 3 CH.airebo NULL NULL C
Reading airebo potential file CH.airebo with DATE: 2011-10-25
pair_coeff 1 2 lj/cut 0.00456 3.431
pair_coeff 1 3 lj/cut 0.00456 3.431
pair_coeff 2 3 lj/cut 0.00456 3.431

# 5------minimize -----------
min_style      sd
minimize       1.0e-4 1.0e-6 100 1000
Neighbor list info ...
  update: every = 1 steps, delay = 0 steps, check = yes
  max neighbors/atom: 2000, page size: 100000
  master list distance cutoff = 13.2
  ghost atom cutoff = 13.2
  binsize = 6.6, bins = 31 31 23
  6 neighbor lists, perpetual/occasional/extra = 6 0 0
  (1) pair airebo, perpetual, skip from (5)
      attributes: full, newton on, ghost
      pair build: skip/ghost
      stencil: none
      bin: none
  (2) pair airebo, perpetual, skip from (5)
      attributes: full, newton on, ghost
      pair build: skip/ghost
      stencil: none
      bin: none
  (3) pair airebo, perpetual, skip from (5)
      attributes: full, newton on, ghost
      pair build: skip/ghost
      stencil: none
      bin: none
  (4) pair lj/cut, perpetual, skip from (6)
      attributes: half, newton on, cut 13
      pair build: skip
      stencil: none
      bin: none
  (5) neighbor class addition, perpetual
      attributes: full, newton on, ghost
      pair build: full/bin/ghost
      stencil: full/ghost/bin/3d
      bin: standard
  (6) neighbor class addition, perpetual
      attributes: half, newton on, cut 13
      pair build: half/bin/atomonly/newton
      stencil: half/bin/3d
      bin: standard
Per MPI rank memory allocation (min/avg/max) = 9.716 | 10.14 | 11.57 Mbytes
   Step          Temp          E_pair         E_mol          TotEng         Press     
         0   0             -32223.048      0             -32223.048      378.42796    
         4   0             -32302.762      0             -32302.762      50.287364    
Loop time of 0.0539678 on 32 procs for 4 steps with 4440 atoms

97.2% CPU use with 32 MPI tasks x 1 OpenMP threads

Minimization stats:
  Stopping criterion = energy tolerance
  Energy initial, next-to-last, final = 
     -32223.0475265565  -32300.7919306616  -32302.7624525476
  Force two-norm initial, final = 92.368723 14.799454
  Force max component initial, final = 3.434546 0.53009031
  Final line search alpha, max atom move = 0.13584282 0.072008965
  Iterations, force evaluations = 4 8

MPI task timing breakdown:
Section |  min time  |  avg time  |  max time  |%varavg| %total
---------------------------------------------------------------
Pair    | 3.688e-06  | 0.012567   | 0.052778   |  19.4 | 23.29
Neigh   | 0          | 0          | 0          |   0.0 |  0.00
Comm    | 1.993e-06  | 0.00082386 | 0.0050911  |   0.0 |  1.53
Output  | 0          | 0          | 0          |   0.0 |  0.00
Modify  | 0          | 0          | 0          |   0.0 |  0.00
Other   |            | 0.04058    |            |       | 75.19

Nlocal:         138.75 ave         592 max           0 min
Histogram: 24 0 0 0 0 0 0 0 2 6
Nghost:            613 ave        2490 max           0 min
Histogram: 24 0 0 0 0 0 0 0 0 8
Neighs:              0 ave           0 max           0 min
Histogram: 32 0 0 0 0 0 0 0 0 0

Total # of neighbors = 0
Ave neighs/atom = 0
Neighbor list builds = 0
Dangerous builds = 0
#6----define computes------
variable nums equal count(all) #计算原子数目
variable toval equal 18.7166*18.7166*lz #计算系统总体积，单层石墨烯厚度为0.335nm
variable vol equal ${toval} #体系的初始体积
variable vol equal 50967.5590587456 
variable vatom equal v_vol/v_nums #单个原子体积
compute 1 all stress/atom NULL #计算体系中单原子应力
compute xalls all reduce sum c_1[1]
variable xstress equal (c_xalls)/(v_toval*10000)
compute yalls all reduce sum c_1[2]
variable ystress equal (c_yalls)/(v_toval*10000)
compute zalls all reduce sum c_1[3]
variable zstress equal (c_zalls)/(v_toval*10000)
#7---------relaxation-------------------------
timestep ${tstep}
timestep 0.001
velocity all create ${temperature} 231743 units box dist gaussian
velocity all create 300 231743 units box dist gaussian
dump   1 all atom 100 all-cy.lammpstrj
#fix    1 all npt temp 300 300  0.1 aniso 0 0 10 drag 1  #三个方向独立控压
fix  1 all npt temp ${temperature} ${temperature} 0.1 x ${pressure} ${pressure} 10 y ${pressure} ${pressure} 10
fix  1 all npt temp 300 ${temperature} 0.1 x ${pressure} ${pressure} 10 y ${pressure} ${pressure} 10
fix  1 all npt temp 300 300 0.1 x ${pressure} ${pressure} 10 y ${pressure} ${pressure} 10
fix  1 all npt temp 300 300 0.1 x 0 ${pressure} 10 y ${pressure} ${pressure} 10
fix  1 all npt temp 300 300 0.1 x 0 0 10 y ${pressure} ${pressure} 10
fix  1 all npt temp 300 300 0.1 x 0 0 10 y 0 ${pressure} 10
fix  1 all npt temp 300 300 0.1 x 0 0 10 y 0 0 10
compute  2 all pe/atom
compute  pe all reduce sum c_2
variable PE equal "c_pe"
fix    pe all print 100 "${PE} " file PE.txt screen no
thermo  ${thermalstep}
thermo  100
#thermo_style  custom step pe ke etotal lx ly lz
run   ${relaxtime}
run   0
Per MPI rank memory allocation (min/avg/max) = 10.34 | 10.77 | 12.19 Mbytes
   Step          Temp          E_pair         E_mol          TotEng         Press          Volume    
         4   300           -32302.762      0             -32130.627      81.880317      5819690.8    
Loop time of 4.05151e-05 on 32 procs for 0 steps with 4440 atoms

98.6% CPU use with 32 MPI tasks x 1 OpenMP threads

MPI task timing breakdown:
Section |  min time  |  avg time  |  max time  |%varavg| %total
---------------------------------------------------------------
Pair    | 0          | 0          | 0          |   0.0 |  0.00
Neigh   | 0          | 0          | 0          |   0.0 |  0.00
Comm    | 0          | 0          | 0          |   0.0 |  0.00
Output  | 0          | 0          | 0          |   0.0 |  0.00
Modify  | 0          | 0          | 0          |   0.0 |  0.00
Other   |            | 4.052e-05  |            |       |100.00

Nlocal:         138.75 ave         566 max           0 min
Histogram: 24 0 0 0 0 0 0 0 0 8
Nghost:            613 ave        2462 max           0 min
Histogram: 24 0 0 0 0 0 0 0 0 8
Neighs:              0 ave           0 max           0 min
Histogram: 32 0 0 0 0 0 0 0 0 0

Total # of neighbors = 0
Ave neighs/atom = 0
Neighbor list builds = 0
Dangerous builds = 0
#8 -------tension-----------------------------
unfix  1
undump  1
unfix  pe
reset_timestep 0
fix avestress all ave/atom 1 ${dumpstep} ${dumpstep} c_1[1] c_1[2] c_1[3] c_1[4] c_1[5] c_1[6]
fix avestress all ave/atom 1 1000 ${dumpstep} c_1[1] c_1[2] c_1[3] c_1[4] c_1[5] c_1[6]
fix avestress all ave/atom 1 1000 1000 c_1[1] c_1[2] c_1[3] c_1[4] c_1[5] c_1[6]

#-----calculation of strain and Cumulative compression--------
variable                tmp equal "lz"
variable                L0 equal ${tmp}
variable                L0 equal 145.492269
variable                strain equal "(lz - v_L0)/v_L0"
variable                Cumulativels equal "(lz - v_L0)/10"
fix Step all print 100 "${strain} ${Cumulativels} ${zstress}" file grapoten.txt screen no

dump 2 all custom ${dumpstep} tension.xyz type x y z f_avestress[1] f_avestress[2] f_avestress[3] f_avestress[4] f_avestress[5] f_avestress[6]
dump 2 all custom 1000 tension.xyz type x y z f_avestress[1] f_avestress[2] f_avestress[3] f_avestress[4] f_avestress[5] f_avestress[6]

fix  1 all npt temp ${temperature} ${temperature} 0.1 y ${pressure} ${pressure} 10 x ${pressure} ${pressure} 10
fix  1 all npt temp 300 ${temperature} 0.1 y ${pressure} ${pressure} 10 x ${pressure} ${pressure} 10
fix  1 all npt temp 300 300 0.1 y ${pressure} ${pressure} 10 x ${pressure} ${pressure} 10
fix  1 all npt temp 300 300 0.1 y 0 ${pressure} 10 x ${pressure} ${pressure} 10
fix  1 all npt temp 300 300 0.1 y 0 0 10 x ${pressure} ${pressure} 10
fix  1 all npt temp 300 300 0.1 y 0 0 10 x 0 ${pressure} 10
fix  1 all npt temp 300 300 0.1 y 0 0 10 x 0 0 10

thermo_style custom step pe ke etotal lx ly lz
fix   2 all deform 1 z erate ${deformrate} remap x units box
fix   2 all deform 1 z erate 0.005 remap x units box
fix   3 all ave/time 2 500 1000 v_xstress v_ystress v_zstress file pressure.out
run   ${totaltime}
run   100000
WARNING: Dump 2 includes no atom IDs and is not sorted by ID. This may complicate post-processing tasks or visualization (src/dump.cpp:221)
Per MPI rank memory allocation (min/avg/max) = 11.84 | 12.27 | 13.69 Mbytes
   Step         PotEng         KinEng         TotEng           Lx             Ly             Lz      
         0  -32302.762      172.13574     -32130.627      200            200            145.49227    
       100  -32204.472      88.411534     -32116.06       200.00586      199.99108      145.56502    
       200  -32210.367      114.99257     -32095.374      200.0202       199.97842      145.63776    
       300  -32191.366      120.4089      -32070.958      200.05096      199.96951      145.71051    
       400  -32181.482      136.81706     -32044.665      200.07174      199.94546      145.78325    
       500  -32171.433      153.22738     -32018.205      200.11523      199.93906      145.856      
       600  -32164.786      170.95811     -31993.828      200.16064      199.92652      145.92875    
       700  -32153.221      177.72173     -31975.499      200.18521      199.89174      146.00149    
       800  -32144.196      176.81515     -31967.381      200.24374      199.86903      146.07424    
       900  -32150.117      177.03303     -31973.084      200.27996      199.82151      146.14698    
      1000  -32153.213      167.72549     -31985.488      200.31631      199.77609      146.21973    
      1100  -32156.531      165.06819     -31991.463      200.36828      199.7431       146.29248    
      1200  -32157.028      170.06775     -31986.961      200.38784      199.70701      146.36522    
      1300  -32153.9        176.49464     -31977.405      200.41262      199.68428      146.43797    
      1400  -32152.021      179.71232     -31972.309      200.43673      199.67405      146.51071    
      1500  -32149.053      174.45426     -31974.598      200.42409      199.66395      146.58346    
      1600  -32151.832      172.67569     -31979.157      200.42497      199.67536      146.65621    
      1700  -32145.589      167.66675     -31977.922      200.41288      199.69894      146.72895    
      1800  -32145.202      172.06927     -31973.133      200.39123      199.73325      146.8017     
      1900  -32141.38       170.8798      -31970.5        200.37501      199.7819       146.87445    
      2000  -32143.316      170.57524     -31972.741      200.32622      199.82664      146.94719    
      2100  -32142.819      165.3009      -31977.518      200.28628      199.88342      147.01994    
      2200  -32146.036      168.53397     -31977.502      200.24214      199.93412      147.09268    
      2300  -32141.654      170.32744     -31971.326      200.19884      199.97852      147.16543    
      2400  -32139.59       176.37018     -31963.22       200.16635      200.01718      147.23818    
      2500  -32134.783      174.40021     -31960.383      200.13903      200.04732      147.31092    
      2600  -32138.996      175.69258     -31963.304      200.10981      200.066        147.38367    
      2700  -32140.502      171.72624     -31968.776      200.09606      200.08688      147.45641    
      2800  -32141.248      171.44854     -31969.799      200.07926      200.10211      147.52916    
      2900  -32135.388      171.47094     -31963.917      200.06433      200.11381      147.60191    
      3000  -32126.203      170.43729     -31955.765      200.06226      200.1234       147.67465    
      3100  -32126.543      174.87907     -31951.664      200.0567       200.11991      147.7474     
      3200  -32126.744      173.56448     -31953.18       200.06535      200.11618      147.82015    
      3300  -32129.335      171.47041     -31957.865      200.07196      200.10488      147.89289    
      3400  -32131.863      170.70315     -31961.16       200.07964      200.09366      147.96564    
      3500  -32130.47       170.57031     -31959.9        200.08449      200.08237      148.03838    
      3600  -32126.74       172.79949     -31953.94       200.08592      200.07326      148.11113    
      3700  -32123.327      175.96543     -31947.361      200.08052      200.06777      148.18388    
      3800  -32120.422      175.34209     -31945.08       200.06874      200.06648      148.25662    
      3900  -32118.193      170.75194     -31947.441      200.05706      200.07666      148.32937    
      4000  -32118.181      168.23831     -31949.943      200.0413       200.09238      148.40211    
      4100  -32115.787      166.83136     -31948.956      200.02581      200.11587      148.47486    
      4200  -32114.244      169.79829     -31944.446      200.00383      200.14442      148.54761    
      4300  -32111.7        172.98899     -31938.711      199.9724       200.17796      148.62035    
      4400  -32110.079      174.85818     -31935.221      199.93748      200.21229      148.6931     
      4500  -32109.159      172.3604      -31936.799      199.89916      200.24597      148.76585    
      4600  -32108.619      169.8285      -31938.79       199.86814      200.27692      148.83859    
      4700  -32110.307      174.3932      -31935.914      199.84133      200.30234      148.91134    
      4800  -32101.07       171.55846     -31929.512      199.81757      200.32258      148.98408    
      4900  -32100.424      176.9264      -31923.498      199.80053      200.33829      149.05683    
      5000  -32097.021      175.10179     -31921.919      199.78123      200.35063      149.12958    
      5100  -32099.062      173.44703     -31925.615      199.76173      200.36072      149.20232    
      5200  -32102.554      174.01601     -31928.538      199.7466       200.37038      149.27507    
      5300  -32096.203      168.8585      -31927.344      199.72758      200.37159      149.34781    
      5400  -32090.26       169.4093      -31920.851      199.71383      200.37216      149.42056    
      5500  -32090.641      177.02621     -31913.614      199.70312      200.37069      149.49331    
      5600  -32086.741      175.04678     -31911.694      199.68852      200.36604      149.56605    
      5700  -32085.543      171.42469     -31914.118      199.68595      200.36608      149.6388     
      5800  -32082.83       167.67511     -31915.155      199.68182      200.36838      149.71154    
      5900  -32079.064      167.4314      -31911.633      199.66694      200.37053      149.78429    
      6000  -32077.364      172.96546     -31904.399      199.65545      200.37859      149.85704    
      6100  -32074.878      175.42921     -31899.449      199.63928      200.38862      149.92978    
      6200  -32075.049      174.63411     -31900.414      199.61414      200.3978       150.00253    
      6300  -32072.636      170.61991     -31902.016      199.59696      200.41308      150.07528    
      6400  -32071.144      172.01258     -31899.132      199.57157      200.42705      150.14802    
      6500  -32064.495      170.7308      -31893.765      199.54332      200.44325      150.22077    
      6600  -32063.364      175.53297     -31887.831      199.51497      200.4623       150.29351    
      6700  -32062.037      176.07683     -31885.96       199.48389      200.48335      150.36626    
      6800  -32060.299      171.47764     -31888.821      199.45136      200.50681      150.43901    
      6900  -32057.704      171.99374     -31885.711      199.41819      200.53019      150.51175    
      7000  -32051.034      171.16809     -31879.866      199.38379      200.5488       150.5845     
      7100  -32050.421      175.91715     -31874.504      199.35345      200.56119      150.65724    
      7200  -32045.293      172.17934     -31873.113      199.33621      200.5735       150.72999    
      7300  -32046.219      170.68086     -31875.538      199.31691      200.58385      150.80274    
      7400  -32041.833      169.11386     -31872.719      199.29779      200.5935       150.87548    
      7500  -32039.674      172.04143     -31867.633      199.27655      200.60241      150.94823    
      7600  -32036.385      174.00129     -31862.384      199.24815      200.60459      151.02098    
      7700  -32032.119      173.62979     -31858.489      199.22688      200.60951      151.09372    
      7800  -32032.564      174.09299     -31858.471      199.20715      200.61263      151.16647    
      7900  -32030.293      171.16754     -31859.125      199.18185      200.61244      151.23921    
      8000  -32024.921      168.73426     -31856.187      199.16801      200.61716      151.31196    
      8100  -32020.956      172.23273     -31848.723      199.14891      200.62143      151.38471    
      8200  -32016.313      174.15212     -31842.161      199.12798      200.62493      151.45745    
      8300  -32012.772      172.92744     -31839.845      199.11508      200.63196      151.5302     
      8400  -32011.939      172.48875     -31839.45       199.09152      200.63203      151.60294    
      8500  -32008.371      169.59083     -31838.781      199.06384      200.63342      151.67569    
      8600  -32005.83       169.37226     -31836.457      199.0392       200.63876      151.74844    
      8700  -32001.112      168.92338     -31832.189      199.00863      200.64658      151.82118    
      8800  -32000.033      172.69118     -31827.342      198.98179      200.65898      151.89393    
      8900  -31995.099      174.05656     -31821.042      198.95441      200.67397      151.96667    
      9000  -31989.816      173.66288     -31816.153      198.91591      200.68744      152.03942    
      9100  -31987.965      172.21343     -31815.752      198.88436      200.70778      152.11217    
      9200  -31984.229      167.40863     -31816.821      198.85235      200.72806      152.18491    
      9300  -31985.006      172.77653     -31812.229      198.8082       200.7404       152.25766    
      9400  -31975.059      170.08349     -31804.976      198.77479      200.75392      152.33041    
      9500  -31972.684      172.59943     -31800.085      198.74444      200.76359      152.40315    
      9600  -31970.504      172.66106     -31797.843      198.71026      200.76604      152.4759     
      9700  -31970.237      174.35267     -31795.884      198.68846      200.77091      152.54864    
      9800  -31961.851      169.56622     -31792.284      198.66058      200.77165      152.62139    
      9900  -31959.556      172.11404     -31787.442      198.62483      200.7733       152.69414    
     10000  -31953.915      170.0285      -31783.887      198.59493      200.77964      152.76688    
     10100  -31957.441      171.64237     -31785.798      198.56177      200.78186      152.83963    
     10200  -31950.945      167.19397     -31783.751      198.53458      200.78384      152.91237    
     10300  -31947.328      171.34695     -31775.981      198.51725      200.79247      152.98512    
     10400  -31941.549      173.16025     -31768.389      198.48116      200.79698      153.05787    
     10500  -31936.942      173.28072     -31763.662      198.44138      200.80613      153.13061    
     10600  -31932.645      172.96779     -31759.677      198.4075       200.81873      153.20336    
     10700  -31930.399      174.16562     -31756.233      198.36427      200.82358      153.27611    
     10800  -31927.121      172.83167     -31754.289      198.32993      200.82715      153.34885    
     10900  -31922.299      169.82366     -31752.476      198.29986      200.82932      153.4216     
     11000  -31921.325      174.04832     -31747.277      198.26036      200.82845      153.49434    
     11100  -31909.022      171.04678     -31737.976      198.22646      200.83625      153.56709    
     11200  -31904.052      171.50891     -31732.543      198.18266      200.84333      153.63984    
     11300  -31903.316      173.8729      -31729.443      198.13624      200.8477       153.71258    
     11400  -31901.229      172.82104     -31728.408      198.10524      200.85855      153.78533    
     11500  -31899.616      171.27833     -31728.338      198.06025      200.8673       153.85807    
     11600  -31895.765      172.11603     -31723.648      198.01469      200.87954      153.93082    
     11700  -31886.456      170.50118     -31715.954      197.97074      200.89341      154.00357    
     11800  -31881.836      173.5342      -31708.302      197.91751      200.90196      154.07631    
     11900  -31876.089      172.36748     -31703.721      197.87335      200.91251      154.14906    
     12000  -31875.412      173.72039     -31701.692      197.82643      200.9187       154.22181    
     12100  -31872.726      170.39033     -31702.336      197.77778      200.92356      154.29455    
     12200  -31866.091      168.93248     -31697.158      197.73438      200.93008      154.3673     
     12300  -31860.246      170.67473     -31689.571      197.68433      200.93353      154.44004    
     12400  -31855.693      171.73798     -31683.955      197.63855      200.93968      154.51279    
     12500  -31850.856      171.44815     -31679.408      197.58868      200.94636      154.58554    
     12600  -31845.636      170.80855     -31674.828      197.53407      200.95112      154.65828    
     12700  -31843.299      172.67385     -31670.625      197.48596      200.95554      154.73103    
     12800  -31836.324      170.16096     -31666.163      197.44083      200.95768      154.80377    
     12900  -31830.781      170.7083      -31660.072      197.40198      200.96273      154.87652    
     13000  -31824.887      172.43073     -31652.456      197.35362      200.96458      154.94927    
     13100  -31820.48       173.51677     -31646.963      197.2996       200.9661       155.02201    
     13200  -31820.863      173.86347     -31647          197.24756      200.9687       155.09476    
     13300  -31815.94       170.80057     -31645.14       197.18514      200.96824      155.1675     
     13400  -31808.381      169.69361     -31638.687      197.1285       200.97308      155.24025    
     13500  -31805.758      174.50027     -31631.257      197.07713      200.98224      155.313      
     13600  -31798.595      174.83875     -31623.756      197.01397      200.98857      155.38574    
     13700  -31793.277      175.06701     -31618.21       196.9534       200.99675      155.45849    
     13800  -31791.623      174.30115     -31617.322      196.89181      201.00428      155.53124    
     13900  -31786.603      171.14014     -31615.463      196.82877      201.00932      155.60398    
     14000  -31781.561      171.76872     -31609.792      196.76946      201.01772      155.67673    
     14100  -31775.929      175.04575     -31600.883      196.70702      201.02729      155.74947    
     14200  -31765.328      172.19643     -31593.132      196.63349      201.03441      155.82222    
     14300  -31760.586      171.46572     -31589.121      196.561        201.04374      155.89497    
     14400  -31760.386      169.48267     -31590.904      196.49284      201.05267      155.96771    
     14500  -31757.16       170.63909     -31586.52       196.42295      201.0588       156.04046    
     14600  -31747.627      169.79686     -31577.831      196.35957      201.06716      156.1132     
     14700  -31743.494      174.07034     -31569.424      196.29341      201.07363      156.18595    
     14800  -31734.542      171.43868     -31563.103      196.22526      201.07619      156.2587     
     14900  -31734.476      175.11311     -31559.363      196.15811      201.07477      156.33144    
     15000  -31729.752      170.41403     -31559.338      196.08923      201.06908      156.40419    
     15100  -31723.983      170.18656     -31553.797      196.02177      201.06192      156.47694    
     15200  -31715.963      170.91327     -31545.049      195.95804      201.05881      156.54968    
     15300  -31708.873      170.37362     -31538.499      195.88295      201.05587      156.62243    
     15400  -31705.767      172.88039     -31532.886      195.80126      201.05583      156.69517    
     15500  -31701.378      174.06261     -31527.315      195.72601      201.06313      156.76792    
     15600  -31694.758      174.47276     -31520.285      195.64896      201.0734       156.84067    
     15700  -31689.427      176.59407     -31512.833      195.56779      201.08631      156.91341    
     15800  -31678.877      169.72104     -31509.156      195.48635      201.10284      156.98616    
     15900  -31678.162      171.5367      -31506.625      195.39001      201.11569      157.0589     
     16000  -31672.283      170.57353     -31501.709      195.29945      201.1285       157.13165    
     16100  -31665.737      172.81947     -31492.918      195.21995      201.13893      157.2044     
     16200  -31658.895      175.78589     -31483.109      195.12917      201.14007      157.27714    
     16300  -31652.219      173.37309     -31478.845      195.0497       201.14233      157.34989    
     16400  -31646.194      169.38732     -31476.807      194.96992      201.14284      157.42264    
     16500  -31642.757      170.95187     -31471.805      194.88261      201.13946      157.49538    
     16600  -31637.092      171.72792     -31465.364      194.80421      201.14401      157.56813    
     16700  -31632.947      174.01399     -31458.933      194.71719      201.14625      157.64087    
     16800  -31627.845      174.47852     -31453.367      194.63001      201.14703      157.71362    
     16900  -31617.508      169.33897     -31448.169      194.55232      201.14858      157.78637    
     17000  -31612.782      171.46027     -31441.322      194.46716      201.14202      157.85911    
     17100  -31609.537      177.10105     -31432.436      194.39298      201.13779      157.93186    
     17200  -31599.995      173.96165     -31426.033      194.31961      201.13316      158.0046     
     17300  -31595.444      172.36029     -31423.084      194.23443      201.12422      158.07735    
     17400  -31591.096      170.49957     -31420.596      194.15741      201.12289      158.1501     
     17500  -31584.599      170.46114     -31414.138      194.06955      201.12371      158.22284    
     17600  -31578.292      175.02464     -31403.268      193.97358      201.12683      158.29559    
     17700  -31570.93       174.96976     -31395.96       193.88738      201.1365       158.36833    
     17800  -31566.971      174.83391     -31392.137      193.79075      201.13887      158.44108    
     17900  -31560.954      171.65007     -31389.303      193.70372      201.14527      158.51383    
     18000  -31555.61       171.15504     -31384.455      193.62133      201.15351      158.58657    
     18100  -31546.419      169.97628     -31376.442      193.52958      201.15846      158.65932    
     18200  -31537.761      173.40238     -31364.358      193.44639      201.16681      158.73207    
     18300  -31533.322      174.24897     -31359.073      193.35823      201.17337      158.80481    
     18400  -31530.505      173.80154     -31356.703      193.26306      201.1765       158.87756    
     18500  -31521.914      169.69191     -31352.222      193.17796      201.18187      158.9503     
     18600  -31517.711      172.18054     -31345.531      193.09234      201.18038      159.02305    
     18700  -31510.198      172.18136     -31338.017      193.01586      201.17749      159.0958     
     18800  -31504.992      174.9602      -31330.031      192.94631      201.17494      159.16854    
     18900  -31497.319      173.43564     -31323.884      192.86711      201.16655      159.24129    
     19000  -31490.122      168.62893     -31321.493      192.79622      201.16247      159.31403    
     19100  -31487.344      170.35029     -31316.994      192.71993      201.15557      159.38678    
     19200  -31483.42       175.34992     -31308.07       192.64092      201.14709      159.45953    
     19300  -31474.906      177.8901      -31297.016      192.56938      201.14263      159.53227    
     19400  -31465.915      175.51366     -31290.401      192.49082      201.13553      159.60502    
     19500  -31459.527      173.29469     -31286.232      192.42152      201.13197      159.67777    
     19600  -31452.244      170.25527     -31281.989      192.35666      201.12908      159.75051    
     19700  -31447.754      170.99281     -31276.761      192.28878      201.12867      159.82326    
     19800  -31441.382      171.30912     -31270.073      192.22226      201.13421      159.896      
     19900  -31433.412      172.76416     -31260.647      192.14037      201.13885      159.96875    
     20000  -31424.345      173.1355      -31251.21       192.0635       201.14622      160.0415     
     20100  -31416.431      171.67127     -31244.759      191.99621      201.15484      160.11424    
     20200  -31408.224      167.07389     -31241.15       191.91778      201.15423      160.18699    
     20300  -31407.783      169.08782     -31238.695      191.85352      201.15745      160.25973    
     20400  -31405.214      172.35324     -31232.86       191.79098      201.1582       160.33248    
     20500  -31394.522      172.35337     -31222.169      191.72011      201.15143      160.40523    
     20600  -31384.499      172.86065     -31211.639      191.6668       201.15264      160.47797    
     20700  -31376.432      171.53134     -31204.901      191.60816      201.15224      160.55072    
     20800  -31372.1        172.32221     -31199.778      191.54137      201.14813      160.62346    
     20900  -31366.766      170.01348     -31196.753      191.49114      201.14794      160.69621    
     21000  -31363.04       170.92916     -31192.111      191.43303      201.1398       160.76896    
     21100  -31353.803      170.89885     -31182.904      191.38213      201.13402      160.8417     
     21200  -31341.139      170.8417      -31170.297      191.34013      201.13238      160.91445    
     21300  -31338.948      175.66745     -31163.281      191.28283      201.12077      160.9872     
     21400  -31332.531      172.61902     -31159.911      191.23828      201.11378      161.05994    
     21500  -31330.516      174.79104     -31155.725      191.19636      201.10868      161.13269    
     21600  -31318.985      170.68797     -31148.297      191.14343      201.10019      161.20543    
     21700  -31307.403      171.46474     -31135.938      191.1025       201.09828      161.27818    
     21800  -31300.387      173.24878     -31127.139      191.05728      201.09375      161.35093    
     21900  -31293.366      170.427       -31122.939      191.00842      201.08733      161.42367    
     22000  -31289.407      171.13362     -31118.273      190.96866      201.08768      161.49642    
     22100  -31282.466      170.29331     -31112.173      190.9205       201.08734      161.56916    
     22200  -31276.916      172.05165     -31104.865      190.86892      201.08782      161.64191    
     22300  -31266.055      172.73899     -31093.316      190.82444      201.09226      161.71466    
     22400  -31259.324      175.24519     -31084.079      190.77812      201.09504      161.7874     
     22500  -31254.771      173.79513     -31080.976      190.73529      201.09922      161.86015    
     22600  -31247.726      171.04465     -31076.682      190.69572      201.10154      161.9329     
     22700  -31236.56       167.85305     -31068.707      190.65775      201.10103      162.00564    
     22800  -31230.907      172.41616     -31058.491      190.62187      201.10031      162.07839    
     22900  -31223.942      175.43152     -31048.511      190.58314      201.09663      162.15113    
     23000  -31215.237      173.04565     -31042.192      190.54589      201.09087      162.22388    
     23100  -31207.684      171.40069     -31036.283      190.51394      201.08444      162.29663    
     23200  -31204.83       173.87519     -31030.955      190.48365      201.07755      162.36937    
     23300  -31195.753      170.60107     -31025.152      190.45233      201.06897      162.44212    
     23400  -31186.909      170.17426     -31016.734      190.42808      201.06126      162.51486    
     23500  -31177.328      172.6525      -31004.676      190.40466      201.05103      162.58761    
     23600  -31171.397      174.48198     -30996.915      190.38034      201.03855      162.66036    
     23700  -31165.97       172.57907     -30993.391      190.35683      201.02753      162.7331     
     23800  -31160.115      171.10183     -30989.013      190.32892      201.01802      162.80585    
     23900  -31152.84       171.92491     -30980.915      190.2997       201.00956      162.8786     
     24000  -31143.977      173.0809      -30970.897      190.27412      201.00453      162.95134    
     24100  -31132.486      172.00156     -30960.484      190.2451       201.0014       163.02409    
     24200  -31128.651      175.10725     -30953.544      190.21706      201.00218      163.09683    
     24300  -31120.646      167.9393      -30952.707      190.18766      201.00518      163.16958    
     24400  -31114.033      168.11202     -30945.921      190.15364      201.0068       163.24233    
     24500  -31106.462      171.66508     -30934.797      190.12073      201.00982      163.31507    
     24600  -31095.815      171.72061     -30924.095      190.08714      201.01138      163.38782    
     24700  -31086.966      170.9213      -30916.045      190.05972      201.01363      163.46056    
     24800  -31082.042      172.71283     -30909.329      190.03465      201.01438      163.53331    
     24900  -31078.454      172.37466     -30906.079      190.0105       201.01271      163.60606    
     25000  -31068.168      167.73001     -30900.438      189.98844      201.01036      163.6788     
     25100  -31060.977      172.00716     -30888.97       189.96197      201.00421      163.75155    
     25200  -31050.768      172.50098     -30878.267      189.94135      200.99959      163.82429    
     25300  -31044.55       174.31271     -30870.238      189.92004      200.98917      163.89704    
     25400  -31033.879      170.5388      -30863.341      189.89838      200.97566      163.96979    
     25500  -31027.329      169.34642     -30857.983      189.88352      200.96456      164.04253    
     25600  -31025.247      170.77713     -30854.47       189.86704      200.95246      164.11528    
     25700  -31015.542      169.1578      -30846.385      189.85117      200.94032      164.18803    
     25800  -31001.967      169.12852     -30832.838      189.83924      200.92964      164.26077    
     25900  -30996.819      173.22931     -30823.589      189.82218      200.92055      164.33352    
     26000  -30986.303      170.35389     -30815.949      189.80107      200.91349      164.40626    
     26100  -30980.242      171.14727     -30809.095      189.78097      200.90953      164.47901    
     26200  -30975.153      171.29583     -30803.857      189.7572       200.90474      164.55176    
     26300  -30964.109      165.76446     -30798.344      189.72997      200.90104      164.6245     
     26400  -30957.059      169.41354     -30787.645      189.70761      200.90154      164.69725    
     26500  -30948.515      173.6423      -30774.872      189.68174      200.90294      164.76999    
     26600  -30942.742      176.18135     -30766.561      189.65511      200.90508      164.84274    
     26700  -30936.759      175.37834     -30761.381      189.63737      200.91075      164.91549    
     26800  -30927.323      170.38068     -30756.942      189.61358      200.91282      164.98823    
     26900  -30918.985      169.97167     -30749.014      189.58985      200.91199      165.06098    
     27000  -30908.901      169.19377     -30739.707      189.5741       200.90952      165.13373    
     27100  -30901.277      170.97046     -30730.307      189.55064      200.8991       165.20647    
     27200  -30892.387      172.02768     -30720.359      189.53214      200.88754      165.27922    
     27300  -30883.827      173.3721      -30710.455      189.52202      200.87751      165.35196    
     27400  -30873.608      174.69108     -30698.917      189.50313      200.86187      165.42471    
     27500  -30864.446      173.17618     -30691.27       189.48985      200.84792      165.49746    
     27600  -30861.544      172.6739      -30688.87       189.47669      200.83471      165.5702     
     27700  -30851.539      169.2737      -30682.265      189.45762      200.81975      165.64295    
     27800  -30845.378      171.60056     -30673.777      189.44841      200.81223      165.71569    
     27900  -30833.585      170.71344     -30662.871      189.42961      200.80443      165.78844    
     28000  -30825.685      175.41355     -30650.271      189.40542      200.79821      165.86119    
     28100  -30817.381      174.69648     -30642.685      189.39125      200.79853      165.93393    
     28200  -30808.642      171.2375      -30637.404      189.36638      200.79485      166.00668    
     28300  -30801.775      171.08254     -30630.693      189.34018      200.79414      166.07943    
     28400  -30796.639      172.87988     -30623.759      189.31872      200.79766      166.15217    
     28500  -30786.749      169.59664     -30617.153      189.29223      200.79661      166.22492    
     28600  -30781.15       171.92952     -30609.22       189.27058      200.79665      166.29766    
     28700  -30771.04       173.50089     -30597.539      189.25117      200.79491      166.37041    
     28800  -30760.065      173.95867     -30586.107      189.22556      200.78822      166.44316    
     28900  -30751.312      172.70563     -30578.607      189.20539      200.77979      166.5159     
     29000  -30745.209      170.42845     -30574.78       189.19167      200.76924      166.58865    
     29100  -30737.45       169.49743     -30567.953      189.17974      200.75675      166.66139    
     29200  -30730.192      171.67741     -30558.514      189.16815      200.74647      166.73414    
     29300  -30719.239      170.89534     -30548.344      189.14774      200.73389      166.80689    
     29400  -30710.238      172.49087     -30537.747      189.12648      200.72212      166.87963    
     29500  -30701.07       173.00468     -30528.065      189.10656      200.70799      166.95238    
     29600  -30693.303      173.16695     -30520.136      189.09001      200.69424      167.02512    
     29700  -30688.051      171.84476     -30516.206      189.07879      200.684        167.09787    
     29800  -30677.497      168.1926      -30509.305      189.06102      200.67259      167.17062    
     29900  -30668.639      171.11958     -30497.519      189.04323      200.66686      167.24336    
     30000  -30657.704      172.27413     -30485.43       189.01875      200.66379      167.31611    
     30100  -30652.565      175.03107     -30477.534      188.98786      200.659        167.38886    
     30200  -30645.455      174.08737     -30471.367      188.96686      200.6601       167.4616     
     30300  -30636.099      171.03728     -30465.061      188.93782      200.65848      167.53435    
     30400  -30628.092      169.64662     -30458.445      188.90951      200.65696      167.60709    
     30500  -30619.998      170.66183     -30449.336      188.8908       200.65819      167.67984    
     30600  -30607.689      171.79127     -30435.898      188.86389      200.65274      167.75259    
     30700  -30596.567      172.07737     -30424.489      188.84182      200.64734      167.82533    
     30800  -30588.417      173.00275     -30415.415      188.82502      200.64182      167.89808    
     30900  -30582.312      172.04743     -30410.265      188.8005       200.62936      167.97082    
     31000  -30575.156      169.46709     -30405.689      188.78386      200.61999      168.04357    
     31100  -30565.332      169.24863     -30396.084      188.76522      200.60945      168.11632    
     31200  -30556.996      171.51035     -30385.486      188.74101      200.59499      168.18906    
     31300  -30546.651      171.59005     -30375.061      188.72722      200.583        168.26181    
     31400  -30536.516      172.07352     -30364.442      188.70733      200.56536      168.33456    
     31500  -30530.27       174.61547     -30355.655      188.68534      200.54753      168.4073     
     31600  -30523.178      171.73233     -30351.446      188.67206      200.53599      168.48005    
     31700  -30514.448      168.5078      -30345.94       188.65139      200.52298      168.55279    
     31800  -30503.277      169.23184     -30334.045      188.62878      200.51204      168.62554    
     31900  -30495.718      173.93008     -30321.788      188.6088       200.50543      168.69829    
     32000  -30486.362      174.34058     -30312.021      188.58287      200.49863      168.77103    
     32100  -30478.964      175.71629     -30303.248      188.55525      200.49193      168.84378    
     32200  -30465.845      169.1448      -30296.7        188.53001      200.4861       168.91652    
     32300  -30460.797      168.61948     -30292.177      188.50059      200.47831      168.98927    
     32400  -30449.112      166.6263      -30282.486      188.47836      200.47382      169.06202    
     32500  -30441.65       172.84679     -30268.804      188.45915      200.46908      169.13476    
     32600  -30433.962      175.41144     -30258.551      188.43332      200.46126      169.20751    
     32700  -30423.896      174.30372     -30249.592      188.41073      200.45528      169.28025    
     32800  -30413.418      171.38738     -30242.031      188.38535      200.44652      169.353      
     32900  -30405.293      168.67681     -30236.616      188.35515      200.4318       169.42575    
     33000  -30396.47       167.14129     -30229.328      188.33545      200.4192       169.49849    
     33100  -30386.314      170.81554     -30215.498      188.3117       200.40253      169.57124    
     33200  -30377.778      173.94043     -30203.837      188.2897       200.38437      169.64399    
     33300  -30370.262      175.14208     -30195.12       188.27692      200.36901      169.71673    
     33400  -30360.147      171.92485     -30188.222      188.25338      200.35017      169.78948    
     33500  -30354.131      171.30204     -30182.829      188.22707      200.33319      169.86222    
     33600  -30343.98       167.75515     -30176.224      188.20615      200.32219      169.93497    
     33700  -30337.281      174.7193      -30162.562      188.17559      200.30743      170.00772    
     33800  -30322.5        172.43027     -30150.07       188.14985      200.29602      170.08046    
     33900  -30312.336      171.95913     -30140.377      188.12681      200.28893      170.15321    
     34000  -30300.319      169.6994      -30130.619      188.09469      200.27823      170.22595    
     34100  -30295.192      172.60505     -30122.587      188.07248      200.27133      170.2987     
     34200  -30289.205      171.61676     -30117.588      188.04644      200.26308      170.37145    
     34300  -30276.86       166.45403     -30110.406      188.01192      200.25193      170.44419    
     34400  -30267.597      169.98796     -30097.609      187.9865       200.24664      170.51694    
     34500  -30258.169      173.36353     -30084.805      187.95657      200.23806      170.58969    
     34600  -30248.968      172.94378     -30076.024      187.92104      200.22543      170.66243    
     34700  -30241.702      172.42117     -30069.281      187.89702      200.21712      170.73518    
     34800  -30230.517      168.30379     -30062.213      187.86757      200.20297      170.80792    
     34900  -30223.411      171.0279      -30052.384      187.83759      200.18351      170.88067    
     35000  -30209.981      171.66308     -30038.318      187.82111      200.16721      170.95342    
     35100  -30200.504      172.52836     -30027.976      187.79944      200.14818      171.02616    
     35200  -30197.359      175.58827     -30021.77       187.77377      200.12926      171.09891    
     35300  -30186.663      170.16302     -30016.5        187.75286      200.11319      171.17165    
     35400  -30179.042      172.00296     -30007.039      187.7229       200.09601      171.2444     
     35500  -30168.191      172.15272     -29996.038      187.68821      200.07776      171.31715    
     35600  -30154.867      169.33654     -29985.53       187.66455      200.06331      171.38989    
     35700  -30148.044      173.22394     -29974.82       187.63609      200.04564      171.46264    
     35800  -30138.549      174.3621      -29964.187      187.60611      200.03103      171.53539    
     35900  -30127.685      173.29045     -29954.394      187.58006      200.02119      171.60813    
     36000  -30120.102      172.9384      -29947.163      187.54662      200.00777      171.68088    
     36100  -30111.51       169.78501     -29941.725      187.51513      199.99507      171.75362    
     36200  -30100.733      167.20771     -29933.525      187.48387      199.98425      171.82637    
     36300  -30091.742      171.31497     -29920.427      187.44438      199.97153      171.89912    
     36400  -30080.852      173.23216     -29907.62       187.4076       199.9605       171.97186    
     36500  -30074.409      174.84166     -29899.568      187.3748       199.94794      172.04461    
     36600  -30067.301      174.66746     -29892.633      187.34107      199.93401      172.11735    
     36700  -30057.006      171.24406     -29885.762      187.31137      199.91915      172.1901     
     36800  -30046.523      170.18088     -29876.342      187.28409      199.90114      172.26285    
     36900  -30032.019      170.48791     -29861.531      187.25581      199.87919      172.33559    
     37000  -30026.946      176.17467     -29850.772      187.22986      199.85735      172.40834    
     37100  -30016.168      171.29574     -29844.873      187.20001      199.83625      172.48108    
     37200  -30008.323      170.09215     -29838.231      187.16454      199.81464      172.55383    
     37300  -29999.571      171.20226     -29828.369      187.13333      199.79691      172.62658    
     37400  -29985.614      169.29049     -29816.323      187.09973      199.77951      172.69932    
     37500  -29974.376      174.28412     -29800.092      187.06171      199.75987      172.77207    
     37600  -29963.076      171.41697     -29791.659      187.03079      199.74363      172.84482    
     37700  -29960.489      174.00053     -29786.488      186.99973      199.72429      172.91756    
     37800  -29952.788      172.30284     -29780.485      186.96954      199.70658      172.99031    
     37900  -29944.552      172.40597     -29772.146      186.93877      199.69294      173.06305    
     38000  -29932.063      170.89866     -29761.164      186.9005       199.67887      173.1358     
     38100  -29918.992      172.90492     -29746.087      186.85884      199.66391      173.20855    
     38200  -29914.522      178.09764     -29736.424      186.81961      199.64913      173.28129    
     38300  -29902.668      172.88594     -29729.782      186.77982      199.63171      173.35404    
     38400  -29895.895      173.44672     -29722.448      186.74256      199.6127       173.42678    
     38500  -29885.117      171.05723     -29714.059      186.71134      199.59394      173.49953    
     38600  -29873.426      169.59784     -29703.828      186.6773       199.57263      173.57228    
     38700  -29863.562      175.29296     -29688.269      186.64286      199.55109      173.64502    
     38800  -29853.048      174.36858     -29678.679      186.60514      199.52894      173.71777    
     38900  -29843.425      170.02003     -29673.405      186.56315      199.50651      173.79052    
     39000  -29837.773      171.72109     -29666.052      186.52261      199.48678      173.86326    
     39100  -29828.704      172.32803     -29656.376      186.48248      199.46915      173.93601    
     39200  -29817.159      172.22341     -29644.935      186.44202      199.45285      174.00875    
     39300  -29806.889      177.11514     -29629.774      186.40255      199.43667      174.0815     
     39400  -29795.278      175.48415     -29619.794      186.36295      199.41684      174.15425    
     39500  -29788.587      175.20022     -29613.387      186.32422      199.39706      174.22699    
     39600  -29777.424      172.02921     -29605.395      186.28476      199.37812      174.29974    
     39700  -29770.616      173.18618     -29597.43       186.24474      199.35769      174.37248    
     39800  -29758.769      169.82296     -29588.946      186.20738      199.33778      174.44523    
     39900  -29749.057      169.22391     -29579.833      186.16672      199.31777      174.51798    
     40000  -29741.281      173.50397     -29567.777      186.12278      199.29766      174.59072    
     40100  -29730.875      176.02795     -29554.847      186.08142      199.27781      174.66347    
     40200  -29717.338      172.74543     -29544.592      186.04013      199.25412      174.73622    
     40300  -29709.747      170.75955     -29538.988      185.99843      199.22781      174.80896    
     40400  -29701.501      168.37454     -29533.126      185.95974      199.20116      174.88171    
     40500  -29690.925      168.84379     -29522.081      185.92322      199.17476      174.95445    
     40600  -29681.557      172.40079     -29509.157      185.88555      199.15029      175.0272     
     40700  -29673.966      175.69749     -29498.268      185.84106      199.12618      175.09995    
     40800  -29662.645      173.94694     -29488.698      185.79509      199.10458      175.17269    
     40900  -29650.79       171.31139     -29479.479      185.75375      199.08409      175.24544    
     41000  -29643.349      171.71241     -29471.637      185.71018      199.06175      175.31818    
     41100  -29635.224      169.79571     -29465.428      185.66654      199.03969      175.39093    
     41200  -29625.317      169.97936     -29455.337      185.62399      199.01728      175.46368    
     41300  -29612.454      171.68079     -29440.773      185.57917      198.99127      175.53642    
     41400  -29602.668      173.67834     -29428.99       185.53685      198.96623      175.60917    
     41500  -29592.685      172.22747     -29420.458      185.49748      198.94287      175.68191    
     41600  -29585.319      171.6946      -29413.625      185.45257      198.91675      175.75466    
     41700  -29575.715      168.96065     -29406.754      185.40909      198.89307      175.82741    
     41800  -29567.115      166.5519      -29400.563      185.3668       198.87283      175.90015    
     41900  -29556.881      169.1604      -29387.721      185.31739      198.84892      175.9729     
     42000  -29545.809      172.70941     -29373.1        185.27192      198.82613      176.04565    
     42100  -29532.997      172.33307     -29360.664      185.23064      198.80065      176.11839    
     42200  -29522.065      172.41819     -29349.647      185.18693      198.76928      176.19114    
     42300  -29515.198      172.74951     -29342.449      185.14635      198.73833      176.26388    
     42400  -29505.17       167.91059     -29337.259      185.10737      198.71031      176.33663    
     42500  -29497.653      170.30918     -29327.344      185.06444      198.68263      176.40938    
     42600  -29485.393      170.39962     -29314.993      185.02177      198.65619      176.48212    
     42700  -29476.482      173.15762     -29303.325      184.97737      198.63082      176.55487    
     42800  -29464.172      171.23952     -29292.933      184.92837      198.60195      176.62761    
     42900  -29456.458      173.04816     -29283.41       184.88278      198.57479      176.70036    
     43000  -29448.186      171.9757      -29276.21       184.83543      198.54597      176.77311    
     43100  -29438.193      168.28958     -29269.904      184.78923      198.51926      176.84585    
     43200  -29427.756      169.93926     -29257.817      184.74615      198.49393      176.9186     
     43300  -29418.206      174.51869     -29243.688      184.7026       198.4665       176.99135    
     43400  -29403.347      170.10252     -29233.244      184.6586       198.43816      177.06409    
     43500  -29398.227      174.15393     -29224.074      184.61372      198.41228      177.13684    
     43600  -29391.883      176.52964     -29215.354      184.56417      198.38672      177.20958    
     43700  -29379.199      170.80816     -29208.391      184.51933      198.36249      177.28233    
     43800  -29369.579      170.20485     -29199.374      184.47409      198.33621      177.35508    
     43900  -29355.496      169.55343     -29185.943      184.42613      198.3073       177.42782    
     44000  -29342.496      170.51626     -29171.98       184.38225      198.27928      177.50057    
     44100  -29336.677      174.76517     -29161.911      184.33799      198.24769      177.57331    
     44200  -29325.208      170.93607     -29154.272      184.29431      198.21615      177.64606    
     44300  -29319.545      171.24149     -29148.304      184.25267      198.1861       177.71881    
     44400  -29309.999      170.56429     -29139.435      184.2101       198.15484      177.79155    
     44500  -29297.403      175.5326      -29121.87       184.16407      198.12153      177.8643     
     44600  -29285.54       174.63909     -29110.901      184.11854      198.09272      177.93704    
     44700  -29278.012      173.54933     -29104.462      184.06984      198.06485      178.00979    
     44800  -29266.958      169.36885     -29097.589      184.02213      198.03709      178.08254    
     44900  -29258.179      171.55365     -29086.625      183.97803      198.01039      178.15528    
     45000  -29248.825      176.21335     -29072.612      183.93443      197.98344      178.22803    
     45100  -29233.741      173.89507     -29059.846      183.88946      197.95579      178.30078    
     45200  -29224.043      172.97436     -29051.069      183.84506      197.92999      178.37352    
     45300  -29214.69       171.92844     -29042.762      183.79801      197.90565      178.44627    
     45400  -29208.244      174.1333      -29034.11       183.74912      197.88174      178.51901    
     45500  -29196.099      170.13373     -29025.965      183.70039      197.85734      178.59176    
     45600  -29188.633      172.89146     -29015.741      183.65339      197.8318       178.66451    
     45700  -29176.029      174.35096     -29001.678      183.60739      197.80355      178.73725    
     45800  -29166.274      177.24188     -28989.032      183.55963      197.77198      178.81       
     45900  -29155.4        173.18204     -28982.218      183.51667      197.74202      178.88274    
     46000  -29146.023      169.4542      -28976.569      183.47464      197.71222      178.95549    
     46100  -29135.968      170.03683     -28965.932      183.42773      197.68018      179.02824    
     46200  -29128.99       176.00298     -28952.987      183.38289      197.65115      179.10098    
     46300  -29115.421      174.56996     -28940.851      183.34021      197.62344      179.17373    
     46400  -29105.657      174.33914     -28931.318      183.2927       197.59285      179.24648    
     46500  -29097.549      170.38939     -28927.16       183.2504       197.56645      179.31922    
     46600  -29088.916      170.96111     -28917.955      183.21067      197.54246      179.39197    
     46700  -29076.388      171.14531     -28905.243      183.16311      197.51363      179.46471    
     46800  -29062.538      171.16368     -28891.375      183.11904      197.48675      179.53746    
     46900  -29053.878      173.36569     -28880.512      183.07983      197.46348      179.61021    
     47000  -29048.042      176.71558     -28871.326      183.032        197.43637      179.68295    
     47100  -29036.283      173.62519     -28862.658      182.98921      197.41308      179.7557     
     47200  -29027.498      173.57674     -28853.921      182.94765      197.39195      179.82844    
     47300  -29015.127      170.64143     -28844.486      182.8976       197.36545      179.90119    
     47400  -29002.491      169.68498     -28832.806      182.85603      197.34415      179.97394    
     47500  -28990.926      173.82391     -28817.102      182.81633      197.32299      180.04668    
     47600  -28983.483      175.67062     -28807.812      182.77013      197.29333      180.11943    
     47700  -28975.359      172.99426     -28802.365      182.73266      197.26705      180.19218    
     47800  -28964.877      170.9829      -28793.894      182.69308      197.23807      180.26492    
     47900  -28955.277      171.23789     -28784.039      182.64938      197.20372      180.33767    
     48000  -28944.208      171.81558     -28772.393      182.61546      197.17372      180.41041    
     48100  -28931.545      173.7177      -28757.827      182.57797      197.14197      180.48316    
     48200  -28921.285      173.68705     -28747.598      182.53504      197.10864      180.55591    
     48300  -28917.05       174.31009     -28742.74       182.50173      197.08115      180.62865    
     48400  -28904.914      171.29112     -28733.623      182.46613      197.0524       180.7014     
     48500  -28893.183      170.62942     -28722.554      182.42562      197.02339      180.77414    
     48600  -28883.787      173.33577     -28710.451      182.39249      197.00067      180.84689    
     48700  -28873.322      175.24752     -28698.075      182.35401      196.97538      180.91964    
     48800  -28861.316      173.27225     -28688.044      182.3097       196.94972      180.99238    
     48900  -28853.927      171.45223     -28682.475      182.26834      196.93017      181.06513    
     49000  -28845.837      171.85951     -28673.978      182.22591      196.90797      181.13787    
     49100  -28835.515      172.96713     -28662.548      182.18696      196.88603      181.21062    
     49200  -28817.78       170.17621     -28647.603      182.15444      196.86667      181.28337    
     49300  -28807.388      172.97199     -28634.416      182.119        196.84564      181.35611    
     49400  -28802.519      175.72604     -28626.793      182.08241      196.82183      181.42886    
     49500  -28792.172      173.86845     -28618.303      182.04608      196.79531      181.50161    
     49600  -28783.804      173.19698     -28610.607      182.00785      196.76673      181.57435    
     49700  -28773.039      170.56507     -28602.474      181.97213      196.74032      181.6471     
     49800  -28760.208      167.96381     -28592.244      181.93375      196.71381      181.71984    
     49900  -28749.38       173.08069     -28576.299      181.89867      196.68981      181.79259    
     50000  -28740.738      176.453       -28564.285      181.86974      196.66921      181.86534    
     50100  -28729.733      172.56756     -28557.166      181.83425      196.64289      181.93808    
     50200  -28718.757      169.89986     -28548.857      181.8019       196.61795      182.01083    
     50300  -28710.554      171.29846     -28539.256      181.77265      196.59589      182.08357    
     50400  -28702.924      172.69624     -28530.228      181.73446      196.56802      182.15632    
     50500  -28690.555      169.44953     -28521.106      181.70086      196.54268      182.22907    
     50600  -28682.337      170.44539     -28511.891      181.67023      196.52245      182.30181    
     50700  -28668.908      169.01969     -28499.889      181.63036      196.4995       182.37456    
     50800  -28656.983      171.67571     -28485.308      181.59951      196.48164      182.44731    
     50900  -28648.222      174.11283     -28474.109      181.57222      196.46581      182.52005    
     51000  -28636.265      168.97785     -28467.287      181.53181      196.4432       182.5928     
     51100  -28631.276      171.39024     -28459.886      181.50307      196.4275       182.66554    
     51200  -28623.262      174.07043     -28449.192      181.47444      196.4103       182.73829    
     51300  -28611.065      173.46185     -28437.603      181.43479      196.38462      182.81104    
     51400  -28598.953      174.08332     -28424.87       181.40776      196.36697      182.88378    
     51500  -28586.766      173.29931     -28413.466      181.37907      196.34704      182.95653    
     51600  -28578.492      173.46011     -28405.032      181.34039      196.31951      183.02927    
     51700  -28567.245      169.30485     -28397.94       181.31488      196.30282      183.10202    
     51800  -28556.24       168.01881     -28388.221      181.28591      196.28364      183.17477    
     51900  -28544.58       169.52364     -28375.057      181.25195      196.2599       183.24751    
     52000  -28534.261      174.76538     -28359.496      181.22953      196.24361      183.32026    
     52100  -28524.49       174.33289     -28350.157      181.19736      196.22074      183.39301    
     52200  -28516.435      173.96813     -28342.467      181.1616       196.19603      183.46575    
     52300  -28507.721      174.29086     -28333.43       181.13898      196.17939      183.5385     
     52400  -28497.409      172.91965     -28324.489      181.11119      196.15851      183.61124    
     52500  -28484.344      169.13856     -28315.205      181.08279      196.13894      183.68399    
     52600  -28476.815      168.25235     -28308.563      181.06106      196.12246      183.75674    
     52700  -28465.986      166.67601     -28299.31       181.03244      196.10003      183.82948    
     52800  -28452.974      170.03751     -28282.936      181.00196      196.07927      183.90223    
     52900  -28443.621      173.32325     -28270.298      180.97517      196.06354      183.97497    
     53000  -28433.191      172.27188     -28260.919      180.94601      196.04575      184.04772    
     53100  -28424.534      171.41885     -28253.115      180.91862      196.0274       184.12047    
     53200  -28416.362      171.19293     -28245.169      180.89392      196.01016      184.19321    
     53300  -28406.943      172.4909      -28234.453      180.86843      195.99412      184.26596    
     53400  -28390.656      172.87211     -28217.783      180.84205      195.97957      184.3387     
     53500  -28376.936      171.8064      -28205.129      180.8148       195.96346      184.41145    
     53600  -28372.962      175.81875     -28197.143      180.78979      195.94718      184.4842     
     53700  -28360.704      170.58524     -28190.118      180.76265      195.92707      184.55694    
     53800  -28351.831      171.98748     -28179.844      180.7328       195.90478      184.62969    
     53900  -28339.718      171.14546     -28168.573      180.70937      195.88874      184.70244    
     54000  -28332.987      175.00183     -28157.985      180.68456      195.87138      184.77518    
     54100  -28321.733      171.35335     -28150.38       180.66009      195.85366      184.84793    
     54200  -28311.759      170.4861      -28141.273      180.63974      195.84238      184.92067    
     54300  -28300.148      172.08727     -28128.061      180.61056      195.82691      184.99342    
     54400  -28286.329      173.90545     -28112.424      180.58166      195.81172      185.06617    
     54500  -28274.349      172.73921     -28101.609      180.55669      195.7983       185.13891    
     54600  -28265.703      172.58074     -28093.123      180.52863      195.78025      185.21166    
     54700  -28254.673      171.09531     -28083.578      180.50652      195.76689      185.2844     
     54800  -28247.647      174.02597     -28073.621      180.48499      195.75383      185.35715    
     54900  -28238.209      173.14238     -28065.066      180.45859      195.73703      185.4299     
     55000  -28229.089      170.00233     -28059.087      180.43508      195.72195      185.50264    
     55100  -28218.768      169.9028      -28048.865      180.41197      195.70531      185.57539    
     55200  -28207.971      172.20738     -28035.764      180.38943      195.68805      185.64814    
     55300  -28195.392      172.47137     -28022.921      180.37076      195.67388      185.72088    
     55400  -28181.696      171.94061     -28009.755      180.34843      195.65802      185.79363    
     55500  -28171.681      174.52465     -27997.157      180.32471      195.64079      185.86637    
     55600  -28159.658      171.90094     -27987.757      180.30232      195.6237       185.93912    
     55700  -28152.177      170.39168     -27981.786      180.28022      195.60585      186.01187    
     55800  -28143.202      171.16993     -27972.032      180.26125      195.58959      186.08461    
     55900  -28133.7        172.99672     -27960.703      180.24179      195.57313      186.15736    
     56000  -28118.581      172.73178     -27945.849      180.22159      195.5564       186.2301     
     56100  -28108.399      176.4863      -27931.913      180.20075      195.53985      186.30285    
     56200  -28100.939      176.82395     -27924.115      180.17724      195.52249      186.3756     
     56300  -28091.153      174.40672     -27916.746      180.15811      195.5071       186.44834    
     56400  -28078.14       171.75029     -27906.39       180.13764      195.48917      186.52109    
     56500  -28065.586      168.91966     -27896.666      180.11886      195.47115      186.59383    
     56600  -28057.844      171.63662     -27886.207      180.10379      195.45627      186.66658    
     56700  -28046.039      170.37612     -27875.663      180.08101      195.43782      186.73933    
     56800  -28036.939      172.76628     -27864.173      180.06072      195.42304      186.81207    
     56900  -28024.681      173.20564     -27851.476      180.04337      195.4101       186.88482    
     57000  -28015.441      175.25989     -27840.181      180.01767      195.39155      186.95757    
     57100  -28003.989      171.28549     -27832.704      179.99811      195.37744      187.03031    
     57200  -27995.724      171.08643     -27824.637      179.98037      195.36464      187.10306    
     57300  -27983.538      170.55274     -27812.985      179.95909      195.34819      187.1758     
     57400  -27969.501      173.03875     -27796.462      179.94155      195.33522      187.24855    
     57500  -27958.402      175.8436      -27782.559      179.91959      195.31955      187.3213     
     57600  -27950.676      176.56483     -27774.111      179.89697      195.30312      187.39404    
     57700  -27937.671      171.2261      -27766.445      179.87781      195.28823      187.46679    
     57800  -27932.209      174.58964     -27757.62       179.8574       195.27208      187.53953    
     57900  -27917.853      170.22292     -27747.63       179.84272      195.26149      187.61228    
     58000  -27909.877      171.0127      -27738.865      179.82374      195.24604      187.68503    
     58100  -27901.686      169.68464     -27732.001      179.80391      195.22736      187.75777    
     58200  -27887.889      167.40194     -27720.487      179.79085      195.21228      187.83052    
     58300  -27876.993      174.81349     -27702.18       179.76725      195.19218      187.90327    
     58400  -27862.363      172.68054     -27689.683      179.748        195.17633      187.97601    
     58500  -27852.917      172.89237     -27680.024      179.73453      195.16281      188.04876    
     58600  -27845.336      173.12348     -27672.213      179.71531      195.14473      188.1215     
     58700  -27835.717      173.72847     -27661.989      179.70079      195.13059      188.19425    
     58800  -27823.061      172.91892     -27650.142      179.68394      195.11608      188.267      
     58900  -27807.236      170.47854     -27636.757      179.6596       195.0958       188.33974    
     59000  -27795.943      174.44233     -27621.501      179.64594      195.08301      188.41249    
     59100  -27787.056      175.07771     -27611.978      179.62825      195.06764      188.48523    
     59200  -27777.952      173.06302     -27604.889      179.60797      195.05024      188.55798    
     59300  -27768.978      173.79065     -27595.187      179.59551      195.03694      188.63073    
     59400  -27757.089      171.45897     -27585.63       179.5789       195.01839      188.70347    
     59500  -27747.365      171.36948     -27575.996      179.56226      195.0001       188.77622    
     59600  -27737.03       172.18869     -27564.841      179.54652      194.98503      188.84897    
     59700  -27723.452      172.34251     -27551.109      179.52605      194.96788      188.92171    
     59800  -27711.97       175.0074      -27536.963      179.50557      194.95048      188.99446    
     59900  -27701.322      175.36288     -27525.959      179.48944      194.93356      189.0672     
     60000  -27690.448      171.29406     -27519.154      179.47304      194.91564      189.13995    
     60100  -27682.526      173.93252     -27508.593      179.45676      194.89974      189.2127     
     60200  -27670.477      173.16138     -27497.316      179.44081      194.88425      189.28544    
     60300  -27655.808      170.04309     -27485.765      179.4222       194.86737      189.35819    
     60400  -27646.862      170.17527     -27476.686      179.40544      194.85471      189.43093    
     60500  -27637.582      170.14901     -27467.433      179.38519      194.84121      189.50368    
     60600  -27623.78       170.65855     -27453.122      179.36426      194.82681      189.57643    
     60700  -27613.116      177.04832     -27436.068      179.34646      194.81397      189.64917    
     60800  -27597.358      173.36561     -27423.992      179.32605      194.79748      189.72192    
     60900  -27592.343      177.69204     -27414.651      179.3107       194.78272      189.79466    
     61000  -27579.103      174.51739     -27404.585      179.29461      194.76673      189.86741    
     61100  -27567.84       172.69918     -27395.141      179.27575      194.74936      189.94016    
     61200  -27555.182      170.78857     -27384.394      179.26221      194.73671      190.0129     
     61300  -27543.923      170.47947     -27373.444      179.24554      194.72116      190.08565    
     61400  -27536.497      171.27735     -27365.22       179.227        194.7032       190.1584     
     61500  -27524.793      168.41421     -27356.379      179.21266      194.6886       190.23114    
     61600  -27512.997      171.08898     -27341.908      179.19269      194.67031      190.30389    
     61700  -27498.275      173.01473     -27325.261      179.17183      194.65128      190.37663    
     61800  -27484.937      172.91505     -27312.022      179.15643      194.6363       190.44938    
     61900  -27475.591      173.81428     -27301.777      179.13705      194.61922      190.52213    
     62000  -27464.716      173.17823     -27291.538      179.11884      194.60278      190.59487    
     62100  -27452.299      171.68519     -27280.613      179.10337      194.58634      190.66762    
     62200  -27441.475      172.18985     -27269.286      179.08858      194.5689       190.74036    
     62300  -27431.489      174.14123     -27257.348      179.07459      194.55255      190.81311    
     62400  -27418.805      173.33369     -27245.471      179.05854      194.53685      190.88586    
     62500  -27405.068      171.56528     -27233.502      179.04117      194.5222       190.9586     
     62600  -27394.263      172.84445     -27221.419      179.02055      194.50709      191.03135    
     62700  -27381.486      171.29853     -27210.187      179.00276      194.4937       191.1041     
     62800  -27371.287      171.48653     -27199.8        178.98408      194.47759      191.17684    
     62900  -27361.335      172.24246     -27189.093      178.96517      194.45821      191.24959    
     63000  -27348.768      170.75239     -27178.015      178.95093      194.44159      191.32233    
     63100  -27336.609      164.85252     -27171.757      178.93375      194.42345      191.39508    
     63200  -27329.934      171.19935     -27158.735      178.91706      194.40567      191.46783    
     63300  -27312.46       171.55077     -27140.909      178.90365      194.38974      191.54057    
     63400  -27299.439      173.65751     -27125.781      178.88596      194.37071      191.61332    
     63500  -27288.047      173.84001     -27114.207      178.86892      194.35281      191.68606    
     63600  -27278.876      173.91596     -27104.96       178.84918      194.33362      191.75881    
     63700  -27266.962      174.35187     -27092.611      178.83142      194.31586      191.83156    
     63800  -27252.665      172.40372     -27080.262      178.81382      194.29906      191.9043     
     63900  -27239.679      170.50542     -27069.173      178.79414      194.28199      191.97705    
     64000  -27230.309      171.14104     -27059.168      178.77637      194.26729      192.0498     
     64100  -27218.026      169.12132     -27048.905      178.75791      194.25307      192.12254    
     64200  -27207.194      169.13948     -27038.054      178.73748      194.23864      192.19529    
     64300  -27195.257      170.78125     -27024.475      178.71793      194.22455      192.26803    
     64400  -27181.078      174.37229     -27006.706      178.6991       194.20798      192.34078    
     64500  -27165.187      175.31271     -26989.875      178.68129      194.18944      192.41353    
     64600  -27153.496      174.65347     -26978.842      178.6639       194.17068      192.48627    
     64700  -27138.788      169.81518     -26968.973      178.64496      194.152        192.55902    
     64800  -27128.626      172.27926     -26956.346      178.6268       194.13591      192.63176    
     64900  -27116.658      172.41224     -26944.245      178.60524      194.11837      192.70451    
     65000  -27104.015      171.49036     -26932.525      178.58739      194.10204      192.77726    
     65100  -27094.874      172.58169     -26922.292      178.57043      194.08435      192.85       
     65200  -27081.414      169.40923     -26912.004      178.54989      194.06337      192.92275    
     65300  -27067.569      169.03139     -26898.538      178.53486      194.04527      192.99549    
     65400  -27054.117      175.62956     -26878.487      178.51621      194.02401      193.06824    
     65500  -27037.003      174.58367     -26862.42       178.49643      194.00251      193.14099    
     65600  -27026.043      174.55379     -26851.489      178.48108      193.98682      193.21373    
     65700  -27016.668      174.72808     -26841.94       178.45735      193.96781      193.28648    
     65800  -27003.551      174.05822     -26829.493      178.43554      193.95057      193.35923    
     65900  -26992.947      175.52806     -26817.419      178.4179       193.93576      193.43197    
     66000  -26977.701      172.32777     -26805.373      178.39579      193.91696      193.50472    
     66100  -26961.153      169.20684     -26791.947      178.37562      193.89956      193.57746    
     66200  -26950.735      173.73117     -26777.003      178.35686      193.8834       193.65021    
     66300  -26935.286      172.52376     -26762.762      178.33521      193.8651       193.72296    
     66400  -26923.382      171.79201     -26751.59       178.31614      193.84812      193.7957     
     66500  -26911.936      173.06091     -26738.875      178.29706      193.83094      193.86845    
     66600  -26895.147      170.13064     -26725.017      178.27569      193.81193      193.94119    
     66700  -26882.622      171.4687      -26711.154      178.2603       193.79664      194.01394    
     66800  -26871.229      172.79922     -26698.429      178.23899      193.77726      194.08669    
     66900  -26855.344      168.6109      -26686.733      178.21291      193.75455      194.15943    
     67000  -26842.331      170.44676     -26671.884      178.19259      193.73644      194.23218    
     67100  -26826.946      172.05951     -26654.887      178.16568      193.7132       194.30493    
     67200  -26810.534      172.7694      -26637.765      178.14277      193.6923       194.37767    
     67300  -26797.46       174.33934     -26623.12       178.12655      193.67609      194.45042    
     67400  -26786.816      174.58549     -26612.23       178.10361      193.65653      194.52316    
     67500  -26771.514      172.70098     -26598.813      178.0862       193.64177      194.59591    
     67600  -26757.207      171.44464     -26585.762      178.06581      193.62532      194.66866    
     67700  -26745.235      173.24186     -26571.993      178.03845      193.60424      194.7414     
     67800  -26729.848      173.39293     -26556.455      178.01522      193.58837      194.81415    
     67900  -26714.009      173.0352      -26540.974      177.98846      193.57284      194.88689    
     68000  -26699.532      173.26494     -26526.267      177.95903      193.55672      194.95964    
     68100  -26686.234      174.56159     -26511.673      177.93734      193.54475      195.03239    
     68200  -26669.264      170.8014      -26498.462      177.91253      193.5281       195.10513    
     68300  -26655.953      172.34342     -26483.61       177.88676      193.50933      195.17788    
     68400  -26644.36       175.40397     -26468.956      177.86374      193.49245      195.25062    
     68500  -26631.856      177.26565     -26454.59       177.83512      193.47028      195.32337    
     68600  -26615.034      175.98701     -26439.047      177.81307      193.44834      195.39612    
     68700  -26599.182      174.54519     -26424.637      177.79683      193.42808      195.46886    
     68800  -26584.937      173.8277      -26411.11       177.77291      193.40313      195.54161    
     68900  -26569.226      173.83008     -26395.396      177.75013      193.38181      195.61436    
     69000  -26557.943      176.53664     -26381.406      177.72826      193.36315      195.6871     
     69100  -26540.207      174.37342     -26365.833      177.70049      193.34135      195.75985    
     69200  -26522.456      172.42488     -26350.031      177.67539      193.3219       195.83259    
     69300  -26511.469      175.8758      -26335.593      177.65097      193.30281      195.90534    
     69400  -26499.846      179.15268     -26320.694      177.62454      193.28152      195.97809    
     69500  -26475.718      170.25695     -26305.461      177.60246      193.26296      196.05083    
     69600  -26462.818      173.21795     -26289.6        177.57825      193.24308      196.12358    
     69700  -26445.85       171.17316     -26274.677      177.55346      193.22226      196.19632    
     69800  -26431.129      171.84419     -26259.285      177.53229      193.20336      196.26907    
     69900  -26418.264      173.58987     -26244.674      177.50683      193.18136      196.34182    
     70000  -26405.081      175.06474     -26230.017      177.48156      193.15989      196.41456    
     70100  -26386.362      173.17146     -26213.19       177.45802      193.13888      196.48731    
     70200  -26371.545      174.55706     -26196.988      177.43293      193.11581      196.56006    
     70300  -26358.259      177.2772      -26180.982      177.40724      193.09262      196.6328     
     70400  -26342.196      177.56144     -26164.635      177.37962      193.06831      196.70555    
     70500  -26323.356      174.20645     -26149.15       177.35492      193.04661      196.77829    
     70600  -26306.818      172.98011     -26133.838      177.32877      193.02475      196.85104    
     70700  -26291.817      173.89516     -26117.922      177.30128      193.00112      196.92379    
     70800  -26278.638      177.23994     -26101.398      177.27601      192.9799       196.99653    
     70900  -26261.251      176.41323     -26084.838      177.25181      192.96046      197.06928    
     71000  -26244.485      175.59189     -26068.893      177.22526      192.94027      197.14202    
     71100  -26227.858      174.99029     -26052.868      177.19816      192.92102      197.21477    
     71200  -26212.321      175.47561     -26036.846      177.17005      192.90213      197.28752    
     71300  -26193.147      173.17414     -26019.973      177.13934      192.88128      197.36026    
     71400  -26179.828      176.06956     -26003.758      177.10958      192.86089      197.43301    
     71500  -26162.39       176.79354     -25985.596      177.0785       192.83963      197.50576    
     71600  -26144.454      176.23355     -25968.221      177.0491       192.81758      197.5785     
     71700  -26128.177      176.71413     -25951.463      177.02317      192.79673      197.65125    
     71800  -26110.616      176.08717     -25934.529      176.99437      192.77403      197.72399    
     71900  -26096.309      176.5963      -25919.713      176.96626      192.75129      197.79674    
     72000  -26080.447      178.19821     -25902.249      176.93995      192.72983      197.86949    
     72100  -26061.628      175.96516     -25885.663      176.91046      192.70734      197.94223    
     72200  -26041.395      173.8746      -25867.52       176.88029      192.68572      198.01498    
     72300  -26027.595      177.37969     -25850.215      176.85357      192.66574      198.08772    
     72400  -26012.31       178.6419      -25833.668      176.82395      192.64272      198.16047    
     72500  -25992.045      174.05472     -25817.99       176.79367      192.62013      198.23322    
     72600  -25976.963      177.51238     -25799.451      176.76341      192.5987       198.30596    
     72700  -25959.257      176.8277      -25782.429      176.73267      192.57533      198.37871    
     72800  -25940.917      175.79872     -25765.118      176.7021       192.55169      198.45145    
     72900  -25926.003      177.68102     -25748.322      176.67238      192.52856      198.5242     
     73000  -25908.149      177.91668     -25730.232      176.64396      192.50603      198.59695    
     73100  -25892.815      181.76771     -25711.047      176.61549      192.48336      198.66969    
     73200  -25872.287      179.8148      -25692.472      176.58598      192.46009      198.74244    
     73300  -25854.709      179.34596     -25675.363      176.55754      192.43812      198.81519    
     73400  -25836.653      179.83912     -25656.814      176.52831      192.41568      198.88793    
     73500  -25817.406      178.75523     -25638.651      176.49781      192.39259      198.96068    
     73600  -25799.086      179.64375     -25619.443      176.46605      192.36888      199.03342    
     73700  -25783.211      182.63244     -25600.578      176.43468      192.34569      199.10617    
     73800  -25768.828      184.81778     -25584.011      176.40332      192.32235      199.17892    
     73900  -25747.446      181.65349     -25565.792      176.37097      192.2976       199.25166    
     74000  -25730.034      184.50388     -25545.53       176.33955      192.27343      199.32441    
     74100  -25703.939      179.30393     -25524.635      176.30954      192.24976      199.39715    
     74200  -25689          183.38732     -25505.613      176.28041      192.22543      199.4699     
     74300  -25669.467      183.12997     -25486.337      176.25128      192.20149      199.54265    
     74400  -25654.288      186.31863     -25467.97       176.22148      192.17862      199.61539    
     74500  -25634.909      184.95417     -25449.955      176.18979      192.15559      199.68814    
     74600  -25617.177      185.72016     -25431.457      176.15757      192.13222      199.76089    
     74700  -25599.168      186.02534     -25413.143      176.12586      192.10924      199.83363    
     74800  -25579.272      184.90282     -25394.369      176.09264      192.085        199.90638    
     74900  -25560.751      185.58082     -25375.17       176.05973      192.06013      199.97912    
     75000  -25539.955      182.83063     -25357.124      176.02828      192.03592      200.05187    
     75100  -25520.709      185.95644     -25334.752      175.9967       192.01096      200.12462    
     75200  -25500.349      185.12707     -25315.222      175.96635      191.98638      200.19736    
     75300  -25478.992      184.6011      -25294.39       175.93608      191.96113      200.27011    
     75400  -25462.275      191.04934     -25271.226      175.90572      191.93564      200.34285    
     75500  -25446.81       194.23472     -25252.575      175.87574      191.91094      200.4156     
     75600  -25426.289      189.36689     -25236.922      175.84375      191.88486      200.48835    
     75700  -25407.016      191.10825     -25215.908      175.81163      191.85937      200.56109    
     75800  -25383.74       189.62915     -25194.111      175.77967      191.83485      200.63384    
     75900  -25362.79       188.47347     -25174.317      175.74659      191.80936      200.70659    
     76000  -25343.761      191.0014      -25152.76       175.71389      191.78381      200.77933    
     76100  -25331.922      199.04642     -25132.876      175.68271      191.75872      200.85208    
     76200  -25305.908      191.62207     -25114.286      175.65194      191.73332      200.92482    
     76300  -25285.162      192.29479     -25092.867      175.62107      191.7077       200.99757    
     76400  -25264.739      194.069       -25070.67       175.59037      191.68194      201.07032    
     76500  -25242.994      194.88082     -25048.113      175.55918      191.65549      201.14306    
     76600  -25222.945      193.45579     -25029.489      175.52901      191.62916      201.21581    
     76700  -25201.239      200.19865     -25001.04       175.49829      191.60221      201.28855    
     76800  -25188.526      207.69909     -24980.827      175.46746      191.5755       201.3613     
     76900  -25157.494      202.12654     -24955.368      175.4369       191.54864      201.43405    
     77000  -25132.554      195.85826     -24936.696      175.40533      191.52101      201.50679    
     77100  -25111.361      200.07882     -24911.282      175.37389      191.49415      201.57954    
     77200  -25094.164      207.02931     -24887.134      175.342        191.46708      201.65228    
     77300  -25115.716      243.25571     -24872.461      175.3111       191.4404       201.72503    
     77400  -25339.622      415.12684     -24924.496      175.27889      191.41385      201.79778    
     77500  -25843.769      700.85773     -25142.911      175.23837      191.38134      201.87052    
     77600  -26771.955      1026.178      -25745.777      175.20867      191.3601       201.94327    
     77700  -27923.722      1133.3241     -26790.398      175.21632      191.36666      202.01602    
     77800  -28920.452      976.47227     -27943.98       175.27052      191.4088       202.08876    
     77900  -29676.556      786.64656     -28889.91       175.31472      191.43693      202.16151    
     78000  -30259.033      644.8795      -29614.154      175.32801      191.44545      202.23425    
     78100  -30736.696      554.88897     -30181.808      175.36778      191.47524      202.307      
     78200  -31160.407      499.22614     -30661.181      175.40696      191.50334      202.37975    
     78300  -31469.629      410.2528      -31059.376      175.44851      191.53152      202.45249    
     78400  -31659.117      319.63922     -31339.478      175.50721      191.57134      202.52524    
     78500  -31764.146      240.83932     -31523.306      175.56849      191.61529      202.59798    
     78600  -31787.331      165.09831     -31622.232      175.64098      191.66815      202.67073    
     78700  -31770.175      122.78638     -31647.388      175.71525      191.7176       202.74348    
     78800  -31727.064      115.99083     -31611.073      175.77503      191.75116      202.81622    
     78900  -31689.277      136.97039     -31552.307      175.84436      191.79203      202.88897    
     79000  -31680.894      189.0485      -31491.846      175.90295      191.82937      202.96172    
     79100  -31681.573      208.29309     -31473.28       175.94691      191.86162      203.03446    
     79200  -31700.297      177.90631     -31522.391      175.9993       191.90279      203.10721    
     79300  -31715.677      155.52635     -31560.15       176.02945      191.93469      203.17995    
     79400  -31714.945      150.35792     -31564.587      176.05496      191.96554      203.2527     
     79500  -31704.279      168.12227     -31536.157      176.09406      192.01728      203.32545    
     79600  -31693.121      190.21702     -31502.904      176.12229      192.06617      203.39819    
     79700  -31690.419      189.37071     -31501.048      176.15978      192.12401      203.47094    
     79800  -31695.205      169.6493      -31525.556      176.19706      192.18132      203.54368    
     79900  -31711.039      168.84041     -31542.199      176.21419      192.21204      203.61643    
     80000  -31720.661      168.98631     -31551.674      176.25546      192.24725      203.68918    
     80100  -31729.442      176.85921     -31552.582      176.30275      192.27937      203.76192    
     80200  -31723.619      164.02632     -31559.592      176.34349      192.29552      203.83467    
     80300  -31720.297      164.53013     -31555.766      176.3971       192.32219      203.90742    
     80400  -31713.874      173.49422     -31540.38       176.4354       192.33314      203.98016    
     80500  -31705.312      180.44838     -31524.864      176.4801       192.35212      204.05291    
     80600  -31708.1        185.18488     -31522.916      176.53193      192.37674      204.12565    
     80700  -31712.276      172.67285     -31539.603      176.57498      192.39611      204.1984     
     80800  -31719.795      162.80964     -31556.986      176.62272      192.42213      204.27115    
     80900  -31725.245      167.29634     -31557.948      176.66434      192.45502      204.34389    
     81000  -31724.112      176.35687     -31547.756      176.69129      192.48947      204.41664    
     81100  -31716.167      174.13535     -31542.031      176.7162       192.53022      204.48938    
     81200  -31713.66       171.4086      -31542.252      176.74661      192.57616      204.56213    
     81300  -31714.086      171.29702     -31542.789      176.78556      192.62014      204.63488    
     81400  -31711.577      171.19851     -31540.378      176.81527      192.65252      204.70762    
     81500  -31718.379      178.02878     -31540.35       176.82881      192.67388      204.78037    
     81600  -31721.628      172.36772     -31549.26       176.86591      192.71129      204.85311    
     81700  -31728.884      168.49035     -31560.393      176.89847      192.74243      204.92586    
     81800  -31732.795      168.47101     -31564.324      176.92704      192.76676      204.99861    
     81900  -31720.872      164.40584     -31556.466      176.95763      192.79288      205.07135    
     82000  -31723.215      182.01455     -31541.201      176.97673      192.81499      205.1441     
     82100  -31722.01       181.84554     -31540.164      177.00395      192.85036      205.21685    
     82200  -31726.062      170.29665     -31555.765      177.03372      192.89321      205.28959    
     82300  -31733.604      161.8802      -31571.724      177.05443      192.93872      205.36234    
     82400  -31733.908      162.1693      -31571.739      177.07549      192.99276      205.43508    
     82500  -31726.588      170.15878     -31556.429      177.093        193.04777      205.50783    
     82600  -31721.778      180.09141     -31541.686      177.09536      193.09351      205.58058    
     82700  -31724.726      180.72089     -31544.005      177.11907      193.15027      205.65332    
     82800  -31730.992      170.08089     -31560.911      177.13527      193.19464      205.72607    
     82900  -31736.768      162.75661     -31574.011      177.15152      193.2341       205.79881    
     83000  -31734.428      164.90029     -31569.527      177.17309      193.27191      205.87156    
     83100  -31730.916      175.25861     -31555.657      177.1938       193.30859      205.94431    
     83200  -31727.112      178.99484     -31548.117      177.21193      193.35193      206.01705    
     83300  -31729.373      175.70052     -31553.673      177.21903      193.39552      206.0898     
     83400  -31734.298      167.62447     -31566.674      177.22908      193.44671      206.16255    
     83500  -31735.537      163.87213     -31571.665      177.22877      193.49417      206.23529    
     83600  -31730.987      169.58285     -31561.404      177.22316      193.53897      206.30804    
     83700  -31721.213      176.21321     -31545          177.22067      193.58048      206.38078    
     83800  -31718.785      181.67458     -31537.11       177.22982      193.62794      206.45353    
     83900  -31721.92       176.28211     -31545.638      177.23924      193.66664      206.52628    
     84000  -31730.945      169.57458     -31561.37       177.25291      193.70832      206.59902    
     84100  -31734.782      164.02344     -31570.759      177.26684      193.74972      206.67177    
     84200  -31736.822      169.84382     -31566.978      177.27444      193.79017      206.74451    
     84300  -31731.075      174.15878     -31556.917      177.28635      193.8437       206.81726    
     84400  -31728.437      176.00218     -31552.435      177.29041      193.88689      206.89001    
     84500  -31728.062      172.16065     -31555.901      177.29002      193.92861      206.96275    
     84600  -31728.645      169.30739     -31559.337      177.29707      193.97373      207.0355     
     84700  -31730.738      170.84974     -31559.889      177.29913      194.01114      207.10824    
     84800  -31725.503      168.23008     -31557.273      177.30491      194.05562      207.18099    
     84900  -31724.876      172.5815      -31552.294      177.313        194.10641      207.25374    
     85000  -31728.363      176.61724     -31551.746      177.31432      194.14449      207.32648    
     85100  -31730.436      173.69135     -31556.745      177.32201      194.19019      207.39923    
     85200  -31732.898      168.98048     -31563.917      177.32756      194.22473      207.47198    
     85300  -31732.628      166.43547     -31566.193      177.33234      194.25159      207.54472    
     85400  -31736.444      174.6041      -31561.84       177.34679      194.29137      207.61747    
     85500  -31732.071      175.50958     -31556.562      177.35887      194.32315      207.69021    
     85600  -31727.682      173.22189     -31554.46       177.37398      194.35548      207.76296    
     85700  -31729.198      174.25054     -31554.948      177.38841      194.38429      207.83571    
     85800  -31729.404      172.61703     -31556.787      177.39914      194.41011      207.90845    
     85900  -31727.899      170.65777     -31557.241      177.40802      194.43618      207.9812     
     86000  -31726.411      171.07585     -31555.335      177.42383      194.46007      208.05394    
     86100  -31727.395      173.63165     -31553.763      177.44415      194.47908      208.12669    
     86200  -31729.761      174.9458      -31554.815      177.46779      194.49568      208.19944    
     86300  -31727.312      169.17761     -31558.135      177.49279      194.51291      208.27218    
     86400  -31732.318      171.84256     -31560.475      177.51853      194.5283       208.34493    
     86500  -31730.945      172.31934     -31558.625      177.5465       194.54035      208.41768    
     86600  -31728.148      172.70422     -31555.444      177.57522      194.54716      208.49042    
     86700  -31729.901      175.67803     -31554.223      177.6036       194.55315      208.56317    
     86800  -31728.215      171.54064     -31556.674      177.6329       194.56572      208.63591    
     86900  -31731.486      173.20492     -31558.281      177.65494      194.573        208.70866    
     87000  -31729.454      171.82022     -31557.634      177.67841      194.57768      208.78141    
     87100  -31728.487      174.23904     -31554.248      177.70426      194.57824      208.85415    
     87200  -31726.173      174.86892     -31551.304      177.73992      194.58041      208.9269     
     87300  -31727.086      174.16308     -31552.922      177.77801      194.57798      208.99964    
     87400  -31728.694      170.65322     -31558.041      177.81829      194.57932      209.07239    
     87500  -31732.147      171.34843     -31560.799      177.8579       194.58172      209.14514    
     87600  -31727.525      170.53481     -31556.99       177.88834      194.57498      209.21788    
     87700  -31724.335      173.8045      -31550.53       177.92216      194.57461      209.29063    
     87800  -31722.985      175.05048     -31547.934      177.95194      194.56883      209.36338    
     87900  -31724.749      172.84442     -31551.905      177.98373      194.56428      209.43612    
     88000  -31728.301      170.61594     -31557.685      178.01781      194.56692      209.50887    
     88100  -31730.103      171.37117     -31558.732      178.04192      194.56392      209.58161    
     88200  -31727.513      171.99778     -31555.516      178.07025      194.57087      209.65436    
     88300  -31724.567      174.15492     -31550.412      178.0946       194.5787       209.72711    
     88400  -31722.293      173.01183     -31549.282      178.11439      194.58124      209.79985    
     88500  -31724.644      171.21297     -31553.431      178.14333      194.58997      209.8726     
     88600  -31726.591      168.63946     -31557.952      178.17096      194.59508      209.94534    
     88700  -31726.8        169.01614     -31557.784      178.19588      194.59606      210.01809    
     88800  -31725.85       172.87551     -31552.975      178.22536      194.60802      210.09084    
     88900  -31724.271      177.17809     -31547.093      178.24394      194.61287      210.16358    
     89000  -31721.493      174.46904     -31547.024      178.26221      194.62254      210.23633    
     89100  -31727.147      173.73365     -31553.413      178.28189      194.63568      210.30907    
     89200  -31727.633      167.32497     -31560.308      178.29831      194.64506      210.38182    
     89300  -31729.201      168.37772     -31560.824      178.32289      194.65836      210.45457    
     89400  -31724.33       170.22062     -31554.11       178.34619      194.66795      210.52731    
     89500  -31721.191      174.69224     -31546.499      178.3725       194.68456      210.60006    
     89600  -31721.233      177.00926     -31544.224      178.39254      194.70229      210.67281    
     89700  -31725.943      176.2548      -31549.688      178.40672      194.71561      210.74555    
     89800  -31727.27       169.4967      -31557.774      178.4221       194.72567      210.8183     
     89900  -31727.922      166.82147     -31561.101      178.45019      194.74114      210.89104    
     90000  -31725.505      168.9025      -31556.603      178.47397      194.7533       210.96379    
     90100  -31720.381      171.95938     -31548.422      178.4973       194.76441      211.03654    
     90200  -31718.085      174.19859     -31543.886      178.51274      194.77555      211.10928    
     90300  -31726.184      177.49053     -31548.693      178.52865      194.7919       211.18203    
     90400  -31727.514      169.4342      -31558.08       178.55015      194.80881      211.25477    
     90500  -31727.572      163.95191     -31563.62       178.57352      194.82892      211.32752    
     90600  -31729.344      168.89739     -31560.447      178.5957       194.84926      211.40027    
     90700  -31726.742      175.63278     -31551.109      178.61819      194.86984      211.47301    
     90800  -31721.465      177.72983     -31543.735      178.63112      194.89014      211.54576    
     90900  -31720.472      173.71753     -31546.755      178.64092      194.91202      211.61851    
     91000  -31724.4        168.86258     -31555.538      178.64827      194.93667      211.69125    
     91100  -31729.169      167.65031     -31561.519      178.65253      194.96887      211.764      
     91200  -31728.045      168.36667     -31559.678      178.65245      195.00047      211.83674    
     91300  -31726.943      173.91952     -31553.024      178.6513       195.02949      211.90949    
     91400  -31723.876      175.45735     -31548.418      178.65947      195.06248      211.98224    
     91500  -31723.042      172.81914     -31550.223      178.6692       195.09496      212.05498    
     91600  -31726.818      170.40827     -31556.41       178.66979      195.12252      212.12773    
     91700  -31730.83       169.18559     -31561.645      178.67173      195.15247      212.20047    
     91800  -31730.859      169.90418     -31560.955      178.67487      195.18433      212.27322    
     91900  -31726.909      171.04226     -31555.867      178.67281      195.21102      212.34597    
     92000  -31727.912      176.37967     -31551.532      178.67806      195.2437       212.41871    
     92100  -31722.573      170.53545     -31552.038      178.68361      195.27828      212.49146    
     92200  -31726.825      171.63118     -31555.194      178.68486      195.30972      212.56421    
     92300  -31729.47       171.02215     -31558.448      178.69029      195.34554      212.63695    
     92400  -31726.67       166.96379     -31559.706      178.69484      195.38351      212.7097     
     92500  -31727.337      170.51058     -31556.826      178.69511      195.4214       212.78244    
     92600  -31727.572      174.90125     -31552.671      178.6998       195.46003      212.85519    
     92700  -31724.738      174.49142     -31550.247      178.69929      195.49725      212.92794    
     92800  -31725.932      174.63389     -31551.298      178.69546      195.53734      213.00068    
     92900  -31727.399      171.41616     -31555.983      178.69155      195.57955      213.07343    
     93000  -31732.295      172.08779     -31560.207      178.69063      195.62264      213.14617    
     93100  -31731.898      171.51736     -31560.381      178.69021      195.66681      213.21892    
     93200  -31733.034      173.9376      -31559.097      178.68567      195.70518      213.29167    
     93300  -31732.138      173.00887     -31559.129      178.68627      195.74351      213.36441    
     93400  -31734.316      172.3502      -31561.966      178.69323      195.78221      213.43716    
     93500  -31734.272      168.97063     -31565.302      178.69787      195.81694      213.5099     
     93600  -31734.797      169.92219     -31564.874      178.70413      195.8546       213.58265    
     93700  -31732.027      170.77844     -31561.249      178.70825      195.89296      213.6554     
     93800  -31733.411      176.00648     -31557.404      178.70589      195.92949      213.72814    
     93900  -31729.426      172.3568      -31557.069      178.69777      195.9656       213.80089    
     94000  -31733.644      172.97085     -31560.673      178.68922      196.0026       213.87364    
     94100  -31731.324      168.0456      -31563.279      178.6873       196.04287      213.94638    
     94200  -31730.091      168.40838     -31561.683      178.68787      196.0834       214.01913    
     94300  -31730.269      173.31975     -31556.949      178.69142      196.1265       214.09187    
     94400  -31729.022      174.76914     -31554.253      178.69551      196.1728       214.16462    
     94500  -31730.408      174.58042     -31555.827      178.69379      196.2137       214.23737    
     94600  -31731.069      171.3155      -31559.754      178.69111      196.25483      214.31011    
     94700  -31733.43       170.73494     -31562.695      178.6842       196.29438      214.38286    
     94800  -31734.742      172.36432     -31562.377      178.67731      196.3377       214.4556     
     94900  -31732.081      172.71826     -31559.363      178.67453      196.3848       214.52835    
     95000  -31730.393      174.28439     -31556.109      178.67082      196.42781      214.6011     
     95100  -31731.717      174.64531     -31557.072      178.66616      196.4692       214.67384    
     95200  -31727.507      167.03169     -31560.475      178.66303      196.51049      214.74659    
     95300  -31735.339      172.78649     -31562.552      178.65935      196.54887      214.81934    
     95400  -31733.173      171.65736     -31561.516      178.65689      196.58759      214.89208    
     95500  -31728.17       169.98988     -31558.18       178.65157      196.62646      214.96483    
     95600  -31732.676      177.35501     -31555.321      178.64835      196.6686       215.03757    
     95700  -31731.962      175.87721     -31556.085      178.64285      196.70879      215.11032    
     95800  -31731.021      170.85223     -31560.169      178.63787      196.74583      215.18307    
     95900  -31732.596      169.51836     -31563.078      178.63862      196.78726      215.25581    
     96000  -31732.099      170.50904     -31561.59       178.63239      196.82834      215.32856    
     96100  -31729.248      171.36899     -31557.879      178.62925      196.87362      215.4013     
     96200  -31730.122      174.41184     -31555.71       178.62414      196.91787      215.47405    
     96300  -31730.788      174.25991     -31556.528      178.61831      196.95958      215.5468     
     96400  -31731.134      171.94258     -31559.191      178.61784      197.00514      215.61954    
     96500  -31731.95       170.93773     -31561.012      178.61631      197.0494       215.69229    
     96600  -31731.397      170.64819     -31560.749      178.61604      197.09684      215.76503    
     96700  -31732.18       173.24717     -31558.932      178.61413      197.14763      215.83778    
     96800  -31728.325      171.63107     -31556.694      178.60625      197.19746      215.91053    
     96900  -31729.494      172.14601     -31557.348      178.60149      197.24565      215.98327    
     97000  -31733.786      173.4125      -31560.373      178.60031      197.29221      216.05602    
     97100  -31731.821      169.01521     -31562.806      178.59787      197.33769      216.12877    
     97200  -31734.956      173.18244     -31561.774      178.59817      197.38755      216.20151    
     97300  -31730.766      172.89785     -31557.868      178.59827      197.43623      216.27426    
     97400  -31728.848      173.34365     -31555.505      178.5989       197.4837       216.347      
     97500  -31729.883      172.65046     -31557.233      178.59729      197.53101      216.41975    
     97600  -31731.686      170.8732      -31560.812      178.59919      197.57316      216.4925     
     97700  -31731.925      169.39943     -31562.525      178.60176      197.60998      216.56524    
     97800  -31733.477      172.49036     -31560.987      178.60406      197.64274      216.63799    
     97900  -31730.813      173.48261     -31557.33       178.60992      197.68011      216.71073    
     98000  -31727.861      172.7613      -31555.1        178.61202      197.71563      216.78348    
     98100  -31730.414      174.06554     -31556.348      178.61556      197.75209      216.85623    
     98200  -31731.793      171.33409     -31560.459      178.6182       197.78736      216.92897    
     98300  -31734.772      170.63977     -31564.133      178.62035      197.81965      217.00172    
     98400  -31731.877      168.14212     -31563.735      178.62737      197.85563      217.07447    
     98500  -31731.613      171.87234     -31559.741      178.63332      197.88855      217.14721    
     98600  -31729.262      173.03212     -31556.23       178.64123      197.92779      217.21996    
     98700  -31729.682      173.29496     -31556.387      178.64472      197.96841      217.2927     
     98800  -31733.149      173.18375     -31559.965      178.64509      198.00793      217.36545    
     98900  -31733.924      170.49639     -31563.428      178.64522      198.05231      217.4382     
     99000  -31736.014      171.53186     -31564.482      178.64347      198.09205      217.51094    
     99100  -31734.309      172.03981     -31562.269      178.64278      198.13386      217.58369    
     99200  -31729.196      171.30276     -31557.894      178.64994      198.18511      217.65643    
     99300  -31728.748      173.89249     -31554.855      178.65049      198.22527      217.72918    
     99400  -31728.044      172.3826      -31555.661      178.65298      198.26642      217.80193    
     99500  -31731.874      172.41645     -31559.457      178.65507      198.3042       217.87467    
     99600  -31734.691      172.40627     -31562.285      178.65545      198.34123      217.94742    
     99700  -31732.505      170.56893     -31561.936      178.65683      198.38114      218.02017    
     99800  -31729.222      170.1924      -31559.029      178.65582      198.41456      218.09291    
     99900  -31731.434      174.69027     -31556.744      178.6584       198.44731      218.16566    
    100000  -31728.583      172.14789     -31556.435      178.66239      198.48659      218.2384     
Loop time of 1254.69 on 32 procs for 100000 steps with 4440 atoms

Performance: 6.886 ns/day, 3.485 hours/ns, 79.701 timesteps/s, 353.872 katom-step/s
96.9% CPU use with 32 MPI tasks x 1 OpenMP threads

MPI task timing breakdown:
Section |  min time  |  avg time  |  max time  |%varavg| %total
---------------------------------------------------------------
Pair    | 0.053462   | 225.76     | 1132.3     |2644.8 | 17.99
Neigh   | 0.0032974  | 1.7946     | 9.3483     | 237.2 |  0.14
Comm    | 0.094938   | 85.712     | 527.88     |1640.8 |  6.83
Output  | 0.32227    | 0.35093    | 0.42729    |   4.0 |  0.03
Modify  | 32.754     | 938.84     | 1251.6     |1707.7 | 74.83
Other   |            | 2.237      |            |       |  0.18

Nlocal:         138.75 ave        1013 max           0 min
Histogram: 24 1 3 0 0 0 1 1 0 2
Nghost:        545.031 ave        3203 max           0 min
Histogram: 24 0 0 2 2 0 0 0 1 3
Neighs:              0 ave           0 max           0 min
Histogram: 32 0 0 0 0 0 0 0 0 0

Total # of neighbors = 0
Ave neighs/atom = 0
Neighbor list builds = 539
Dangerous builds = 0
Total wall time: 0:20:54
