LAMMPS (2 Aug 2023 - Update 3)
OMP_NUM_THREADS environment is not set. Defaulting to 1 thread. (src/comm.cpp:98)
  using 1 OpenMP thread(s) per MPI task

# 1------general---------------
units                             metal      #单位为lammps 中的metel 类型
dimension                    3          #模拟的维度 三维
boundary                    p p p      #周期边界条件
atom_style                  atomic   #原子类型自动
atom_modify              map array sort 100 2.0
neighbor                    3.0 bin
neigh_modify            every 1 delay 0 check yes
#2 -----global variable-------定义全局变量，方便统一修改；
variable temperature equal 300
variable tstep equal 0.001
variable pressure equal 0
variable thermalstep equal 100
variable dumpstep equal 1000
variable relaxtime equal 0
variable totaltime equal 200000
variable deformrate equal 5e-3
#3 -------model------------
#box tilt large
read_data     1.lmp
Reading data file ...
  orthogonal box = (-100 -100 -2.3312515) to (100 100 46.166171)
  3 by 4 by 1 MPI processor grid
  reading atoms ...
  1320 atoms
  read_data CPU = 0.016 seconds
replicate 1 1 9
Replication is creating a 1x1x9 = 9 times larger system...
  orthogonal box = (-100 -100 -2.3312515) to (100 100 434.14556)
  2 by 2 by 3 MPI processor grid
  11880 atoms
  replicate CPU = 0.011 seconds
write_data z.data
System init for write_data ...
WARNING: Communication cutoff is 0.0. No ghost atoms will be generated. Atoms may get lost. (src/comm_brick.cpp:210)
pair_style hybrid airebo 3.0 airebo 3.0 airebo 3.0 lj/cut 10
pair_coeff * * airebo 1 CH.airebo C NULL NULL
Reading airebo potential file CH.airebo with DATE: 2011-10-25
pair_coeff * * airebo 2 CH.airebo NULL C NULL
Reading airebo potential file CH.airebo with DATE: 2011-10-25
pair_coeff * * airebo 3 CH.airebo NULL NULL C
Reading airebo potential file CH.airebo with DATE: 2011-10-25
pair_coeff 1 2 lj/cut 0.00456 3.431
pair_coeff 1 3 lj/cut 0.00456 3.431
pair_coeff 2 3 lj/cut 0.00456 3.431

# 5------minimize -----------
min_style      sd
minimize       1.0e-4 1.0e-6 100 1000
Neighbor list info ...
  update: every = 1 steps, delay = 0 steps, check = yes
  max neighbors/atom: 2000, page size: 100000
  master list distance cutoff = 13.2
  ghost atom cutoff = 13.2
  binsize = 6.6, bins = 31 31 67
  6 neighbor lists, perpetual/occasional/extra = 6 0 0
  (1) pair airebo, perpetual, skip from (5)
      attributes: full, newton on, ghost
      pair build: skip/ghost
      stencil: none
      bin: none
  (2) pair airebo, perpetual, skip from (5)
      attributes: full, newton on, ghost
      pair build: skip/ghost
      stencil: none
      bin: none
  (3) pair airebo, perpetual, skip from (5)
      attributes: full, newton on, ghost
      pair build: skip/ghost
      stencil: none
      bin: none
  (4) pair lj/cut, perpetual, skip from (6)
      attributes: half, newton on, cut 13
      pair build: skip
      stencil: none
      bin: none
  (5) neighbor class addition, perpetual
      attributes: full, newton on, ghost
      pair build: full/bin/ghost
      stencil: full/ghost/bin/3d
      bin: standard
  (6) neighbor class addition, perpetual
      attributes: half, newton on, cut 13
      pair build: half/bin/atomonly/newton
      stencil: half/bin/3d
      bin: standard
Per MPI rank memory allocation (min/avg/max) = 13.35 | 13.76 | 14.11 Mbytes
   Step          Temp          E_pair         E_mol          TotEng         Press     
         0   0             -72609.251      0             -72609.251      5481.8219    
        30   0             -85891.798      0             -85891.798      34.778352    
Loop time of 4.20671 on 12 procs for 30 steps with 11880 atoms

72.4% CPU use with 12 MPI tasks x 1 OpenMP threads

Minimization stats:
  Stopping criterion = energy tolerance
  Energy initial, next-to-last, final = 
     -72609.2505724253  -85886.3166456636  -85891.7982269466
  Force two-norm initial, final = 5901.2301 29.677366
  Force max component initial, final = 534.82797 1.9411106
  Final line search alpha, max atom move = 0.051917894 0.10077838
  Iterations, force evaluations = 30 54

MPI task timing breakdown:
Section |  min time  |  avg time  |  max time  |%varavg| %total
---------------------------------------------------------------
Pair    | 0.77689    | 0.9322     | 1.1761     |  12.4 | 22.16
Neigh   | 0          | 0          | 0          |   0.0 |  0.00
Comm    | 1.0126     | 1.23       | 1.395      |  11.5 | 29.24
Output  | 0          | 0          | 0          |   0.0 |  0.00
Modify  | 0          | 0          | 0          |   0.0 |  0.00
Other   |            | 2.044      |            |       | 48.60

Nlocal:            990 ave        1050 max         930 min
Histogram: 3 0 0 0 0 6 0 0 0 3
Nghost:           3672 ave        3732 max        3612 min
Histogram: 3 0 0 0 0 6 0 0 0 3
Neighs:              0 ave           0 max           0 min
Histogram: 12 0 0 0 0 0 0 0 0 0

Total # of neighbors = 0
Ave neighs/atom = 0
Neighbor list builds = 0
Dangerous builds = 0
#6----define computes------
variable nums equal count(all) #计算原子数目
variable toval equal 16.0428*16.0428*lz #计算系统总体积，单层石墨烯厚度为0.335nm
variable vol equal ${toval} #体系的初始体积
variable vol equal 112336.660782541 
variable vatom equal v_vol/v_nums #单个原子体积
compute 1 all stress/atom NULL #计算体系中单原子应力
compute xalls all reduce sum c_1[1]
variable xstress equal (c_xalls)/(v_toval*10000)
compute yalls all reduce sum c_1[2]
variable ystress equal (c_yalls)/(v_toval*10000)
compute zalls all reduce sum c_1[3]
variable zstress equal (c_zalls)/(v_toval*10000)
#7---------relaxation-------------------------
timestep ${tstep}
timestep 0.001
velocity all create ${temperature} 231743 units box dist gaussian
velocity all create 300 231743 units box dist gaussian
dump   1 all atom 100 all-cy.lammpstrj
#fix    1 all npt temp 300 300  0.1 aniso 0 0 10 drag 1  #三个方向独立控压
fix  1 all npt temp ${temperature} ${temperature} 0.1 x ${pressure} ${pressure} 10 y ${pressure} ${pressure} 10
fix  1 all npt temp 300 ${temperature} 0.1 x ${pressure} ${pressure} 10 y ${pressure} ${pressure} 10
fix  1 all npt temp 300 300 0.1 x ${pressure} ${pressure} 10 y ${pressure} ${pressure} 10
fix  1 all npt temp 300 300 0.1 x 0 ${pressure} 10 y ${pressure} ${pressure} 10
fix  1 all npt temp 300 300 0.1 x 0 0 10 y ${pressure} ${pressure} 10
fix  1 all npt temp 300 300 0.1 x 0 0 10 y 0 ${pressure} 10
fix  1 all npt temp 300 300 0.1 x 0 0 10 y 0 0 10
compute  2 all pe/atom
compute  pe all reduce sum c_2
variable PE equal "c_pe"
fix    pe all print 100 "${PE} " file PE.txt screen no
thermo  ${thermalstep}
thermo  100
#thermo_style  custom step pe ke etotal lx ly lz
run   ${relaxtime}
run   0
Per MPI rank memory allocation (min/avg/max) = 13.97 | 14.39 | 14.73 Mbytes
   Step          Temp          E_pair         E_mol          TotEng         Press          Volume    
        30   300           -85891.798      0             -85431.154      62.959826      17459072     
Loop time of 0.0252708 on 12 procs for 0 steps with 11880 atoms

60.5% CPU use with 12 MPI tasks x 1 OpenMP threads

MPI task timing breakdown:
Section |  min time  |  avg time  |  max time  |%varavg| %total
---------------------------------------------------------------
Pair    | 0          | 0          | 0          |   0.0 |  0.00
Neigh   | 0          | 0          | 0          |   0.0 |  0.00
Comm    | 0          | 0          | 0          |   0.0 |  0.00
Output  | 0          | 0          | 0          |   0.0 |  0.00
Modify  | 0          | 0          | 0          |   0.0 |  0.00
Other   |            | 0.02527    |            |       |100.00

Nlocal:            990 ave         993 max         984 min
Histogram: 3 0 0 0 0 0 3 0 0 6
Nghost:           3670 ave        3676 max        3667 min
Histogram: 6 0 0 3 0 0 0 0 0 3
Neighs:              0 ave           0 max           0 min
Histogram: 12 0 0 0 0 0 0 0 0 0

Total # of neighbors = 0
Ave neighs/atom = 0
Neighbor list builds = 0
Dangerous builds = 0
#8 -------tension-----------------------------
unfix  1
undump  1
unfix  pe
reset_timestep 0
fix avestress all ave/atom 1 ${dumpstep} ${dumpstep} c_1[1] c_1[2] c_1[3] c_1[4] c_1[5] c_1[6]
fix avestress all ave/atom 1 1000 ${dumpstep} c_1[1] c_1[2] c_1[3] c_1[4] c_1[5] c_1[6]
fix avestress all ave/atom 1 1000 1000 c_1[1] c_1[2] c_1[3] c_1[4] c_1[5] c_1[6]

#-----calculation of strain and Cumulative compression--------
variable                tmp equal "lz"
variable                L0 equal ${tmp}
variable                L0 equal 436.476807
variable                strain equal "(lz - v_L0)/v_L0"
variable                Cumulativels equal "(lz - v_L0)/10"
fix Step all print 100 "${strain} ${Cumulativels} ${zstress}" file grapoten.txt screen no

dump 2 all custom ${dumpstep} tension.xyz type x y z f_avestress[1] f_avestress[2] f_avestress[3] f_avestress[4] f_avestress[5] f_avestress[6]
dump 2 all custom 1000 tension.xyz type x y z f_avestress[1] f_avestress[2] f_avestress[3] f_avestress[4] f_avestress[5] f_avestress[6]

fix  1 all npt temp ${temperature} ${temperature} 0.1 y ${pressure} ${pressure} 10 x ${pressure} ${pressure} 10
fix  1 all npt temp 300 ${temperature} 0.1 y ${pressure} ${pressure} 10 x ${pressure} ${pressure} 10
fix  1 all npt temp 300 300 0.1 y ${pressure} ${pressure} 10 x ${pressure} ${pressure} 10
fix  1 all npt temp 300 300 0.1 y 0 ${pressure} 10 x ${pressure} ${pressure} 10
fix  1 all npt temp 300 300 0.1 y 0 0 10 x ${pressure} ${pressure} 10
fix  1 all npt temp 300 300 0.1 y 0 0 10 x 0 ${pressure} 10
fix  1 all npt temp 300 300 0.1 y 0 0 10 x 0 0 10

thermo_style custom step pe ke etotal lx ly lz
fix   2 all deform 1 z erate ${deformrate} remap x units box
fix   2 all deform 1 z erate 0.005 remap x units box
fix   3 all ave/time 2 500 1000 v_xstress v_ystress v_zstress file pressure.out
run   ${totaltime}
run   200000
WARNING: Dump 2 includes no atom IDs and is not sorted by ID. This may complicate post-processing tasks or visualization (src/dump.cpp:221)
Per MPI rank memory allocation (min/avg/max) = 15.47 | 15.89 | 16.23 Mbytes
   Step         PotEng         KinEng         TotEng           Lx             Ly             Lz      
         0  -85891.798      460.64438     -85431.154      200            200            436.47681    
       100  -85888.246      484.25298     -85403.993      200.02775      199.93604      436.69505    
       200  -85836.733      409.17004     -85427.563      200.03261      199.80729      436.91328    
       300  -85734.935      336.02168     -85398.913      200.14358      199.74105      437.13152    
       400  -85768.876      407.65135     -85361.224      200.16396      199.65623      437.34976    
       500  -85817.073      465.98471     -85351.088      200.23064      199.67952      437.568      
       600  -85772.196      404.55482     -85367.641      200.20508      199.71631      437.78624    
       700  -85825.591      486.73238     -85338.858      200.17967      199.78468      438.00448    
       800  -85841.554      485.13275     -85356.421      200.01187      199.80343      438.22271    
       900  -85820.237      441.98139     -85378.256      199.96439      199.87133      438.44095    
      1000  -85794.408      435.85692     -85358.551      199.93097      199.92058      438.65919    
      1100  -85766.308      438.54825     -85327.76       199.88201      199.93504      438.87743    
      1200  -85764.25       464.38425     -85299.866      199.9091       199.97301      439.09567    
      1300  -85803.114      502.9816      -85300.133      199.92783      199.9332       439.31391    
      1400  -85815.264      480.478       -85334.786      199.94186      199.85628      439.53214    
      1500  -85818.992      458.48093     -85360.511      199.97837      199.77904      439.75038    
      1600  -85813.293      442.8182      -85370.475      200.04822      199.74565      439.96862    
      1700  -85785.493      437.36317     -85348.13       200.03315      199.7421       440.18686    
      1800  -85796.889      480.20805     -85316.681      199.9859       199.78068      440.4051     
      1900  -85804.792      481.72391     -85323.068      199.94352      199.83861      440.62334    
      2000  -85793.705      449.49763     -85344.208      199.86351      199.86248      440.84158    
      2100  -85795.401      447.9686      -85347.432      199.85012      199.89775      441.05981    
      2200  -85775.019      446.52777     -85328.491      199.83151      199.89285      441.27805    
      2300  -85764.252      462.18393     -85302.068      199.83627      199.87598      441.49629    
      2400  -85761.519      473.18667     -85288.332      199.85996      199.8555       441.71453    
      2500  -85777.477      476.45206     -85301.025      199.87914      199.81524      441.93277    
      2600  -85782.5        460.08175     -85322.418      199.9054       199.77759      442.15101    
      2700  -85780.272      446.11752     -85334.155      199.91682      199.74606      442.36924    
      2800  -85767.069      444.60885     -85322.461      199.92545      199.73958      442.58748    
      2900  -85764.135      465.63465     -85298.501      199.89587      199.75177      442.80572    
      3000  -85759.118      469.13832     -85289.98       199.85666      199.78799      443.02396    
      3100  -85763.207      463.65018     -85299.557      199.81533      199.81878      443.2422     
      3200  -85759.665      453.66511     -85306          199.78704      199.83645      443.46044    
      3300  -85747.234      450.30811     -85296.926      199.78267      199.83947      443.67867    
      3400  -85738.824      462.57143     -85276.253      199.78114      199.81599      443.89691    
      3500  -85729.379      467.06789     -85262.311      199.80742      199.79715      444.11515    
      3600  -85739.418      472.9566      -85266.462      199.81295      199.76276      444.33339    
      3700  -85744.232      462.21917     -85282.013      199.83527      199.73793      444.55163    
      3800  -85743.752      456.49359     -85287.259      199.84526      199.71796      444.76987    
      3900  -85728.406      448.86897     -85279.537      199.8413       199.70986      444.9881     
      4000  -85726.424      465.24097     -85261.183      199.82776      199.71734      445.20634    
      4100  -85723.065      470.7802      -85252.284      199.79606      199.73358      445.42458    
      4200  -85719.267      462.78457     -85256.483      199.76821      199.75582      445.64282    
      4300  -85714.091      454.62491     -85259.466      199.74741      199.767        445.86106    
      4400  -85708.984      454.11074     -85254.873      199.74297      199.76948      446.0793     
      4500  -85701.045      462.46514     -85238.58       199.73954      199.75559      446.29754    
      4600  -85697.612      472.56193     -85225.05       199.74896      199.73845      446.51577    
      4700  -85689.226      464.93695     -85224.289      199.75741      199.71665      446.73401    
      4800  -85689.109      460.25389     -85228.856      199.76343      199.69447      446.95225    
      4900  -85684.499      453.23568     -85231.263      199.77394      199.68343      447.17049    
      5000  -85680.085      457.31394     -85222.771      199.76687      199.67573      447.38873    
      5100  -85665.443      457.88159     -85207.561      199.75769      199.68019      447.60697    
      5200  -85662.793      465.72209     -85197.071      199.73721      199.68502      447.8252     
      5300  -85661.319      460.73792     -85200.581      199.71859      199.69309      448.04344    
      5400  -85658.97       457.16333     -85201.807      199.70324      199.69594      448.26168    
      5500  -85652.712      456.61443     -85196.097      199.70137      199.69329      448.47992    
      5600  -85643.781      459.33156     -85184.449      199.70089      199.68316      448.69816    
      5700  -85636.266      462.78823     -85173.477      199.70216      199.668        448.9164     
      5800  -85631.225      463.7282      -85167.496      199.70436      199.65447      449.13463    
      5900  -85632.061      465.879       -85166.182      199.69759      199.64046      449.35287    
      6000  -85624.872      458.28217     -85166.59       199.69866      199.63477      449.57111    
      6100  -85615.537      454.23487     -85161.302      199.69295      199.6315       449.78935    
      6200  -85613.672      466.37846     -85147.293      199.68125      199.63211      450.00759    
      6300  -85600.768      464.01362     -85136.754      199.66887      199.63318      450.22583    
      6400  -85594.203      460.15993     -85134.043      199.65357      199.62949      450.44406    
      6500  -85592.86       461.10763     -85131.752      199.64742      199.62412      450.6623     
      6600  -85585.146      458.92752     -85126.218      199.64592      199.61503      450.88054    
      6700  -85575.79       460.0529      -85115.737      199.6457       199.6066       451.09878    
      6800  -85567.923      467.87363     -85100.05       199.64145      199.59902      451.31702    
      6900  -85556.74       462.12374     -85094.616      199.63186      199.59278      451.53526    
      7000  -85556.908      464.11349     -85092.794      199.62211      199.5866       451.7535     
      7100  -85554.166      463.79141     -85090.374      199.61284      199.57944      451.97173    
      7200  -85546.382      461.23917     -85085.142      199.60931      199.57438      452.18997    
      7300  -85537.406      461.18538     -85076.221      199.60433      199.56532      452.40821    
      7400  -85524.192      458.00832     -85066.183      199.60335      199.55801      452.62645    
      7500  -85516.721      465.94506     -85050.776      199.5952       199.54504      452.84469    
      7600  -85512.98       472.58423     -85040.396      199.58982      199.53548      453.06293    
      7700  -85506.143      462.21984     -85043.924      199.58116      199.52738      453.28116    
      7800  -85499.909      461.70322     -85038.206      199.57373      199.52251      453.4994     
      7900  -85488.343      460.34738     -85027.996      199.56518      199.52206      453.71764    
      8000  -85478.262      463.01468     -85015.247      199.5494       199.51818      453.93588    
      8100  -85466.647      459.99797     -85006.649      199.53996      199.51626      454.15412    
      8200  -85464.88       463.23373     -85001.646      199.52389      199.50692      454.37236    
      8300  -85460.98       458.73352     -85002.247      199.51979      199.50177      454.59059    
      8400  -85454.033      459.22727     -84994.806      199.51198      199.49144      454.80883    
      8500  -85441.277      460.12118     -84981.156      199.50708      199.48274      455.02707    
      8600  -85430.107      461.76365     -84968.344      199.50244      199.47296      455.24531    
      8700  -85418.849      460.73358     -84958.116      199.49069      199.46069      455.46355    
      8800  -85414.72       464.33731     -84950.382      199.48427      199.45431      455.68179    
      8900  -85410.558      467.51218     -84943.045      199.47097      199.44697      455.90002    
      9000  -85400.114      462.06989     -84938.044      199.45838      199.44546      456.11826    
      9100  -85386.96       455.23718     -84931.723      199.44529      199.44405      456.3365     
      9200  -85380.565      460.65997     -84919.905      199.42967      199.4402       456.55474    
      9300  -85365.642      463.05574     -84902.586      199.41753      199.43364      456.77298    
      9400  -85359.045      465.66402     -84893.381      199.40572      199.42369      456.99122    
      9500  -85355.556      465.67177     -84889.884      199.39867      199.41366      457.20946    
      9600  -85346.152      462.02939     -84884.123      199.39216      199.40135      457.42769    
      9700  -85332.38       453.65193     -84878.728      199.38793      199.39209      457.64593    
      9800  -85327.924      458.02233     -84869.901      199.3755       199.37956      457.86417    
      9900  -85311.994      459.65799     -84852.336      199.36732      199.37073      458.08241    
     10000  -85302.715      464.06894     -84838.647      199.3542       199.36149      458.30065    
     10100  -85293.369      462.45985     -84830.909      199.34181      199.35351      458.51889    
     10200  -85286.917      460.82721     -84826.089      199.33016      199.35003      458.73712    
     10300  -85281.899      461.97564     -84819.924      199.31156      199.34232      458.95536    
     10400  -85268.136      459.36024     -84808.776      199.3025       199.33648      459.1736     
     10500  -85260.784      463.70805     -84797.076      199.29014      199.32223      459.39184    
     10600  -85245.364      457.42185     -84787.942      199.28568      199.30716      459.61008    
     10700  -85241.017      462.11458     -84778.903      199.28237      199.29049      459.82832    
     10800  -85229.569      460.4381      -84769.131      199.27356      199.27361      460.04655    
     10900  -85220.609      462.95933     -84757.65       199.26488      199.26185      460.26479    
     11000  -85204.478      460.64942     -84743.828      199.24828      199.25196      460.48303    
     11100  -85199.965      468.46287     -84731.502      199.23359      199.24952      460.70127    
     11200  -85185.49       459.86666     -84725.623      199.2134       199.2451       460.91951    
     11300  -85181.082      459.0685      -84722.013      199.19604      199.24098      461.13775    
     11400  -85164.708      452.01786     -84712.69       199.17876      199.23197      461.35598    
     11500  -85156.841      460.71621     -84696.125      199.16344      199.2201       461.57422    
     11600  -85144.805      462.96257     -84681.842      199.15472      199.20883      461.79246    
     11700  -85131.97       460.63187     -84671.338      199.14216      199.1922       462.0107     
     11800  -85118.135      457.34707     -84660.788      199.13675      199.17958      462.22894    
     11900  -85107.33       462.06309     -84645.267      199.12453      199.1622       462.44718    
     12000  -85094.286      466.46658     -84627.82       199.11171      199.14941      462.66542    
     12100  -85084.155      462.75171     -84621.403      199.09424      199.13872      462.88365    
     12200  -85075.931      459.36191     -84616.569      199.07447      199.13085      463.10189    
     12300  -85069.416      462.10564     -84607.311      199.05751      199.12605      463.32013    
     12400  -85059.488      461.94623     -84597.541      199.03866      199.11778      463.53837    
     12500  -85045.655      460.31828     -84585.337      199.0221       199.10857      463.75661    
     12600  -85024.651      457.53329     -84567.118      199.00492      199.09487      463.97485    
     12700  -85018.211      467.59949     -84550.612      198.99079      199.07979      464.19308    
     12800  -85005.058      462.38143     -84542.677      198.97916      199.0627       464.41132    
     12900  -84993.007      458.40873     -84534.598      198.96718      199.04636      464.62956    
     13000  -84984.032      458.80723     -84525.224      198.95437      199.03258      464.8478     
     13100  -84977.695      462.94157     -84514.753      198.93981      199.01877      465.06604    
     13200  -84964.716      461.31693     -84503.399      198.92419      199.00564      465.28428    
     13300  -84949.47       460.66629     -84488.804      198.9069       198.99067      465.50251    
     13400  -84930.253      461.39257     -84468.861      198.88781      198.97742      465.72075    
     13500  -84919.949      465.68515     -84454.264      198.86906      198.96492      465.93899    
     13600  -84905.884      457.19266     -84448.691      198.85189      198.95487      466.15723    
     13700  -84896.927      456.58995     -84440.337      198.83257      198.94217      466.37547    
     13800  -84885.335      457.74911     -84427.586      198.81802      198.92837      466.59371    
     13900  -84873.425      460.56753     -84412.857      198.80207      198.9097       466.81195    
     14000  -84854.961      460.82201     -84394.139      198.78838      198.88966      467.03018    
     14100  -84849.649      471.81082     -84377.839      198.77477      198.87045      467.24842    
     14200  -84835.322      460.95158     -84374.37       198.75677      198.85172      467.46666    
     14300  -84823.228      458.11899     -84365.109      198.74341      198.83706      467.6849     
     14400  -84811.407      459.39265     -84352.015      198.72674      198.82096      467.90314    
     14500  -84797.035      461.79717     -84335.238      198.7086       198.80521      468.12138    
     14600  -84782.574      464.54955     -84318.024      198.69057      198.79059      468.33961    
     14700  -84772.113      466.3345      -84305.779      198.66679      198.77383      468.55785    
     14800  -84758.852      458.16031     -84300.691      198.64685      198.76123      468.77609    
     14900  -84743.577      454.7384      -84288.839      198.62432      198.74648      468.99433    
     15000  -84728.611      459.24172     -84269.369      198.60326      198.73343      469.21257    
     15100  -84714.077      462.51995     -84251.557      198.58328      198.71853      469.43081    
     15200  -84701.289      462.47347     -84238.815      198.56447      198.70269      469.64904    
     15300  -84684.297      455.77595     -84228.521      198.54507      198.68379      469.86728    
     15400  -84674.313      455.81556     -84218.498      198.52609      198.66371      470.08552    
     15500  -84663.706      452.8416      -84210.864      198.50647      198.64514      470.30376    
     15600  -84649.303      451.5615      -84197.742      198.48511      198.62669      470.522      
     15700  -84631.737      457.33935     -84174.398      198.46497      198.61215      470.74024    
     15800  -84616.206      460.05223     -84156.154      198.44087      198.59609      470.95847    
     15900  -84601.582      461.91879     -84139.663      198.41877      198.58058      471.17671    
     16000  -84588.927      463.14794     -84125.779      198.39652      198.56422      471.39495    
     16100  -84582.311      462.68827     -84119.623      198.37102      198.54402      471.61319    
     16200  -84566.48       457.71962     -84108.761      198.35091      198.52726      471.83143    
     16300  -84547.59       457.28819     -84090.302      198.32737      198.50713      472.04967    
     16400  -84532.729      461.5452      -84071.184      198.30727      198.48989      472.26791    
     16500  -84513.187      458.72397     -84054.463      198.28593      198.46925      472.48614    
     16600  -84498.016      458.90703     -84039.109      198.2646       198.44815      472.70438    
     16700  -84493.644      466.40811     -84027.236      198.24459      198.4273       472.92262    
     16800  -84475.42       453.74691     -84021.674      198.22175      198.4052       473.14086    
     16900  -84464.425      458.10245     -84006.323      198.1998       198.38444      473.3591     
     17000  -84448.405      463.43755     -83984.967      198.17783      198.36383      473.57734    
     17100  -84426.096      459.87663     -83966.219      198.1529       198.34371      473.79557    
     17200  -84413.786      461.72487     -83952.061      198.12928      198.32469      474.01381    
     17300  -84398.506      457.65001     -83940.856      198.10486      198.3062       474.23205    
     17400  -84378.684      452.10475     -83926.579      198.07889      198.2869       474.45029    
     17500  -84364.032      462.57776     -83901.454      198.05496      198.26821      474.66853    
     17600  -84351.5        466.35122     -83885.148      198.02659      198.24696      474.88677    
     17700  -84339.393      461.82641     -83877.567      198.00225      198.22625      475.105      
     17800  -84323.763      458.84264     -83864.92       197.97823      198.2056       475.32324    
     17900  -84311.023      462.8937      -83848.129      197.95131      198.18316      475.54148    
     18000  -84286.44       459.20068     -83827.239      197.93033      198.16524      475.75972    
     18100  -84269.715      465.5851      -83804.13       197.8999       198.14236      475.97796    
     18200  -84259.016      467.45817     -83791.558      197.87495      198.12402      476.1962     
     18300  -84240.08       459.81494     -83780.265      197.84638      198.10323      476.41443    
     18400  -84227.728      460.12654     -83767.602      197.81731      198.08217      476.63267    
     18500  -84211.486      458.1539      -83753.332      197.79211      198.06431      476.85091    
     18600  -84194.424      461.6218      -83732.802      197.76013      198.04262      477.06915    
     18700  -84181.676      471.78653     -83709.889      197.7356       198.02518      477.28739    
     18800  -84159.482      461.89873     -83697.583      197.70602      198.00317      477.50563    
     18900  -84147.791      460.38353     -83687.407      197.68007      197.97968      477.72387    
     19000  -84131.292      459.09601     -83672.196      197.65912      197.95558      477.9421     
     19100  -84114.601      460.19709     -83654.404      197.63249      197.92566      478.16034    
     19200  -84094.042      459.86253     -83634.18       197.61491      197.90128      478.37858    
     19300  -84077.081      462.85805     -83614.223      197.58842      197.87241      478.59682    
     19400  -84060.9        462.59084     -83598.309      197.5648       197.84852      478.81506    
     19500  -84049.353      459.98998     -83589.363      197.538        197.82653      479.0333     
     19600  -84035.452      458.43011     -83577.022      197.50678      197.80524      479.25153    
     19700  -84019.316      460.18065     -83559.135      197.47971      197.78682      479.46977    
     19800  -83994.701      460.15577     -83534.545      197.44657      197.76545      479.68801    
     19900  -83980.014      464.56673     -83515.447      197.41758      197.74614      479.90625    
     20000  -83960.279      459.09402     -83501.185      197.38706      197.72473      480.12449    
     20100  -83950.39       463.42769     -83486.962      197.35737      197.70165      480.34273    
     20200  -83931.723      457.98218     -83473.741      197.33393      197.67834      480.56096    
     20300  -83922.363      456.49826     -83465.865      197.30809      197.65202      480.7792     
     20400  -83899.239      451.46061     -83447.779      197.28496      197.62576      480.99744    
     20500  -83877.764      454.5593      -83423.205      197.25913      197.59913      481.21568    
     20600  -83860.766      459.65152     -83401.114      197.23151      197.57299      481.43392    
     20700  -83841.132      461.42257     -83379.71       197.20563      197.55033      481.65216    
     20800  -83826.22       464.53268     -83361.687      197.1761       197.52706      481.87039    
     20900  -83811.951      461.70756     -83350.243      197.14951      197.50584      482.08863    
     21000  -83797.351      458.17186     -83339.179      197.11884      197.48338      482.30687    
     21100  -83774.465      454.72172     -83319.744      197.08957      197.4617       482.52511    
     21200  -83758.487      461.62866     -83296.859      197.06126      197.4409       482.74335    
     21300  -83733.372      456.26089     -83277.111      197.03011      197.41645      482.96159    
     21400  -83718.788      458.77489     -83260.013      197.0066       197.39449      483.17983    
     21500  -83706.4        464.14006     -83242.26       196.97835      197.36777      483.39806    
     21600  -83686.772      463.79842     -83222.974      196.95344      197.34277      483.6163     
     21700  -83664.991      463.36876     -83201.622      196.92763      197.3185       483.83454    
     21800  -83647.201      464.88093     -83182.32       196.89919      197.293        484.05278    
     21900  -83629.195      460.28253     -83168.913      196.87529      197.27204      484.27102    
     22000  -83615.479      456.92943     -83158.549      196.84374      197.24657      484.48926    
     22100  -83597.873      457.12002     -83140.753      196.81966      197.22544      484.70749    
     22200  -83580.545      462.5035      -83118.042      196.79175      197.2008       484.92573    
     22300  -83556.432      458.8662      -83097.565      196.7642       197.17668      485.14397    
     22400  -83537.433      458.80053     -83078.633      196.73977      197.15394      485.36221    
     22500  -83521.932      461.84595     -83060.086      196.71096      197.12812      485.58045    
     22600  -83507.643      463.09171     -83044.552      196.68776      197.10543      485.79869    
     22700  -83491.318      457.07656     -83034.241      196.66056      197.08033      486.01692    
     22800  -83473.907      454.34007     -83019.567      196.63639      197.05776      486.23516    
     22900  -83452.702      458.32138     -82994.381      196.61003      197.03523      486.4534     
     23000  -83432.63       461.74874     -82970.881      196.58086      197.01448      486.67164    
     23100  -83412.341      463.03037     -82949.31       196.55165      196.99547      486.88988    
     23200  -83390.433      462.25291     -82928.18       196.52007      196.97558      487.10812    
     23300  -83375.602      464.38493     -82911.217      196.49161      196.95659      487.32636    
     23400  -83356.405      457.54663     -82898.858      196.46309      196.93702      487.54459    
     23500  -83338.984      454.35487     -82884.629      196.43599      196.91766      487.76283    
     23600  -83317.071      456.15913     -82860.912      196.41032      196.89737      487.98107    
     23700  -83295.025      459.48837     -82835.536      196.38415      196.87524      488.19931    
     23800  -83278.455      461.93735     -82816.518      196.35917      196.85215      488.41755    
     23900  -83260.627      460.16732     -82800.46       196.33504      196.82855      488.63579    
     24000  -83239.438      455.12169     -82784.316      196.31198      196.80529      488.85402    
     24100  -83224.103      459.16297     -82764.94       196.2902       196.78217      489.07226    
     24200  -83205.162      467.03222     -82738.13       196.26715      196.75898      489.2905     
     24300  -83180.265      464.74887     -82715.517      196.24415      196.73616      489.50874    
     24400  -83157.088      458.67666     -82698.411      196.22008      196.71518      489.72698    
     24500  -83143.796      457.16945     -82686.626      196.19383      196.69337      489.94522    
     24600  -83123.503      451.1798      -82672.323      196.17107      196.67471      490.16345    
     24700  -83108.792      458.24986     -82650.542      196.14558      196.65445      490.38169    
     24800  -83086.577      458.98361     -82627.593      196.12108      196.63513      490.59993    
     24900  -83061.366      457.70234     -82603.663      196.09733      196.61679      490.81817    
     25000  -83042.518      461.67674     -82580.841      196.07088      196.59648      491.03641    
     25100  -83025.122      463.56434     -82561.558      196.04733      196.57867      491.25465    
     25200  -83005.153      454.44704     -82550.705      196.02244      196.55805      491.47288    
     25300  -82993.089      456.9961      -82536.093      196.00145      196.53903      491.69112    
     25400  -82969.665      459.12095     -82510.544      195.9794       196.51764      491.90936    
     25500  -82947.477      462.31852     -82485.158      195.9582       196.49639      492.1276     
     25600  -82920.902      457.74117     -82463.161      195.93719      196.475        492.34584    
     25700  -82902.013      458.73477     -82443.279      195.915        196.45368      492.56408    
     25800  -82888.484      464.04881     -82424.435      195.89306      196.43392      492.78232    
     25900  -82868.366      458.65317     -82409.713      195.87075      196.4161       493.00055    
     26000  -82851.563      459.62712     -82391.936      195.84635      196.40112      493.21879    
     26100  -82826.056      460.26784     -82365.788      195.81928      196.38596      493.43703    
     26200  -82800.416      460.00413     -82340.412      195.79368      196.37228      493.65527    
     26300  -82782.036      461.23083     -82320.805      195.76779      196.35692      493.87351    
     26400  -82761.416      458.03991     -82303.376      195.74544      196.34114      494.09175    
     26500  -82749.227      462.82785     -82286.399      195.72449      196.32319      494.30998    
     26600  -82724.419      450.81243     -82273.607      195.705        196.30271      494.52822    
     26700  -82710.8        459.78346     -82251.017      195.68671      196.28147      494.74646    
     26800  -82682.341      460.03626     -82222.305      195.66828      196.25899      494.9647     
     26900  -82655.19       456.30504     -82198.885      195.65176      196.23823      495.18294    
     27000  -82642.447      465.61054     -82176.837      195.63279      196.21834      495.40118    
     27100  -82620.982      463.63004     -82157.352      195.61413      196.20208      495.61941    
     27200  -82598.711      455.05894     -82143.653      195.59178      196.18666      495.83765    
     27300  -82586.411      460.30146     -82126.11       195.56777      196.17152      496.05589    
     27400  -82558.977      459.47892     -82099.498      195.54529      196.15813      496.27413    
     27500  -82537.396      465.11899     -82072.277      195.52041      196.14284      496.49237    
     27600  -82513.191      461.4535      -82051.737      195.49879      196.12995      496.71061    
     27700  -82495.139      461.3925      -82033.747      195.47675      196.11557      496.92884    
     27800  -82479.379      462.46091     -82016.918      195.45643      196.10036      497.14708    
     27900  -82453.754      454.06518     -81999.688      195.43852      196.08467      497.36532    
     28000  -82432.222      457.84078     -81974.381      195.41925      196.06505      497.58356    
     28100  -82407.156      461.32887     -81945.827      195.40397      196.04558      497.8018     
     28200  -82386.98       463.17246     -81923.808      195.38752      196.02401      498.02004    
     28300  -82363.348      457.40789     -81905.941      195.37176      196.00538      498.23828    
     28400  -82349.304      457.29286     -81892.011      195.35509      195.98919      498.45651    
     28500  -82332.225      457.75984     -81874.465      195.33488      195.97432      498.67475    
     28600  -82303.366      458.68087     -81844.686      195.31407      195.96254      498.89299    
     28700  -82279.971      462.0716      -81817.899      195.29213      195.9498       499.11123    
     28800  -82255.354      457.7208      -81797.633      195.27048      195.93748      499.32947    
     28900  -82232.815      454.14185     -81778.673      195.25031      195.92406      499.54771    
     29000  -82217.768      459.44888     -81758.319      195.2317       195.90914      499.76594    
     29100  -82194.551      458.94672     -81735.604      195.21483      195.89332      499.98418    
     29200  -82170.446      463.0174      -81707.428      195.19726      195.87641      500.20242    
     29300  -82147.396      464.56198     -81682.834      195.18072      195.86005      500.42066    
     29400  -82126.539      460.84039     -81665.698      195.16326      195.84322      500.6389     
     29500  -82109.489      457.2971      -81652.192      195.14656      195.82592      500.85714    
     29600  -82089.632      459.50632     -81630.126      195.13235      195.8098       501.07537    
     29700  -82064.74       459.61028     -81605.13       195.11655      195.7919       501.29361    
     29800  -82038.595      458.59638     -81579.999      195.10223      195.77582      501.51185    
     29900  -82014.456      460.33632     -81554.12       195.08606      195.76069      501.73009    
     30000  -81993.692      466.40543     -81527.287      195.0678       195.74535      501.94833    
     30100  -81969.855      463.82027     -81506.035      195.04994      195.73104      502.16657    
     30200  -81955.467      462.03785     -81493.429      195.03049      195.71627      502.3848     
     30300  -81935.114      459.89281     -81475.221      195.01379      195.70221      502.60304    
     30400  -81914.611      461.19211     -81453.419      194.99682      195.68731      502.82128    
     30500  -81887.171      461.47025     -81425.701      194.97979      195.67227      503.03952    
     30600  -81856.483      459.24201     -81397.241      194.96405      195.65838      503.25776    
     30700  -81839.601      462.66164     -81376.939      194.94579      195.64299      503.476      
     30800  -81823.177      464.46444     -81358.712      194.92967      195.62929      503.69424    
     30900  -81797.176      458.62586     -81338.55       194.91319      195.61531      503.91247    
     31000  -81775.29       459.98121     -81315.309      194.89555      195.60039      504.13071    
     31100  -81753.55       464.37031     -81289.18       194.88072      195.58691      504.34895    
     31200  -81726.902      469.3813      -81257.521      194.86389      195.57156      504.56719    
     31300  -81707.387      470.08994     -81237.297      194.8482       195.55654      504.78543    
     31400  -81681.772      459.51785     -81222.254      194.83301      195.54189      505.00367    
     31500  -81663.595      460.31989     -81203.276      194.81445      195.52574      505.2219     
     31600  -81639.227      456.8762      -81182.35       194.80043      195.51211      505.44014    
     31700  -81617.821      461.48229     -81156.339      194.78315      195.49635      505.65838    
     31800  -81587.36       461.22099     -81126.139      194.76839      195.48188      505.87662    
     31900  -81565.499      461.82666     -81103.672      194.75434      195.46691      506.09486    
     32000  -81549.207      462.53265     -81086.674      194.73779      195.45074      506.3131     
     32100  -81525.137      458.17881     -81066.959      194.72351      195.43641      506.53133    
     32200  -81505.367      459.57709     -81045.79       194.70775      195.42188      506.74957    
     32300  -81485.708      461.44949     -81024.258      194.691        195.40764      506.96781    
     32400  -81461.322      463.19005     -80998.132      194.67485      195.3947       507.18605    
     32500  -81429.276      460.86976     -80968.406      194.65694      195.38116      507.40429    
     32600  -81408.407      462.63549     -80945.772      194.63991      195.36871      507.62253    
     32700  -81387.654      457.91111     -80929.743      194.62207      195.35679      507.84076    
     32800  -81370.257      457.12866     -80913.128      194.60312      195.3452       508.059      
     32900  -81345.411      457.32009     -80888.09       194.58448      195.33481      508.27724    
     33000  -81316.573      456.15098     -80860.422      194.56524      195.32362      508.49548    
     33100  -81298.199      464.62853     -80833.571      194.54838      195.3122       508.71372    
     33200  -81265.842      456.28074     -80809.562      194.53269      195.29806      508.93196    
     33300  -81248.99       459.75238     -80789.237      194.51783      195.28197      509.1502     
     33400  -81232.635      456.89169     -80775.743      194.50538      195.26729      509.36843    
     33500  -81206.593      455.14163     -80751.451      194.48981      195.25042      509.58667    
     33600  -81180.367      459.41961     -80720.948      194.47454      195.23597      509.80491    
     33700  -81149.639      455.14977     -80694.489      194.4579       195.22167      510.02315    
     33800  -81138.743      468.64454     -80670.098      194.44123      195.20836      510.24139    
     33900  -81108.763      459.01838     -80649.744      194.42442      195.19728      510.45963    
     34000  -81091.057      456.77116     -80634.286      194.4036       195.18506      510.67786    
     34100  -81066.978      454.27622     -80612.701      194.38539      195.17686      510.8961     
     34200  -81043.303      463.32048     -80579.982      194.36627      195.16661      511.11434    
     34300  -81018.08       463.96664     -80554.114      194.34699      195.15467      511.33258    
     34400  -80995.956      465.56684     -80530.389      194.33119      195.14319      511.55082    
     34500  -80964.2        456.99314     -80507.207      194.31474      195.12867      511.76906    
     34600  -80945.211      462.18291     -80483.028      194.3004       195.11377      511.98729    
     34700  -80919.955      461.74391     -80458.211      194.28703      195.09672      512.20553    
     34800  -80898.927      462.94192     -80435.986      194.2743       195.07861      512.42377    
     34900  -80875.379      458.8734      -80416.506      194.26208      195.06098      512.64201    
     35000  -80854.532      458.01154     -80396.52       194.24833      195.04347      512.86025    
     35100  -80828.572      457.00144     -80371.57       194.23387      195.02794      513.07849    
     35200  -80799.746      460.30422     -80339.442      194.21868      195.01441      513.29673    
     35300  -80777.251      463.92188     -80313.329      194.20157      195.00081      513.51496    
     35400  -80753.931      462.20086     -80291.731      194.18479      194.98863      513.7332     
     35500  -80734.651      459.14891     -80275.502      194.16769      194.97664      513.95144    
     35600  -80713.923      458.94851     -80254.975      194.14834      194.96308      514.16968    
     35700  -80684.683      455.86088     -80228.822      194.1317       194.95155      514.38792    
     35800  -80663.117      462.85025     -80200.267      194.1118       194.93865      514.60616    
     35900  -80633.713      461.23586     -80172.478      194.09331      194.92647      514.82439    
     36000  -80611.935      464.72331     -80147.212      194.07685      194.91434      515.04263    
     36100  -80581.424      456.46246     -80124.961      194.05999      194.89975      515.26087    
     36200  -80565.983      457.32775     -80108.655      194.04567      194.88612      515.47911    
     36300  -80546.056      459.93128     -80086.125      194.02973      194.8707       515.69735    
     36400  -80514.295      458.76469     -80055.53       194.01555      194.85506      515.91559    
     36500  -80487.341      460.50674     -80026.834      194.00104      194.83857      516.13382    
     36600  -80461.281      457.58999     -80003.691      193.98704      194.82155      516.35206    
     36700  -80447.088      464.76715     -79982.321      193.97284      194.80534      516.5703     
     36800  -80424.14       460.79999     -79963.34       193.95756      194.78993      516.78854    
     36900  -80402.706      456.71979     -79945.986      193.94165      194.77702      517.00678    
     37000  -80376.32       458.00463     -79918.315      193.92244      194.76478      517.22502    
     37100  -80345.842      460.04646     -79885.796      193.90227      194.75338      517.44325    
     37200  -80323.402      464.23609     -79859.166      193.88249      194.74224      517.66149    
     37300  -80296.938      462.90292     -79834.035      193.86289      194.73071      517.87973    
     37400  -80273.645      462.89781     -79810.747      193.84413      194.71905      518.09797    
     37500  -80249.472      459.26887     -79790.203      193.82539      194.70669      518.31621    
     37600  -80226.692      457.0104      -79769.681      193.80773      194.69541      518.53445    
     37700  -80203.366      462.28021     -79741.085      193.7904       194.68341      518.75269    
     37800  -80170.313      460.66242     -79709.651      193.77217      194.66871      518.97092    
     37900  -80151.843      467.03176     -79684.812      193.75595      194.65323      519.18916    
     38000  -80127.429      462.99491     -79664.434      193.73987      194.63643      519.4074     
     38100  -80106.89       460.06017     -79646.83       193.72373      194.61983      519.62564    
     38200  -80079.382      456.79376     -79622.588      193.70899      194.60452      519.84388    
     38300  -80052.603      466.64071     -79585.962      193.69338      194.58868      520.06212    
     38400  -80023.27       461.71904     -79561.551      193.67823      194.57387      520.28035    
     38500  -80003.038      461.67918     -79541.359      193.66096      194.55947      520.49859    
     38600  -79981.546      459.99837     -79521.547      193.64229      194.54578      520.71683    
     38700  -79956.647      459.29008     -79497.357      193.62352      194.53317      520.93507    
     38800  -79926.285      462.08743     -79464.198      193.6038       194.52018      521.15331    
     38900  -79898.923      462.14824     -79436.775      193.58508      194.50765      521.37155    
     39000  -79878.16       462.3881      -79415.772      193.56886      194.49463      521.58978    
     39100  -79856.079      460.04697     -79396.032      193.5507       194.47845      521.80802    
     39200  -79828.632      456.4272      -79372.205      193.53507      194.46334      522.02626    
     39300  -79803.895      464.29834     -79339.596      193.51879      194.4472       522.2445     
     39400  -79776.592      467.14882     -79309.443      193.50119      194.42945      522.46274    
     39500  -79754.564      464.65433     -79289.91       193.48586      194.41354      522.68098    
     39600  -79733.234      462.16199     -79271.072      193.46833      194.39587      522.89921    
     39700  -79710.876      462.11268     -79248.764      193.4539       194.38204      523.11745    
     39800  -79679.458      458.98376     -79220.475      193.43673      194.36691      523.33569    
     39900  -79648.418      461.96527     -79186.453      193.41899      194.35087      523.55393    
     40000  -79624.212      461.74838     -79162.463      193.40272      194.33759      523.77217    
     40100  -79601.463      458.59969     -79142.863      193.38198      194.32112      523.99041    
     40200  -79580.326      458.4809      -79121.845      193.36281      194.30667      524.20865    
     40300  -79553.443      457.57787     -79095.865      193.34516      194.29189      524.42688    
     40400  -79530.575      465.52112     -79065.054      193.32731      194.27622      524.64512    
     40500  -79499.61       467.70903     -79031.901      193.31221      194.26124      524.86336    
     40600  -79476.66       466.01596     -79010.644      193.29453      194.24395      525.0816     
     40700  -79457.484      465.88736     -78991.596      193.2779       194.22722      525.29984    
     40800  -79428.418      458.25762     -78970.16       193.26096      194.21105      525.51808    
     40900  -79410.026      463.46892     -78946.557      193.24         194.19354      525.73631    
     41000  -79378.223      460.32755     -78917.895      193.22139      194.17957      525.95455    
     41100  -79354.77       469.92925     -78884.84       193.20269      194.16594      526.17279    
     41200  -79322.998      460.9247      -78862.073      193.18353      194.15221      526.39103    
     41300  -79299.157      457.29429     -78841.862      193.16534      194.13897      526.60927    
     41400  -79277.436      459.55674     -78817.879      193.14543      194.12432      526.82751    
     41500  -79251.742      459.08586     -78792.657      193.12622      194.1099       527.04574    
     41600  -79228.76       461.73089     -78767.029      193.10638      194.09558      527.26398    
     41700  -79201.049      460.71636     -78740.332      193.08599      194.08043      527.48222    
     41800  -79176.965      464.1204      -78712.845      193.06692      194.0651       527.70046    
     41900  -79148.703      459.82167     -78688.881      193.04858      194.04906      527.9187     
     42000  -79128.497      458.79881     -78669.698      193.03125      194.03339      528.13694    
     42100  -79106.956      460.05247     -78646.904      193.01279      194.01763      528.35517    
     42200  -79077.663      462.47272     -78615.19       192.99321      194.00197      528.57341    
     42300  -79050.985      466.97756     -78584.008      192.97309      193.98704      528.79165    
     42400  -79023.566      462.53033     -78561.036      192.95154      193.97209      529.00989    
     42500  -79004.604      464.25909     -78540.345      192.93091      193.95806      529.22813    
     42600  -78973.76       454.99464     -78518.765      192.91162      193.94386      529.44637    
     42700  -78951.93       460.21585     -78491.715      192.8922       193.9286       529.66461    
     42800  -78921.233      465.23913     -78455.994      192.87402      193.91441      529.88284    
     42900  -78896.377      464.9655      -78431.411      192.85463      193.89872      530.10108    
     43000  -78869.964      457.48503     -78412.479      192.83459      193.88288      530.31932    
     43100  -78849.279      459.34023     -78389.939      192.815        193.86695      530.53756    
     43200  -78820.025      455.98196     -78364.043      192.79536      193.85131      530.7558     
     43300  -78797.866      463.82263     -78334.043      192.77575      193.83508      530.97404    
     43400  -78768.155      469.64597     -78298.509      192.75785      193.81918      531.19227    
     43500  -78741.328      465.32086     -78276.007      192.73916      193.8014       531.41051    
     43600  -78719.062      462.28939     -78256.773      192.72148      193.78368      531.62875    
     43700  -78695.347      460.77148     -78234.576      192.70342      193.76543      531.84699    
     43800  -78674.074      463.48724     -78210.587      192.68404      193.74746      532.06523    
     43900  -78644.211      459.28744     -78184.923      192.66422      193.73151      532.28347    
     44000  -78614.167      460.11864     -78154.049      192.64333      193.71554      532.5017     
     44100  -78588.014      464.34109     -78123.673      192.62347      193.70046      532.71994    
     44200  -78562.775      462.23496     -78100.54       192.60429      193.68534      532.93818    
     44300  -78546.039      462.49986     -78083.539      192.58478      193.66938      533.15642    
     44400  -78519.145      460.11895     -78059.026      192.56629      193.6525       533.37466    
     44500  -78491.129      460.10238     -78031.027      192.54763      193.635        533.5929     
     44600  -78462.424      462.27635     -78000.148      192.52872      193.61673      533.81113    
     44700  -78431.005      461.36647     -77969.638      192.5101       193.59847      534.02937    
     44800  -78409.543      462.10123     -77947.442      192.49024      193.58036      534.24761    
     44900  -78392.17       461.06389     -77931.106      192.47034      193.5637       534.46585    
     45000  -78367.852      460.8158      -77907.036      192.45034      193.54818      534.68409    
     45100  -78341.056      462.6702      -77878.386      192.43058      193.53193      534.90233    
     45200  -78309.697      463.68197     -77846.015      192.41247      193.51495      535.12057    
     45300  -78281.639      463.25224     -77818.386      192.39439      193.49709      535.3388     
     45400  -78260.137      460.53739     -77799.599      192.37594      193.48017      535.55704    
     45500  -78236.9        456.19617     -77780.704      192.35592      193.46294      535.77528    
     45600  -78208.721      456.85929     -77751.861      192.33459      193.44637      535.99352    
     45700  -78183.114      462.66836     -77720.445      192.31405      193.43073      536.21176    
     45800  -78159.278      467.53667     -77691.742      192.29394      193.41472      536.43       
     45900  -78123.954      456.77        -77667.184      192.27411      193.39819      536.64823    
     46000  -78109.146      458.73932     -77650.406      192.25534      193.3817       536.86647    
     46100  -78083.136      456.92465     -77626.211      192.23519      193.36375      537.08471    
     46200  -78051.365      457.43171     -77593.933      192.21504      193.34616      537.30295    
     46300  -78029.012      464.97018     -77564.042      192.19552      193.32989      537.52119    
     46400  -78002.517      463.50964     -77539.007      192.17405      193.31238      537.73943    
     46500  -77973.684      457.90428     -77515.78       192.15422      193.29662      537.95766    
     46600  -77953.393      459.477       -77493.916      192.13419      193.28053      538.1759     
     46700  -77932.197      455.69392     -77476.503      192.11468      193.26394      538.39414    
     46800  -77901.796      452.67479     -77449.121      192.0962       193.24732      538.61238    
     46900  -77875.788      460.518       -77415.27       192.07611      193.22882      538.83062    
     47000  -77844.949      459.22622     -77385.723      192.05778      193.21137      539.04886    
     47100  -77820.455      462.40456     -77358.05       192.038        193.19273      539.2671     
     47200  -77792.179      460.48754     -77331.691      192.01837      193.17577      539.48533    
     47300  -77769.907      459.95626     -77309.951      191.99898      193.15996      539.70357    
     47400  -77749.86       460.8224      -77289.038      191.97762      193.14355      539.92181    
     47500  -77723.412      460.13447     -77263.277      191.9578       193.12794      540.14005    
     47600  -77691.438      463.05772     -77228.38       191.9371       193.1109       540.35829    
     47700  -77662.307      464.4017      -77197.906      191.91679      193.09355      540.57653    
     47800  -77636.874      462.48776     -77174.386      191.89796      193.07604      540.79476    
     47900  -77613.769      459.64276     -77154.127      191.87865      193.05721      541.013      
     48000  -77594.233      463.93673     -77130.296      191.86028      193.03911      541.23124    
     48100  -77563.757      460.49752     -77103.26       191.8418       193.0216       541.44948    
     48200  -77535.491      460.6385      -77074.853      191.82146      193.00347      541.66772    
     48300  -77509.508      462.95468     -77046.554      191.80206      192.9876       541.88596    
     48400  -77483.636      463.18032     -77020.455      191.78041      192.97146      542.10419    
     48500  -77460.373      458.39623     -77001.977      191.75933      192.95589      542.32243    
     48600  -77433.271      455.90322     -76977.368      191.73937      192.93961      542.54067    
     48700  -77405.023      460.23892     -76944.784      191.7193       192.92175      542.75891    
     48800  -77378.038      464.77267     -76913.265      191.70076      192.90542      542.97715    
     48900  -77349.23       461.30746     -76887.923      191.68161      192.88805      543.19539    
     49000  -77323.756      458.46608     -76865.29       191.66209      192.87068      543.41362    
     49100  -77298.631      458.1129      -76840.518      191.64208      192.85433      543.63186    
     49200  -77273.989      459.99406     -76813.995      191.62084      192.83715      543.8501     
     49300  -77250.966      464.01649     -76786.95       191.60113      192.82066      544.06834    
     49400  -77219.487      458.01248     -76761.474      191.58129      192.80247      544.28658    
     49500  -77197.134      455.90695     -76741.227      191.56339      192.78552      544.50482    
     49600  -77173.267      456.75962     -76716.508      191.5453       192.76818      544.72306    
     49700  -77144.005      461.4041      -76682.601      191.52658      192.75078      544.94129    
     49800  -77116.261      465.05173     -76651.209      191.50859      192.73389      545.15953    
     49900  -77092.874      467.02265     -76625.851      191.4892       192.71574      545.37777    
     50000  -77063.374      459.90851     -76603.465      191.47111      192.69912      545.59601    
     50100  -77040.01       460.40731     -76579.603      191.45245      192.68079      545.81425    
     50200  -77010.961      458.62601     -76552.335      191.43431      192.663        546.03249    
     50300  -76985.728      463.8456      -76521.882      191.41626      192.64603      546.25072    
     50400  -76956.076      471.68353     -76484.393      191.39672      192.62667      546.46896    
     50500  -76926.489      464.14694     -76462.343      191.37905      192.6099       546.6872     
     50600  -76905.656      462.6545      -76443.001      191.35967      192.59168      546.90544    
     50700  -76882.086      461.75511     -76420.331      191.34113      192.57459      547.12368    
     50800  -76853.683      458.12402     -76395.559      191.3235       192.55875      547.34192    
     50900  -76828.741      462.27344     -76366.468      191.30397      192.54065      547.56015    
     51000  -76800.596      468.33015     -76332.266      191.28635      192.52486      547.77839    
     51100  -76763.824      459.93959     -76303.884      191.26772      192.50795      547.99663    
     51200  -76750.226      463.71172     -76286.514      191.24974      192.48908      548.21487    
     51300  -76726.885      464.58015     -76262.305      191.23351      192.47083      548.43311    
     51400  -76695.504      459.08481     -76236.419      191.21705      192.45048      548.65135    
     51500  -76668.695      458.95146     -76209.744      191.20125      192.43141      548.86958    
     51600  -76645.756      464.76341     -76180.992      191.18421      192.41298      549.08782    
     51700  -76617.151      467.38643     -76149.765      191.16568      192.39507      549.30606    
     51800  -76587.256      465.27479     -76121.981      191.14795      192.37897      549.5243     
     51900  -76564.201      461.64564     -76102.555      191.12896      192.36262      549.74254    
     52000  -76535.794      457.1942      -76078.6        191.11074      192.3459       549.96078    
     52100  -76514.113      463.43527     -76050.677      191.09403      192.33001      550.17902    
     52200  -76479.316      459.95526     -76019.36       191.07683      192.31152      550.39725    
     52300  -76450.558      465.96699     -75984.591      191.06107      192.29368      550.61549    
     52400  -76426.051      466.66295     -75959.388      191.04279      192.2744       550.83373    
     52500  -76405.467      464.23345     -75941.234      191.02584      192.2567       551.05197    
     52600  -76376.124      459.324       -75916.8        191.00812      192.23935      551.27021    
     52700  -76351.36       459.84349     -75891.516      190.98932      192.22195      551.48845    
     52800  -76328.778      463.87492     -75864.903      190.97232      192.20626      551.70668    
     52900  -76294.338      455.50779     -75838.83       190.95514      192.18938      551.92492    
     53000  -76273.378      459.13703     -75814.241      190.93945      192.17197      552.14316    
     53100  -76243.081      455.05718     -75788.023      190.92503      192.15423      552.3614     
     53200  -76219.963      462.47058     -75757.493      190.90985      192.13479      552.57964    
     53300  -76190.449      467.07107     -75723.378      190.89564      192.11681      552.79788    
     53400  -76161.936      465.69715     -75696.238      190.87872      192.09813      553.01611    
     53500  -76139.914      461.95605     -75677.958      190.86178      192.08136      553.23435    
     53600  -76106.602      454.78512     -75651.817      190.84406      192.06607      553.45259    
     53700  -76085.526      461.34023     -75624.186      190.82449      192.04893      553.67083    
     53800  -76058.209      463.43327     -75594.775      190.80784      192.03322      553.88907    
     53900  -76028.884      461.50208     -75567.382      190.79082      192.01606      554.10731    
     54000  -76006.8        460.54943     -75546.251      190.77407      191.99738      554.32554    
     54100  -75973.485      452.57574     -75520.909      190.76077      191.98096      554.54378    
     54200  -75949.981      461.03439     -75488.946      190.74569      191.96199      554.76202    
     54300  -75916.458      464.14005     -75452.318      190.73072      191.94436      554.98026    
     54400  -75892.028      467.04317     -75424.985      190.71577      191.92861      555.1985     
     54500  -75865.184      463.33132     -75401.853      190.69777      191.91179      555.41674    
     54600  -75843.023      463.62951     -75379.394      190.6808       191.89767      555.63498    
     54700  -75821.103      464.28205     -75356.821      190.66387      191.88268      555.85321    
     54800  -75794.929      463.91779     -75331.011      190.64563      191.86523      556.07145    
     54900  -75767.425      465.562       -75301.863      190.62975      191.84958      556.28969    
     55000  -75732.074      462.89958     -75269.174      190.6128       191.83293      556.50793    
     55100  -75704.778      467.16242     -75237.616      190.59664      191.81602      556.72617    
     55200  -75680.877      464.54116     -75216.336      190.58078      191.80024      556.94441    
     55300  -75652.442      458.73633     -75193.706      190.56483      191.78429      557.16264    
     55400  -75633.384      466.37145     -75167.012      190.54841      191.76938      557.38088    
     55500  -75598.681      458.74908     -75139.931      190.53124      191.75523      557.59912    
     55600  -75574.677      460.62522     -75114.051      190.51473      191.74126      557.81736    
     55700  -75548.647      457.72273     -75090.924      190.49678      191.72739      558.0356     
     55800  -75525.501      462.3932      -75063.108      190.47927      191.71258      558.25384    
     55900  -75490.497      462.37359     -75028.124      190.46329      191.69734      558.47207    
     56000  -75462.651      468.6538      -74993.998      190.44654      191.67945      558.69031    
     56100  -75432.821      462.02982     -74970.791      190.43267      191.66368      558.90855    
     56200  -75406.066      458.24851     -74947.817      190.41745      191.64686      559.12679    
     56300  -75382.588      461.35177     -74921.236      190.4005       191.63012      559.34503    
     56400  -75354.316      458.83557     -74895.48       190.38568      191.61679      559.56327    
     56500  -75331.711      460.32456     -74871.386      190.36895      191.60239      559.7815     
     56600  -75304.249      458.43062     -74845.818      190.3516       191.58808      559.99974    
     56700  -75279.23       459.38894     -74819.842      190.33622      191.57448      560.21798    
     56800  -75252.341      458.34103     -74794          190.31849      191.55908      560.43622    
     56900  -75220.153      457.65904     -74762.494      190.3032       191.54661      560.65446    
     57000  -75194.444      466.81172     -74727.632      190.28661      191.53218      560.8727     
     57100  -75160.005      462.74014     -74697.265      190.2696       191.51645      561.09094    
     57200  -75137.269      459.53521     -74677.734      190.25555      191.50366      561.30917    
     57300  -75110.605      459.15269     -74651.452      190.23867      191.48779      561.52741    
     57400  -75081.716      459.48015     -74622.236      190.22371      191.47347      561.74565    
     57500  -75057.809      462.79492     -74595.014      190.20931      191.45797      561.96389    
     57600  -75030.49       457.83121     -74572.659      190.19398      191.44117      562.18213    
     57700  -75006.58       461.41272     -74545.167      190.1816       191.42754      562.40037    
     57800  -74972.823      460.9041      -74511.919      190.16712      191.411        562.6186     
     57900  -74938.473      466.89817     -74471.575      190.15208      191.3936       562.83684    
     58000  -74906.008      462.10753     -74443.901      190.13857      191.37905      563.05508    
     58100  -74888.922      467.5839      -74421.338      190.12209      191.36374      563.27332    
     58200  -74860.351      462.04499     -74398.306      190.10609      191.35017      563.49156    
     58300  -74836.002      461.08859     -74374.913      190.09064      191.33684      563.7098     
     58400  -74809.666      460.80024     -74348.866      190.07538      191.32194      563.92803    
     58500  -74781.585      460.74182     -74320.843      190.06285      191.30811      564.14627    
     58600  -74755.091      459.80337     -74295.288      190.05025      191.29158      564.36451    
     58700  -74725.284      453.61658     -74271.667      190.03888      191.27442      564.58275    
     58800  -74699.513      458.99482     -74240.518      190.02733      191.2574       564.80099    
     58900  -74666.684      463.94089     -74202.744      190.01434      191.24055      565.01923    
     59000  -74634.229      466.43727     -74167.792      190.00069      191.22587      565.23747    
     59100  -74608.46       467.01576     -74141.445      189.98602      191.21082      565.4557     
     59200  -74585.863      467.14424     -74118.718      189.97189      191.1971       565.67394    
     59300  -74555.119      459.37283     -74095.746      189.95674      191.18234      565.89218    
     59400  -74532.91       463.3019      -74069.608      189.9428       191.16803      566.11042    
     59500  -74499.842      458.79178     -74041.05       189.92965      191.15336      566.32866    
     59600  -74468.527      454.98119     -74013.546      189.91505      191.13701      566.5469     
     59700  -74448.666      459.31442     -73989.352      189.90265      191.12345      566.76513    
     59800  -74420.449      457.61204     -73962.837      189.88854      191.10801      566.98337    
     59900  -74389.635      458.98566     -73930.649      189.87547      191.09367      567.20161    
     60000  -74353.723      463.82333     -73889.9        189.8627       191.07935      567.41985    
     60100  -74328.432      468.34357     -73860.088      189.84841      191.06401      567.63809    
     60200  -74302.469      465.65417     -73836.815      189.83599      191.05109      567.85633    
     60300  -74271.697      461.22382     -73810.473      189.82144      191.03564      568.07456    
     60400  -74245.5        460.67627     -73784.823      189.80817      191.01959      568.2928     
     60500  -74215.799      458.70029     -73757.098      189.79727      191.00415      568.51104    
     60600  -74189.577      460.00539     -73729.571      189.78374      190.98537      568.72928    
     60700  -74159.621      459.94722     -73699.673      189.77436      190.97029      568.94752    
     60800  -74131.553      459.16934     -73672.384      189.76239      190.95331      569.16576    
     60900  -74101.071      451.89585     -73649.176      189.74998      190.93711      569.38399    
     61000  -74073.664      457.74714     -73615.917      189.73892      190.92447      569.60223    
     61100  -74042.514      462.67753     -73579.837      189.72426      190.90828      569.82047    
     61200  -74013.878      467.96937     -73545.909      189.71313      190.89507      570.03871    
     61300  -73986.884      462.81247     -73524.072      189.70106      190.87963      570.25695    
     61400  -73950.684      453.85526     -73496.829      189.6885       190.8626       570.47519    
     61500  -73937.978      468.79121     -73469.187      189.67921      190.84866      570.69343    
     61600  -73901.117      459.00735     -73442.11       189.66574      190.8312       570.91166    
     61700  -73869.881      457.84222     -73412.039      189.65421      190.8176       571.1299     
     61800  -73841.098      459.78938     -73381.309      189.64052      190.80305      571.34814    
     61900  -73816.032      458.02707     -73358.005      189.62613      190.78838      571.56638    
     62000  -73782.634      454.81578     -73327.818      189.61417      190.77584      571.78462    
     62100  -73752.872      461.3391      -73291.533      189.59983      190.75967      572.00286    
     62200  -73713.774      460.95039     -73252.824      189.58811      190.74599      572.22109    
     62300  -73688.182      466.68325     -73221.499      189.57584      190.73051      572.43933    
     62400  -73663.705      464.03356     -73199.671      189.56404      190.71488      572.65757    
     62500  -73634.466      462.65069     -73171.815      189.55489      190.70077      572.87581    
     62600  -73602.318      457.90053     -73144.417      189.542        190.68347      573.09405    
     62700  -73576.352      461.40831     -73114.944      189.53104      190.66858      573.31229    
     62800  -73542.288      456.62939     -73085.659      189.51877      190.65379      573.53052    
     62900  -73521.682      464.65482     -73057.028      189.50525      190.63947      573.74876    
     63000  -73486.283      454.18693     -73032.096      189.49285      190.62741      573.967      
     63100  -73454.716      454.13514     -73000.581      189.47786      190.61264      574.18524    
     63200  -73423.768      460.14259     -72963.626      189.46573      190.5994       574.40348    
     63300  -73389.743      462.29262     -72927.45       189.45357      190.58465      574.62172    
     63400  -73358.526      462.61669     -72895.91       189.44173      190.56896      574.83995    
     63500  -73333.053      464.09652     -72868.957      189.43081      190.55335      575.05819    
     63600  -73303.606      465.47243     -72838.134      189.41936      190.53757      575.27643    
     63700  -73267.97       462.33859     -72805.631      189.40666      190.52254      575.49467    
     63800  -73237.913      462.25069     -72775.662      189.39386      190.51009      575.71291    
     63900  -73209.272      461.22475     -72748.047      189.37922      190.49785      575.93115    
     64000  -73176.702      460.98695     -72715.715      189.36411      190.48641      576.14939    
     64100  -73144.121      462.16942     -72681.952      189.35012      190.47523      576.36762    
     64200  -73112.672      463.73455     -72648.938      189.33544      190.46175      576.58586    
     64300  -73078.863      460.47872     -72618.385      189.32274      190.44767      576.8041     
     64400  -73050.09       463.14948     -72586.941      189.31109      190.43296      577.02234    
     64500  -73018.762      466.34265     -72552.42       189.29845      190.4178       577.24058    
     64600  -72981.851      462.50026     -72519.351      189.28661      190.40365      577.45882    
     64700  -72949.524      460.13943     -72489.385      189.27396      190.3904       577.67705    
     64800  -72925.483      467.761       -72457.722      189.26072      190.37775      577.89529    
     64900  -72892.418      468.31683     -72424.101      189.24665      190.36547      578.11353    
     65000  -72855.953      463.8932      -72392.06       189.23236      190.35277      578.33177    
     65100  -72824.758      465.56347     -72359.194      189.2194       190.34035      578.55001    
     65200  -72783.032      457.39883     -72325.634      189.20587      190.32621      578.76825    
     65300  -72751.848      459.28925     -72292.559      189.19392      190.31226      578.98648    
     65400  -72717.013      457.22718     -72259.785      189.18232      190.29735      579.20472    
     65500  -72685.607      458.81586     -72226.791      189.17042      190.28295      579.42296    
     65600  -72659.231      465.73067     -72193.5        189.15739      190.26868      579.6412     
     65700  -72621.885      460.41966     -72161.466      189.14477      190.2561       579.85944    
     65800  -72589.638      461.72794     -72127.91       189.13023      190.24253      580.07768    
     65900  -72563.133      468.51301     -72094.62       189.11662      190.22981      580.29591    
     66000  -72520.317      459.97762     -72060.339      189.1037       190.21766      580.51415    
     66100  -72487.74       461.46051     -72026.279      189.08915      190.20328      580.73239    
     66200  -72451.767      460.77413     -71990.993      189.07683      190.19085      580.95063    
     66300  -72417.413      459.37584     -71958.037      189.06403      190.17746      581.16887    
     66400  -72386.385      463.37482     -71923.01       189.05096      190.16324      581.38711    
     66500  -72350.002      461.59961     -71888.402      189.03974      190.15081      581.60535    
     66600  -72320.411      464.9307      -71855.48       189.02548      190.13653      581.82358    
     66700  -72282.023      462.11968     -71819.903      189.01322      190.12443      582.04182    
     66800  -72247.342      461.67932     -71785.663      188.99843      190.10998      582.26006    
     66900  -72210.711      460.21961     -71750.491      188.98566      190.09675      582.4783     
     67000  -72180.931      465.53497     -71715.396      188.97372      190.08398      582.69654    
     67100  -72142.806      462.52031     -71680.286      188.95965      190.06851      582.91478    
     67200  -72103.411      459.29224     -71644.119      188.94944      190.05633      583.13301    
     67300  -72073.435      463.41271     -71610.023      188.93524      190.04123      583.35125    
     67400  -72038.187      463.85159     -71574.336      188.92283      190.02853      583.56949    
     67500  -71997.394      459.30409     -71538.09       188.90885      190.01566      583.78773    
     67600  -71960.193      459.36387     -71500.829      188.89381      190.00203      584.00597    
     67700  -71921.295      456.77737     -71464.518      188.88029      189.98963      584.22421    
     67800  -71892.331      463.64131     -71428.69       188.86652      189.97656      584.44244    
     67900  -71858.169      466.08079     -71392.088      188.8548       189.96463      584.66068    
     68000  -71820.229      465.98256     -71354.246      188.84109      189.95072      584.87892    
     68100  -71783.389      467.09495     -71316.294      188.82895      189.93785      585.09716    
     68200  -71739.987      461.23097     -71278.756      188.81562      189.92332      585.3154     
     68300  -71706.67       465.44748     -71241.223      188.80181      189.90874      585.53364    
     68400  -71667.388      462.1895      -71205.199      188.78963      189.89527      585.75187    
     68500  -71632.113      462.23049     -71169.882      188.77606      189.87964      585.97011    
     68600  -71596.998      464.39863     -71132.599      188.76528      189.86647      586.18835    
     68700  -71559.783      466.02785     -71093.755      188.75292      189.8531       586.40659    
     68800  -71522.187      466.86148     -71055.326      188.73992      189.8402       586.62483    
     68900  -71488.731      470.7836      -71017.947      188.72777      189.82862      586.84307    
     69000  -71445.187      464.86334     -70980.324      188.71288      189.81415      587.06131    
     69100  -71409.227      468.18841     -70941.038      188.70042      189.80125      587.27954    
     69200  -71365.766      463.5222      -70902.244      188.68693      189.78637      587.49778    
     69300  -71331.999      468.88136     -70863.117      188.67444      189.77222      587.71602    
     69400  -71291.36       466.84239     -70824.517      188.66218      189.75894      587.93426    
     69500  -71248.156      463.33178     -70784.824      188.64768      189.74448      588.1525     
     69600  -71216.206      470.90181     -70745.304      188.63528      189.73285      588.37074    
     69700  -71170.711      465.8126      -70704.898      188.62059      189.71968      588.58897    
     69800  -71136.6        469.97398     -70666.626      188.60672      189.70728      588.80721    
     69900  -71095.375      468.02061     -70627.354      188.59411      189.69543      589.02545    
     70000  -71058.149      471.29336     -70586.856      188.57891      189.68049      589.24369    
     70100  -71016.727      469.31373     -70547.413      188.56737      189.66897      589.46193    
     70200  -70975.898      469.1061      -70506.792      188.55298      189.65527      589.68017    
     70300  -70930.705      465.84217     -70464.863      188.53945      189.64197      589.8984     
     70400  -70894.766      468.94776     -70425.818      188.52731      189.62947      590.11664    
     70500  -70853.294      468.45692     -70384.837      188.51251      189.61367      590.33488    
     70600  -70808.586      465.31795     -70343.268      188.50181      189.60142      590.55312    
     70700  -70774.19       472.13492     -70302.055      188.48772      189.58579      590.77136    
     70800  -70725.294      464.6716      -70260.623      188.47497      189.57163      590.9896     
     70900  -70691.254      470.6797      -70220.575      188.46346      189.55963      591.20784    
     71000  -70647.019      468.21104     -70178.808      188.44822      189.54424      591.42607    
     71100  -70604.298      469.16039     -70135.137      188.43692      189.53285      591.64431    
     71200  -70564.072      471.19733     -70092.875      188.42229      189.51851      591.86255    
     71300  -70520.969      471.14591     -70049.823      188.40915      189.50555      592.08079    
     71400  -70478.608      471.86073     -70006.747      188.39687      189.49344      592.29903    
     71500  -70430.16       464.39837     -69965.761      188.38201      189.47866      592.51727    
     71600  -70392.399      470.86659     -69921.532      188.37046      189.46708      592.7355     
     71700  -70353.926      472.86471     -69881.061      188.35528      189.45277      592.95374    
     71800  -70305.026      467.53017     -69837.495      188.34213      189.43974      593.17198    
     71900  -70266.632      473.24361     -69793.388      188.33006      189.42707      593.39022    
     72000  -70222.251      470.90411     -69751.347      188.31485      189.41129      593.60846    
     72100  -70178.863      472.76788     -69706.095      188.30443      189.39982      593.8267     
     72200  -70128.093      466.12525     -69661.967      188.29011      189.384        594.04493    
     72300  -70089.7        474.55897     -69615.141      188.27791      189.36968      594.26317    
     72400  -70044.623      473.81607     -69570.807      188.26665      189.35651      594.48141    
     72500  -69999.365      472.78925     -69526.576      188.25233      189.34066      594.69965    
     72600  -69961.191      479.39595     -69481.795      188.24173      189.32827      594.91789    
     72700  -69916.323      479.58194     -69436.742      188.22801      189.31351      595.13613    
     72800  -69870.617      477.53194     -69393.085      188.21478      189.29975      595.35436    
     72900  -69825.828      479.3771      -69346.451      188.20282      189.28763      595.5726     
     73000  -69778.007      479.21828     -69298.789      188.18777      189.27288      595.79084    
     73100  -69732.168      480.12171     -69252.046      188.17552      189.26124      596.00908    
     73200  -69690.276      483.08996     -69207.186      188.16091      189.2475       596.22732    
     73300  -69648.793      487.61913     -69161.174      188.1475       189.2341       596.44556    
     73400  -69596.484      482.81617     -69113.668      188.13589      189.22123      596.6638     
     73500  -69546.418      482.99179     -69063.427      188.12175      189.20546      596.88203    
     73600  -69511.302      490.06538     -69021.236      188.1105       189.19246      597.10027    
     73700  -69462.555      489.23587     -68973.319      188.09744      189.17801      597.31851    
     73800  -69411.543      487.82412     -68923.719      188.08392      189.16399      597.53675    
     73900  -69362.453      484.96138     -68877.492      188.07196      189.15221      597.75499    
     74000  -69322.458      491.52681     -68830.931      188.05708      189.13761      597.97323    
     74100  -69273.247      492.09807     -68781.149      188.04517      189.12525      598.19146    
     74200  -69224.765      493.24748     -68731.518      188.0323       189.11154      598.4097     
     74300  -69181.269      497.69696     -68683.572      188.01804      189.09669      598.62794    
     74400  -69134.1        502.87162     -68631.228      188.00639      189.08436      598.84618    
     74500  -69079.526      497.92201     -68581.604      187.99192      189.0698       599.06442    
     74600  -69029.312      498.47033     -68530.842      187.97873      189.05692      599.28266    
     74700  -68979.843      498.08467     -68481.758      187.96571      189.04404      599.50089    
     74800  -68924.047      495.66348     -68428.384      187.95168      189.02998      599.71913    
     74900  -68885.635      504.33899     -68381.296      187.93945      189.01739      599.93737    
     75000  -68835.321      506.19229     -68329.129      187.92554      189.00351      600.15561    
     75100  -68791.441      510.61902     -68280.822      187.91198      188.99055      600.37385    
     75200  -68738.874      504.40383     -68234.47       187.89844      188.97815      600.59209    
     75300  -68687.51       509.81603     -68177.694      187.8836       188.96506      600.81032    
     75400  -68636.72       517.3026      -68119.417      187.87008      188.95303      601.02856    
     75500  -68581.401      516.53709     -68064.864      187.85591      188.94041      601.2468     
     75600  -68534.048      522.83786     -68011.21       187.84182      188.92768      601.46504    
     75700  -68476.235      521.40143     -67954.833      187.82844      188.91511      601.68328    
     75800  -68429.733      531.48916     -67898.244      187.81454      188.90205      601.90152    
     75900  -68369.95       531.96064     -67837.989      187.80097      188.88932      602.11976    
     76000  -68307.294      523.16533     -67784.129      187.78701      188.87632      602.33799    
     76100  -68269.381      528.64695     -67740.734      187.77306      188.8637       602.55623    
     76200  -68213.815      526.90384     -67686.911      187.75921      188.85116      602.77447    
     76300  -68173.236      537.44688     -67635.789      187.74496      188.8383       602.99271    
     76400  -68117.61       529.32002     -67588.29       187.73101      188.82612      603.21095    
     76500  -68060.825      531.80359     -67529.021      187.71656      188.81355      603.42919    
     76600  -68023.013      559.42571     -67463.588      187.70232      188.8014       603.64742    
     76700  -68186.438      750.94924     -67435.489      187.68775      188.7893       603.86566    
     76800  -69027.31       1431.6507     -67595.659      187.67746      188.77905      604.0839     
     76900  -70524.954      2171.9151     -68353.039      187.67584      188.77538      604.30214    
     77000  -72619.363      2671.9532     -69947.41       187.68607      188.7877       604.52038    
     77100  -74827.638      2819.0625     -72008.575      187.70974      188.82475      604.73862    
     77200  -76817.85       2437.0728     -74380.777      187.7515       188.8787       604.95685    
     77300  -78391.014      2034.1214     -76356.893      187.78538      188.92109      605.17509    
     77400  -79638.549      1697.4721     -77941.077      187.82658      188.96243      605.39333    
     77500  -80670.984      1461.0316     -79209.953      187.87449      189.00576      605.61157    
     77600  -81387.786      1184.4824     -80203.304      187.92308      189.04728      605.82981    
     77700  -81928.48       988.64164     -80939.839      187.97719      189.09289      606.04805    
     77800  -82354.312      848.70202     -81505.61       188.02812      189.13272      606.26628    
     77900  -82732.811      772.84055     -81959.97       188.08109      189.1699       606.48452    
     78000  -83130.745      758.54327     -82372.201      188.13101      189.20195      606.70276    
     78100  -83531.91       753.7537      -82778.156      188.17867      189.23275      606.921      
     78200  -83910.619      735.22123     -83175.398      188.22297      189.26221      607.13924    
     78300  -84258.565      708.43652     -83550.129      188.26514      189.29089      607.35748    
     78400  -84567.824      671.42446     -83896.399      188.30263      189.31829      607.57572    
     78500  -84799.201      605.60184     -84193.599      188.34038      189.34778      607.79395    
     78600  -84972.835      545.51785     -84427.317      188.37593      189.37556      608.01219    
     78700  -85097.999      494.37097     -84603.628      188.41337      189.40489      608.23043    
     78800  -85185.768      458.23668     -84727.532      188.45251      189.43488      608.44867    
     78900  -85236.982      434.67635     -84802.306      188.49209      189.46556      608.66691    
     79000  -85236.22       416.44778     -84819.772      188.53203      189.49726      608.88515    
     79100  -85171.285      407.67988     -84763.605      188.5695       189.52639      609.10338    
     79200  -85057.508      402.17199     -84655.336      188.6044       189.55335      609.32162    
     79300  -84900.673      366.65577     -84534.017      188.63584      189.57711      609.53986    
     79400  -84766.794      360.98373     -84405.81       188.66626      189.59925      609.7581     
     79500  -84695.226      426.76362     -84268.462      188.67979      189.60687      609.97634    
     79600  -84667.021      506.74184     -84160.279      188.69151      189.61791      610.19458    
     79700  -84637.619      494.58936     -84143.029      188.71101      189.64111      610.41281    
     79800  -84630.56       443.78753     -84186.773      188.73095      189.676        610.63105    
     79900  -84626.863      419.60359     -84207.26       188.74758      189.7071       610.84929    
     80000  -84622.947      451.3567      -84171.591      188.77162      189.74441      611.06753    
     80100  -84607.577      481.15076     -84126.427      188.79812      189.78166      611.28577    
     80200  -84625.82       497.44835     -84128.372      188.82605      189.81226      611.50401    
     80300  -84646.606      456.81891     -84189.787      188.8514       189.8349       611.72225    
     80400  -84679.604      440.76308     -84238.841      188.88377      189.85421      611.94048    
     80500  -84698.973      443.87901     -84255.094      188.91843      189.8682       612.15872    
     80600  -84704.366      462.26        -84242.106      188.95344      189.88573      612.37696    
     80700  -84708.337      480.35636     -84227.981      188.97813      189.90365      612.5952     
     80800  -84724.878      474.89358     -84249.985      188.99418      189.92708      612.81344    
     80900  -84739.328      444.49692     -84294.831      189.01347      189.95312      613.03168    
     81000  -84789.58       464.06724     -84325.513      189.03181      189.97785      613.24991    
     81100  -84809.819      454.81804     -84355.001      189.04413      190.00001      613.46815    
     81200  -84810.186      445.56106     -84364.625      189.05769      190.01548      613.68639    
     81300  -84824.11       471.12758     -84352.982      189.07723      190.03438      613.90463    
     81400  -84835.578      475.66957     -84359.909      189.09152      190.0547       614.12287    
     81500  -84860.037      466.34005     -84393.697      189.10324      190.07485      614.34111    
     81600  -84890.266      459.75237     -84430.514      189.11596      190.09387      614.55934    
     81700  -84934.11       465.552       -84468.558      189.12784      190.11293      614.77758    
     81800  -84958.383      451.99652     -84506.387      189.14257      190.1278       614.99582    
     81900  -84965.556      440.01291     -84525.543      189.15934      190.14178      615.21406    
     82000  -84952.16       441.3596      -84510.8        189.1724       190.15329      615.4323     
     82100  -84922.869      457.4983      -84465.371      189.18301      190.161        615.65054    
     82200  -84908.512      486.48135     -84422.03       189.19603      190.17607      615.86877    
     82300  -84894.653      470.71439     -84423.938      189.20611      190.18993      616.08701    
     82400  -84898.318      448.9308      -84449.387      189.21156      190.20504      616.30525    
     82500  -84902.989      449.61047     -84453.378      189.22639      190.23156      616.52349    
     82600  -84890.273      458.53624     -84431.736      189.23413      190.24998      616.74173    
     82700  -84881.558      475.28717     -84406.271      189.24317      190.26565      616.95997    
     82800  -84904.728      490.81748     -84413.91       189.25715      190.28226      617.17821    
     82900  -84933.663      465.54537     -84468.118      189.2711       190.29569      617.39644    
     83000  -84957.397      437.00109     -84520.396      189.28615      190.31303      617.61468    
     83100  -84974.621      438.08162     -84536.539      189.29634      190.32913      617.83292    
     83200  -84980.658      460.93963     -84519.719      189.31498      190.3513       618.05116    
     83300  -84956.763      460.53524     -84496.227      189.3253       190.36739      618.2694     
     83400  -84933.344      460.2777      -84473.066      189.33839      190.38712      618.48764    
     83500  -84908.005      460.53772     -84447.467      189.3509       190.41148      618.70587    
     83600  -84877.906      457.64563     -84420.261      189.36375      190.43877      618.92411    
     83700  -84869.234      470.70392     -84398.53       189.37705      190.47224      619.14235    
     83800  -84855.755      465.53198     -84390.223      189.37949      190.49952      619.36059    
     83900  -84850.989      458.66665     -84392.322      189.3815       190.53339      619.57883    
     84000  -84850.802      454.49283     -84396.309      189.38322      190.56841      619.79707    
     84100  -84860.623      468.57992     -84392.043      189.38611      190.60683      620.0153     
     84200  -84878.039      479.24135     -84398.797      189.38874      190.64269      620.23354    
     84300  -84888.786      459.97442     -84428.811      189.3967       190.67895      620.45178    
     84400  -84912.605      454.69747     -84457.907      189.40408      190.70857      620.67002    
     84500  -84909.961      446.00679     -84463.954      189.40905      190.73311      620.88826    
     84600  -84898.145      458.6692      -84439.476      189.418        190.75795      621.1065     
     84700  -84881.82       475.73246     -84406.088      189.42958      190.78429      621.32473    
     84800  -84875.52       477.34796     -84398.172      189.43609      190.80072      621.54297    
     84900  -84883.105      462.25307     -84420.852      189.44514      190.81732      621.76121    
     85000  -84895.603      449.9487      -84445.654      189.4515       190.83106      621.97945    
     85100  -84903.395      451.68943     -84451.705      189.45982      190.8445       622.19769    
     85200  -84899.354      459.57746     -84439.776      189.47576      190.86237      622.41593    
     85300  -84882.946      459.07145     -84423.875      189.4895       190.87213      622.63417    
     85400  -84884.239      468.67623     -84415.563      189.51169      190.886        622.8524     
     85500  -84886.923      460.7723      -84426.151      189.53336      190.90044      623.07064    
     85600  -84904.596      460.88127     -84443.715      189.55213      190.91806      623.28888    
     85700  -84902.74       447.70404     -84455.036      189.5695       190.93912      623.50712    
     85800  -84905.853      457.70237     -84448.15       189.58291      190.96014      623.72536    
     85900  -84900.983      467.94174     -84433.041      189.60252      190.98801      623.9436     
     86000  -84889.458      462.26647     -84427.191      189.61645      191.00881      624.16183    
     86100  -84888.087      457.79004     -84430.297      189.63541      191.03274      624.38007    
     86200  -84871.943      444.22675     -84427.716      189.65215      191.05459      624.59831    
     86300  -84873.873      462.83711     -84411.036      189.66521      191.07512      624.81655    
     86400  -84865.748      468.74554     -84397.002      189.68229      191.09719      625.03479    
     86500  -84861.115      469.79269     -84391.322      189.69892      191.11982      625.25303    
     86600  -84872.71       470.75288     -84401.957      189.71644      191.14401      625.47126    
     86700  -84880.549      455.27783     -84425.272      189.72941      191.16714      625.6895     
     86800  -84889.932      449.86126     -84440.071      189.7468       191.1971       625.90774    
     86900  -84893.026      454.61409     -84438.412      189.75699      191.22166      626.12598    
     87000  -84901.992      469.44951     -84432.543      189.77075      191.25056      626.34422    
     87100  -84903.13       467.05499     -84436.075      189.78333      191.27784      626.56246    
     87200  -84900.399      454.88733     -84445.511      189.79515      191.30639      626.78069    
     87300  -84898.612      450.40143     -84448.211      189.80876      191.33801      626.99893    
     87400  -84894.404      454.83793     -84439.566      189.81784      191.3685       627.21717    
     87500  -84883.912      458.28851     -84425.624      189.83129      191.40204      627.43541    
     87600  -84879.025      464.11359     -84414.912      189.84112      191.43058      627.65365    
     87700  -84870.543      461.13099     -84409.412      189.85267      191.46306      627.87189    
     87800  -84873.649      465.01994     -84408.629      189.86012      191.4945       628.09013    
     87900  -84879.555      464.97776     -84414.578      189.86655      191.52823      628.30836    
     88000  -84882.53       456.7435      -84425.787      189.87685      191.56307      628.5266     
     88100  -84895.653      458.2897      -84437.364      189.88386      191.59374      628.74484    
     88200  -84891.639      451.6504      -84439.988      189.8954       191.62627      628.96308    
     88300  -84899.324      465.68477     -84433.64       189.90432      191.65632      629.18132    
     88400  -84889.176      459.89731     -84429.278      189.91652      191.68886      629.39956    
     88500  -84890.132      459.84639     -84430.285      189.9284       191.71841      629.61779    
     88600  -84889.893      458.38845     -84431.505      189.93972      191.74625      629.83603    
     88700  -84884.364      455.13413     -84429.229      189.95258      191.77649      630.05427    
     88800  -84882.787      461.03872     -84421.748      189.96097      191.80365      630.27251    
     88900  -84870.181      455.95463     -84414.227      189.9721       191.83443      630.49075    
     89000  -84869.364      464.4538      -84404.91       189.97763      191.86374      630.70899    
     89100  -84870.221      470.90897     -84399.312      189.98689      191.89911      630.92722    
     89200  -84875.957      469.09057     -84406.867      189.99299      191.93491      631.14546    
     89300  -84888.603      459.53272     -84429.07       189.99955      191.96996      631.3637     
     89400  -84900.23       450.5515      -84449.679      190.00513      192.00817      631.58194    
     89500  -84904.798      451.79645     -84453.001      190.00763      192.04813      631.80018    
     89600  -84900.703      462.82184     -84437.881      190.0103       192.08939      632.01842    
     89700  -84882.219      465.72529     -84416.494      190.01342      192.13156      632.23665    
     89800  -84879.227      471.97143     -84407.256      190.01685      192.17368      632.45489    
     89900  -84876.585      461.23076     -84415.354      190.01987      192.21475      632.67313    
     90000  -84882.477      454.73836     -84427.738      190.02326      192.25556      632.89137    
     90100  -84877.599      448.19349     -84429.405      190.02736      192.29643      633.10961    
     90200  -84870.887      459.48247     -84411.405      190.03009      192.33368      633.32785    
     90300  -84851.492      465.51227     -84385.98       190.03458      192.3707       633.54609    
     90400  -84855.987      476.44288     -84379.544      190.04051      192.40793      633.76432    
     90500  -84871.975      468.68863     -84403.287      190.04434      192.44136      633.98256    
     90600  -84890.051      455.01536     -84435.036      190.05184      192.47719      634.2008     
     90700  -84902.992      451.82718     -84451.165      190.05886      192.50805      634.41904    
     90800  -84908.602      460.27187     -84448.331      190.06949      192.5396       634.63728    
     90900  -84903.483      469.05406     -84434.429      190.07959      192.57154      634.85552    
     91000  -84901.588      470.78242     -84430.806      190.0898       192.60419      635.07375    
     91100  -84900.348      458.31529     -84442.033      190.10058      192.63659      635.29199    
     91200  -84899.953      448.64971     -84451.303      190.10975      192.67018      635.51023    
     91300  -84893.994      451.6271      -84442.367      190.11849      192.7081       635.72847    
     91400  -84878.597      458.68001     -84419.917      190.12713      192.74471      635.94671    
     91500  -84872.74       472.74292     -84399.997      190.1356       192.77799      636.16495    
     91600  -84867.123      467.98961     -84399.134      190.14487      192.81476      636.38318    
     91700  -84881.016      462.88847     -84418.128      190.15061      192.84883      636.60142    
     91800  -84887.877      450.17913     -84437.698      190.15897      192.88501      636.81966    
     91900  -84891.373      451.16706     -84440.206      190.16755      192.91598      637.0379     
     92000  -84887.396      458.81603     -84428.58       190.17991      192.94865      637.25614    
     92100  -84882.09       465.56277     -84416.527      190.19396      192.97798      637.47438    
     92200  -84884.132      467.56449     -84416.567      190.21115      193.00375      637.69262    
     92300  -84891.759      464.66032     -84427.099      190.23028      193.02682      637.91085    
     92400  -84886.075      451.07745     -84434.998      190.24738      193.04764      638.12909    
     92500  -84885.952      456.08715     -84429.865      190.26646      193.07375      638.34733    
     92600  -84879.322      463.25756     -84416.064      190.28178      193.09742      638.56557    
     92700  -84869.769      464.42388     -84405.345      190.29589      193.12262      638.78381    
     92800  -84872.225      465.97732     -84406.248      190.31064      193.15054      639.00205    
     92900  -84882.779      464.38606     -84418.392      190.32201      193.17436      639.22028    
     93000  -84886.552      455.39319     -84431.159      190.3375       193.20326      639.43852    
     93100  -84895.546      461.5632      -84433.983      190.34774      193.2268       639.65676    
     93200  -84893.087      461.97194     -84431.115      190.36296      193.25596      639.875      
     93300  -84894.916      464.0938      -84430.823      190.37284      193.28025      640.09324    
     93400  -84893.078      458.77119     -84434.307      190.38018      193.30497      640.31148    
     93500  -84890.656      455.12909     -84435.527      190.39153      193.33369      640.52971    
     93600  -84886.243      454.40546     -84431.837      190.39963      193.35651      640.74795    
     93700  -84887.908      462.44351     -84425.465      190.4095       193.38032      640.96619    
     93800  -84881.024      461.63029     -84419.393      190.41948      193.40153      641.18443    
     93900  -84874.3        459.7387      -84414.561      190.43155      193.42305      641.40267    
     94000  -84875.225      464.52691     -84410.698      190.44275      193.4445       641.62091    
     94100  -84867.314      459.61145     -84407.703      190.45478      193.47022      641.83914    
     94200  -84873.871      462.9864      -84410.885      190.46539      193.49871      642.05738    
     94300  -84878.257      456.23032     -84422.027      190.47396      193.52831      642.27562    
     94400  -84891.52       456.79263     -84434.728      190.48134      193.55707      642.49386    
     94500  -84895.247      456.16771     -84439.08       190.4909       193.58602      642.7121     
     94600  -84890.653      456.45895     -84434.194      190.50006      193.61575      642.93034    
     94700  -84887.234      461.27145     -84425.962      190.50933      193.64492      643.14858    
     94800  -84885.533      462.66596     -84422.867      190.5176       193.67331      643.36681    
     94900  -84887.48       461.36478     -84426.115      190.52711      193.70403      643.58505    
     95000  -84883.485      454.75109     -84428.734      190.53558      193.73527      643.80329    
     95100  -84883.396      458.56149     -84424.834      190.54363      193.76577      644.02153    
     95200  -84878.426      460.28437     -84418.142      190.54899      193.79725      644.23977    
     95300  -84878.697      464.55287     -84414.144      190.55669      193.83207      644.45801    
     95400  -84874.626      459.09861     -84415.527      190.56205      193.86341      644.67624    
     95500  -84882.113      462.11528     -84419.998      190.56769      193.89317      644.89448    
     95600  -84882.989      458.45764     -84424.531      190.57246      193.92286      645.11272    
     95700  -84887.503      457.82852     -84429.675      190.57715      193.95141      645.33096    
     95800  -84890.526      455.6171      -84434.909      190.58489      193.97828      645.5492     
     95900  -84896.138      460.2189      -84435.919      190.591        194.00251      645.76744    
     96000  -84895.098      463.12619     -84431.972      190.59981      194.02873      645.98567    
     96100  -84887.742      461.83742     -84425.905      190.6062       194.05395      646.20391    
     96200  -84888.496      465.43136     -84423.064      190.61214      194.08056      646.42215    
     96300  -84882.012      457.08106     -84424.931      190.61873      194.109        646.64039    
     96400  -84885.542      457.11108     -84428.431      190.62106      194.13635      646.85863    
     96500  -84881.221      454.46212     -84426.759      190.62629      194.16771      647.07687    
     96600  -84884.223      463.3709      -84420.852      190.62767      194.19699      647.2951     
     96700  -84878.161      461.82749     -84416.333      190.63189      194.23018      647.51334    
     96800  -84879.597      458.915       -84420.682      190.63425      194.26253      647.73158    
     96900  -84887.583      456.38232     -84431.201      190.63721      194.29552      647.94982    
     97000  -84896.505      458.82446     -84437.681      190.63996      194.32938      648.16806    
     97100  -84898.305      461.16931     -84437.135      190.64244      194.36122      648.3863     
     97200  -84895.248      462.09349     -84433.154      190.64832      194.39455      648.60454    
     97300  -84893.783      463.57968     -84430.203      190.65028      194.42508      648.82277    
     97400  -84889.731      460.5526      -84429.179      190.65453      194.45727      649.04101    
     97500  -84887.398      458.58127     -84428.816      190.65779      194.48817      649.25925    
     97600  -84884.216      458.54547     -84425.67       190.66055      194.517        649.47749    
     97700  -84877.98       458.73095     -84419.249      190.66699      194.54903      649.69573    
     97800  -84882.519      468.80258     -84413.717      190.66571      194.577        649.91397    
     97900  -84878.807      462.45702     -84416.35       190.66991      194.61049      650.1322     
     98000  -84886.048      458.26598     -84427.782      190.66921      194.63929      650.35044    
     98100  -84891.627      453.68274     -84437.944      190.6691       194.6666       650.56868    
     98200  -84893.824      456.16313     -84437.661      190.67353      194.69752      650.78692    
     98300  -84887.967      458.79399     -84429.173      190.67476      194.72221      651.00516    
     98400  -84887.499      463.24854     -84424.25       190.68252      194.74872      651.2234     
     98500  -84891.701      463.13187     -84428.569      190.6838       194.77063      651.44163    
     98600  -84900.18       460.98596     -84439.194      190.68923      194.79658      651.65987    
     98700  -84903.336      457.39814     -84445.938      190.69078      194.82035      651.87811    
     98800  -84890.158      451.43124     -84438.727      190.69447      194.84624      652.09635    
     98900  -84884.094      461.87629     -84422.218      190.69858      194.87552      652.31459    
     99000  -84881.192      470.04217     -84411.15       190.69808      194.90145      652.53283    
     99100  -84882.636      468.4358      -84414.2        190.70458      194.93207      652.75106    
     99200  -84891.799      462.19801     -84429.601      190.70713      194.95888      652.9693     
     99300  -84896.811      452.8274      -84443.984      190.71131      194.98891      653.18754    
     99400  -84903.377      456.84222     -84446.535      190.71396      195.01921      653.40578    
     99500  -84894.605      459.62345     -84434.982      190.71667      195.05019      653.62402    
     99600  -84887.545      466.97739     -84420.568      190.72025      195.08273      653.84226    
     99700  -84881.326      466.50131     -84414.825      190.7212       195.1152       654.0605     
     99800  -84884.73       463.16291     -84421.567      190.72286      195.1493       654.27873    
     99900  -84888.496      456.18774     -84432.309      190.72107      195.17802      654.49697    
    100000  -84888.916      455.27868     -84433.637      190.72115      195.20754      654.71521    
    100100  -84878.357      456.32116     -84422.036      190.72283      195.23585      654.93345    
    100200  -84872.27       463.43078     -84408.84       190.72485      195.26061      655.15169    
    100300  -84873.981      468.4329      -84405.548      190.72781      195.28502      655.36993    
    100400  -84877.193      458.54293     -84418.65       190.72761      195.30904      655.58816    
    100500  -84894.797      457.27979     -84437.517      190.72643      195.33336      655.8064     
    100600  -84903.484      456.97577     -84446.508      190.72702      195.3567       656.02464    
    100700  -84900.999      460.60374     -84440.395      190.72742      195.37956      656.24288    
    100800  -84896.703      469.1777      -84427.525      190.72862      195.40442      656.46112    
    100900  -84883.759      461.70343     -84422.056      190.72951      195.42726      656.67936    
    101000  -84892.953      461.5594      -84431.394      190.73111      195.44899      656.89759    
    101100  -84902.834      458.14935     -84444.684      190.73265      195.47016      657.11583    
    101200  -84905.795      457.56175     -84448.233      190.7342       195.49338      657.33407    
    101300  -84900.416      462.45393     -84437.962      190.73562      195.51656      657.55231    
    101400  -84885.217      463.74525     -84421.472      190.738        195.54071      657.77055    
    101500  -84881.591      469.01438     -84412.577      190.74263      195.56755      657.98879    
    101600  -84880.502      462.6009      -84417.901      190.74591      195.59214      658.20702    
    101700  -84889.139      456.3916      -84432.748      190.75475      195.61871      658.42526    
    101800  -84893.156      449.73317     -84443.423      190.76097      195.64265      658.6435     
    101900  -84894.919      454.10507     -84440.814      190.76765      195.66975      658.86174    
    102000  -84883.756      455.03336     -84428.723      190.7714       195.69701      659.07998    
    102100  -84885.134      467.91532     -84417.218      190.77568      195.72472      659.29822    
    102200  -84879.23       464.24419     -84414.985      190.77901      195.7557       659.51646    
    102300  -84888.198      464.43113     -84423.767      190.77818      195.78413      659.73469    
    102400  -84887.819      455.27548     -84432.543      190.78088      195.81525      659.95293    
    102500  -84891.541      460.94888     -84430.592      190.78109      195.84105      660.17117    
    102600  -84880.338      458.94095     -84421.397      190.78472      195.86994      660.38941    
    102700  -84876.035      462.7415      -84413.294      190.78745      195.89906      660.60765    
    102800  -84879.628      464.21624     -84415.412      190.78873      195.92384      660.82589    
    102900  -84888.508      461.32519     -84427.183      190.79258      195.95114      661.04412    
    103000  -84897.832      460.09113     -84437.741      190.79323      195.97461      661.26236    
    103100  -84897.502      456.2772      -84441.225      190.79517      195.99724      661.4806     
    103200  -84895.312      458.5681      -84436.744      190.79884      196.01791      661.69884    
    103300  -84885.984      455.42469     -84430.559      190.80229      196.03874      661.91708    
    103400  -84887.563      459.79384     -84427.769      190.80607      196.06046      662.13532    
    103500  -84895.685      464.05204     -84431.633      190.80799      196.08083      662.35355    
    103600  -84897.364      460.0751      -84437.289      190.8097       196.10271      662.57179    
    103700  -84896.736      459.01854     -84437.718      190.80954      196.12502      662.79003    
    103800  -84892.876      459.26886     -84433.607      190.81087      196.14753      663.00827    
    103900  -84889.285      461.29545     -84427.989      190.81327      196.16705      663.22651    
    104000  -84884.998      460.56404     -84424.434      190.81712      196.18873      663.44475    
    104100  -84888.376      462.97322     -84425.403      190.8202       196.21339      663.66299    
    104200  -84894.296      462.74445     -84431.552      190.8228       196.24297      663.88122    
    104300  -84893.006      457.36132     -84435.644      190.82481      196.27153      664.09946    
    104400  -84896.169      462.64558     -84433.523      190.82811      196.30127      664.3177     
    104500  -84883.871      455.59408     -84428.277      190.82964      196.33265      664.53594    
    104600  -84885.184      458.25324     -84426.931      190.83342      196.36646      664.75418    
    104700  -84892.702      461.10317     -84431.598      190.83565      196.39764      664.97242    
    104800  -84896.231      458.62198     -84437.609      190.83851      196.42896      665.19065    
    104900  -84895.293      458.54773     -84436.745      190.83984      196.46247      665.40889    
    105000  -84892.072      462.54187     -84429.53       190.84144      196.4947       665.62713    
    105100  -84891.524      468.17466     -84423.349      190.84346      196.52512      665.84537    
    105200  -84886.428      464.51225     -84421.915      190.84319      196.55409      666.06361    
    105300  -84887.956      461.16298     -84426.793      190.84343      196.58525      666.28185    
    105400  -84897.147      463.05234     -84434.095      190.84265      196.61268      666.50008    
    105500  -84893.621      454.7581      -84438.863      190.8434       196.64046      666.71832    
    105600  -84890.927      455.73049     -84435.196      190.84157      196.6672       666.93656    
    105700  -84886.656      462.27402     -84424.382      190.84031      196.69235      667.1548     
    105800  -84888.057      471.23784     -84416.819      190.84008      196.71408      667.37304    
    105900  -84886.884      464.5624      -84422.321      190.84116      196.73524      667.59128    
    106000  -84894.419      459.14147     -84435.277      190.84268      196.75634      667.80951    
    106100  -84900.436      456.65049     -84443.785      190.84272      196.77551      668.02775    
    106200  -84893.491      454.38456     -84439.106      190.84338      196.79645