LAMMPS (2 Aug 2023 - Update 3)
OMP_NUM_THREADS environment is not set. Defaulting to 1 thread. (src/comm.cpp:98)
  using 1 OpenMP thread(s) per MPI task

# 1------general---------------
units                             metal      #单位为lammps 中的metel 类型
dimension                    3          #模拟的维度 三维
boundary                    p p p      #周期边界条件
atom_style                  atomic   #原子类型自动
atom_modify              map array sort 100 2.0
neighbor                    3.0 bin
neigh_modify            every 1 delay 0 check yes
#2 -----global variable-------定义全局变量，方便统一修改；
variable temperature equal 300
variable tstep equal 0.001
variable pressure equal 0
variable thermalstep equal 100
variable dumpstep equal 1000
variable relaxtime equal 0
variable totaltime equal 100000
variable deformrate equal 5e-3
#3 -------model------------
#box tilt large
read_data     1.lmp
Reading data file ...
  orthogonal box = (-100 -100 -2.3312512) to (100 100 41.316429)
  3 by 4 by 1 MPI processor grid
  reading atoms ...
  1824 atoms
  read_data CPU = 0.141 seconds
replicate 1 1 7
Replication is creating a 1x1x7 = 7 times larger system...
  orthogonal box = (-100 -100 -2.3312512) to (100 100 303.20251)
  2 by 2 by 3 MPI processor grid
  12768 atoms
  replicate CPU = 0.027 seconds
group SR type 2 3
4200 atoms in group SR
delete_atoms group SR
Deleted 4200 atoms, new total = 8568
write_data h.data
System init for write_data ...
WARNING: Communication cutoff is 0.0. No ghost atoms will be generated. Atoms may get lost. (src/comm_brick.cpp:210)
pair_style hybrid airebo 3.0 airebo 3.0 airebo 3.0 lj/cut 10
pair_coeff * * airebo 1 CH.airebo C NULL NULL
Reading airebo potential file CH.airebo with DATE: 2011-10-25
pair_coeff * * airebo 2 CH.airebo NULL C NULL
Reading airebo potential file CH.airebo with DATE: 2011-10-25
pair_coeff * * airebo 3 CH.airebo NULL NULL C
Reading airebo potential file CH.airebo with DATE: 2011-10-25
pair_coeff 1 2 lj/cut 0.00456 3.431
pair_coeff 1 3 lj/cut 0.00456 3.431
pair_coeff 2 3 lj/cut 0.00456 3.431

# 5------minimize -----------
min_style      sd
minimize       1.0e-4 1.0e-6 100 1000
Neighbor list info ...
  update: every = 1 steps, delay = 0 steps, check = yes
  max neighbors/atom: 2000, page size: 100000
  master list distance cutoff = 13.2
  ghost atom cutoff = 13.2
  binsize = 6.6, bins = 31 31 47
  6 neighbor lists, perpetual/occasional/extra = 6 0 0
  (1) pair airebo, perpetual, skip from (5)
      attributes: full, newton on, ghost
      pair build: skip/ghost
      stencil: none
      bin: none
  (2) pair airebo, perpetual, skip from (5)
      attributes: full, newton on, ghost
      pair build: skip/ghost
      stencil: none
      bin: none
  (3) pair airebo, perpetual, skip from (5)
      attributes: full, newton on, ghost
      pair build: skip/ghost
      stencil: none
      bin: none
  (4) pair lj/cut, perpetual, skip from (6)
      attributes: half, newton on, cut 13
      pair build: skip
      stencil: none
      bin: none
  (5) neighbor class addition, perpetual
      attributes: full, newton on, ghost
      pair build: full/bin/ghost
      stencil: full/ghost/bin/3d
      bin: standard
  (6) neighbor class addition, perpetual
      attributes: half, newton on, cut 13
      pair build: half/bin/atomonly/newton
      stencil: half/bin/3d
      bin: standard
Per MPI rank memory allocation (min/avg/max) = 11.7 | 11.7 | 11.7 Mbytes
   Step          Temp          E_pair         E_mol          TotEng         Press     
         0   0             -63548.526      0             -63548.526     -77.843168    
         1   0             -63548.573      0             -63548.573     -77.708063    
Loop time of 0.195377 on 12 procs for 1 steps with 8568 atoms

72.2% CPU use with 12 MPI tasks x 1 OpenMP threads

Minimization stats:
  Stopping criterion = energy tolerance
  Energy initial, next-to-last, final = 
     -63548.5258902082  -63548.5258902082  -63548.5725896317
  Force two-norm initial, final = 3.4002726 0.87659908
  Force max component initial, final = 0.036762983 0.0094736875
  Final line search alpha, max atom move = 1 0.0094736875
  Iterations, force evaluations = 1 2

MPI task timing breakdown:
Section |  min time  |  avg time  |  max time  |%varavg| %total
---------------------------------------------------------------
Pair    | 0.028242   | 0.034179   | 0.04657    |   3.4 | 17.49
Neigh   | 0          | 0          | 0          |   0.0 |  0.00
Comm    | 0.061768   | 0.07917    | 0.10083    |   4.5 | 40.52
Output  | 0          | 0          | 0          |   0.0 |  0.00
Modify  | 0          | 0          | 0          |   0.0 |  0.00
Other   |            | 0.08203    |            |       | 41.98

Nlocal:            714 ave         756 max         672 min
Histogram: 3 0 0 0 0 6 0 0 0 3
Nghost:           2856 ave        2898 max        2814 min
Histogram: 3 0 0 0 0 6 0 0 0 3
Neighs:              0 ave           0 max           0 min
Histogram: 12 0 0 0 0 0 0 0 0 0

Total # of neighbors = 0
Ave neighs/atom = 0
Neighbor list builds = 0
Dangerous builds = 0
#6----define computes------
variable nums equal count(all) #计算原子数目
variable toval equal 22.7273*22.7165*lz #计算系统总体积，单层石墨烯厚度为0.335nm
variable vol equal ${toval} #体系的初始体积
variable vol equal 157742.410082089 
variable vatom equal v_vol/v_nums #单个原子体积
compute 1 all stress/atom NULL #计算体系中单原子应力
compute xalls all reduce sum c_1[1]
variable xstress equal (c_xalls)/(v_toval*10000)
compute yalls all reduce sum c_1[2]
variable ystress equal (c_yalls)/(v_toval*10000)
compute zalls all reduce sum c_1[3]
variable zstress equal (c_zalls)/(v_toval*10000)
#7---------relaxation-------------------------
timestep ${tstep}
timestep 0.001
velocity all create ${temperature} 231743 units box dist gaussian
velocity all create 300 231743 units box dist gaussian
dump   1 all atom 100 all-cy.lammpstrj
#fix    1 all npt temp 300 300  0.1 aniso 0 0 10 drag 1  #三个方向独立控压
fix  1 all npt temp ${temperature} ${temperature} 0.1 x ${pressure} ${pressure} 10 y ${pressure} ${pressure} 10
fix  1 all npt temp 300 ${temperature} 0.1 x ${pressure} ${pressure} 10 y ${pressure} ${pressure} 10
fix  1 all npt temp 300 300 0.1 x ${pressure} ${pressure} 10 y ${pressure} ${pressure} 10
fix  1 all npt temp 300 300 0.1 x 0 ${pressure} 10 y ${pressure} ${pressure} 10
fix  1 all npt temp 300 300 0.1 x 0 0 10 y ${pressure} ${pressure} 10
fix  1 all npt temp 300 300 0.1 x 0 0 10 y 0 ${pressure} 10
fix  1 all npt temp 300 300 0.1 x 0 0 10 y 0 0 10
compute  2 all pe/atom
compute  pe all reduce sum c_2
variable PE equal "c_pe"
fix    pe all print 100 "${PE} " file PE.txt screen no
thermo  ${thermalstep}
thermo  100
#thermo_style  custom step pe ke etotal lx ly lz
run   ${relaxtime}
run   0
Per MPI rank memory allocation (min/avg/max) = 12.33 | 12.33 | 12.33 Mbytes
   Step          Temp          E_pair         E_mol          TotEng         Press          Volume    
         1   300           -63548.573      0             -63216.361     -48.673549      12221350     
Loop time of 0.0341879 on 12 procs for 0 steps with 8568 atoms

56.4% CPU use with 12 MPI tasks x 1 OpenMP threads

MPI task timing breakdown:
Section |  min time  |  avg time  |  max time  |%varavg| %total
---------------------------------------------------------------
Pair    | 0          | 0          | 0          |   0.0 |  0.00
Neigh   | 0          | 0          | 0          |   0.0 |  0.00
Comm    | 0          | 0          | 0          |   0.0 |  0.00
Output  | 0          | 0          | 0          |   0.0 |  0.00
Modify  | 0          | 0          | 0          |   0.0 |  0.00
Other   |            | 0.03419    |            |       |100.00

Nlocal:            714 ave         756 max         672 min
Histogram: 6 0 0 0 0 0 0 0 0 6
Nghost:           2856 ave        2898 max        2814 min
Histogram: 6 0 0 0 0 0 0 0 0 6
Neighs:              0 ave           0 max           0 min
Histogram: 12 0 0 0 0 0 0 0 0 0

Total # of neighbors = 0
Ave neighs/atom = 0
Neighbor list builds = 0
Dangerous builds = 0
#8 -------tension-----------------------------
unfix  1
undump  1
unfix  pe
reset_timestep 0
fix avestress all ave/atom 1 ${dumpstep} ${dumpstep} c_1[1] c_1[2] c_1[3] c_1[4] c_1[5] c_1[6]
fix avestress all ave/atom 1 1000 ${dumpstep} c_1[1] c_1[2] c_1[3] c_1[4] c_1[5] c_1[6]
fix avestress all ave/atom 1 1000 1000 c_1[1] c_1[2] c_1[3] c_1[4] c_1[5] c_1[6]

#-----calculation of strain and Cumulative compression--------
variable                tmp equal "lz"
variable                L0 equal ${tmp}
variable                L0 equal 305.5337624556
variable                strain equal "(lz - v_L0)/v_L0"
variable                Cumulativels equal "(lz - v_L0)/10"
fix Step all print 100 "${strain} ${Cumulativels} ${zstress}" file grapoten.txt screen no

dump 2 all custom ${dumpstep} tension.xyz type x y z f_avestress[1] f_avestress[2] f_avestress[3] f_avestress[4] f_avestress[5] f_avestress[6]
dump 2 all custom 1000 tension.xyz type x y z f_avestress[1] f_avestress[2] f_avestress[3] f_avestress[4] f_avestress[5] f_avestress[6]

fix  1 all npt temp ${temperature} ${temperature} 0.1 y ${pressure} ${pressure} 10 x ${pressure} ${pressure} 10
fix  1 all npt temp 300 ${temperature} 0.1 y ${pressure} ${pressure} 10 x ${pressure} ${pressure} 10
fix  1 all npt temp 300 300 0.1 y ${pressure} ${pressure} 10 x ${pressure} ${pressure} 10
fix  1 all npt temp 300 300 0.1 y 0 ${pressure} 10 x ${pressure} ${pressure} 10
fix  1 all npt temp 300 300 0.1 y 0 0 10 x ${pressure} ${pressure} 10
fix  1 all npt temp 300 300 0.1 y 0 0 10 x 0 ${pressure} 10
fix  1 all npt temp 300 300 0.1 y 0 0 10 x 0 0 10

thermo_style custom step pe ke etotal lx ly lz
fix   2 all deform 1 z erate ${deformrate} remap x units box
fix   2 all deform 1 z erate 0.005 remap x units box
fix   3 all ave/time 2 500 1000 v_xstress v_ystress v_zstress file pressure.out
run   ${totaltime}
run   100000
WARNING: Dump 2 includes no atom IDs and is not sorted by ID. This may complicate post-processing tasks or visualization (src/dump.cpp:221)
Per MPI rank memory allocation (min/avg/max) = 13.83 | 13.83 | 13.83 Mbytes
   Step         PotEng         KinEng         TotEng           Lx             Ly             Lz      
         0  -63548.573      332.2115      -63216.361      200            200            305.53376    
       100  -63353.147      161.91019     -63191.237      199.98738      199.98948      305.68653    
       200  -63361.529      205.01237     -63156.516      199.97654      199.97969      305.8393     
       300  -63332.337      217.60671     -63114.73       199.99009      199.99533      305.99206    
       400  -63310.215      241.07477     -63069.14       199.98808      199.99496      306.14483    
       500  -63294.055      272.89271     -63021.163      199.96904      199.97689      306.2976     
       600  -63259.864      286.66121     -62973.203      199.9772       199.98652      306.45036    
       700  -63242.472      314.25932     -62928.212      199.98775      199.99806      306.60313    
       800  -63218.144      327.78066     -62890.364      199.9684       199.97898      306.7559     
       900  -63206.743      340.60941     -62866.134      199.96466      199.9758       306.90866    
      1000  -63200.924      340.42884     -62860.495      199.9777       199.98925      307.06143    
      1100  -63208.557      335.04653     -62873.51       199.96849      199.98055      307.2142     
      1200  -63216.63       325.87699     -62890.753      199.95788      199.96982      307.36697    
      1300  -63217.395      321.21424     -62896.181      199.9672       199.9798       307.51973    
      1400  -63210.913      326.5881      -62884.325      199.96464      199.97659      307.6725     
      1500  -63199.94       333.42999     -62866.51       199.95012      199.9603       307.82527    
      1600  -63199.012      341.4726      -62857.539      199.95423      199.96389      307.97803    
      1700  -63196.905      335.11363     -62861.791      199.95998      199.96746      308.1308     
      1800  -63203.747      332.5809      -62871.167      199.94628      199.95064      308.28357    
      1900  -63204.752      328.50107     -62876.251      199.94402      199.94582      308.43633    
      2000  -63199.943      328.26584     -62871.677      199.95559      199.95306      308.5891     
      2100  -63194.137      335.66025     -62858.477      199.94632      199.93865      308.74187    
      2200  -63183.388      336.48777     -62846.9        199.93525      199.92312      308.89463    
      2300  -63183.893      337.64049     -62846.253      199.94851      199.93085      309.0474     
      2400  -63182.471      330.11692     -62852.354      199.94872      199.92586      309.20017    
      2500  -63187.113      329.67302     -62857.44       199.93323      199.90375      309.35293    
      2600  -63184.351      328.84972     -62855.501      199.93808      199.90181      309.5057     
      2700  -63175.569      330.23336     -62845.335      199.94677      199.90393      309.65847    
      2800  -63171.279      337.50636     -62833.773      199.93349      199.88241      309.81124    
      2900  -63162.603      334.31159     -62828.291      199.92746      199.86764      309.964      
      3000  -63160.929      329.9448      -62830.984      199.93963      199.87255      310.11677    
      3100  -63164.572      329.62399     -62834.948      199.93636      199.86041      310.26954    
      3200  -63164.762      330.41953     -62834.343      199.92332      199.83886      310.4223     
      3300  -63158.529      331.5253      -62827.004      199.92989      199.83606      310.57507    
      3400  -63148.04       332.04633     -62815.994      199.93461      199.83202      310.72784    
      3500  -63140.728      333.78935     -62806.938      199.9213       199.80937      310.8806     
      3600  -63143.552      337.06009     -62806.492      199.9201       199.79885      311.03337    
      3700  -63142.336      332.03777     -62810.299      199.92858      199.79795      311.18614    
      3800  -63140.102      329.52503     -62810.577      199.92066      199.78035      311.3389     
      3900  -63133.683      328.61589     -62805.067      199.91175      199.76246      311.49167    
      4000  -63127.635      332.547       -62795.088      199.91756      199.75953      311.64444    
      4100  -63115.98       331.5505      -62784.429      199.91465      199.74747      311.7972     
      4200  -63114.245      335.09114     -62779.154      199.90226      199.72677      311.94997    
      4300  -63113.423      332.70941     -62780.713      199.90317      199.7196       312.10274    
      4400  -63111.106      328.94296     -62782.163      199.90493      199.71366      312.25551    
      4500  -63103.363      325.19107     -62778.172      199.8934       199.69448      312.40827    
      4600  -63102.977      334.09068     -62768.886      199.88649      199.68156      312.56104    
      4700  -63093.15       335.17232     -62757.978      199.88985      199.67755      312.71381    
      4800  -63085.143      335.06502     -62750.078      199.88189      199.6635       312.86657    
      4900  -63083.915      335.68767     -62748.227      199.86927      199.64452      313.01934    
      5000  -63080.607      331.08582     -62749.522      199.86899      199.63797      313.17211    
      5100  -63076.685      329.81375     -62746.871      199.86591      199.63003      313.32487    
      5200  -63066.298      327.44172     -62738.856      199.85149      199.61072      313.47764    
      5300  -63060.633      332.39431     -62728.239      199.84382      199.5986       313.63041    
      5400  -63053.233      333.73664     -62719.496      199.84313      199.59392      313.78317    
      5500  -63047.798      332.89229     -62714.906      199.83109      199.57888      313.93594    
      5600  -63042.161      328.39949     -62713.762      199.81601      199.5607       314.08871    
      5700  -63039.39       327.8463      -62711.544      199.81274      199.55514      314.24147    
      5800  -63034.249      329.11444     -62705.135      199.80663      199.54694      314.39424    
      5900  -63033.293      338.11636     -62695.177      199.79017      199.52864      314.54701    
      6000  -63017.463      331.48144     -62685.982      199.77922      199.5169       314.69978    
      6100  -63011.787      332.26887     -62679.519      199.77331      199.51075      314.85254    
      6200  -63011.417      335.7279      -62675.689      199.75845      199.49527      315.00531    
      6300  -62999.758      326.82508     -62672.933      199.74149      199.47932      315.15808    
      6400  -63000.587      332.98079     -62667.607      199.73234      199.47025      315.31084    
      6500  -62990.115      331.65625     -62658.459      199.72148      199.45975      315.46361    
      6600  -62979.956      331.47101     -62648.485      199.70373      199.44384      315.61638    
      6700  -62976.135      335.48992     -62640.645      199.68852      199.42864      315.76914    
      6800  -62966.948      332.4341      -62634.514      199.67629      199.41718      315.92191    
      6900  -62963.279      333.75319     -62629.526      199.6619       199.40418      316.07468    
      7000  -62954.425      329.51528     -62624.909      199.64618      199.38865      316.22744    
      7100  -62948.787      330.23496     -62618.552      199.6311       199.37529      316.38021    
      7200  -62942.134      332.85695     -62609.277      199.61679      199.3618       316.53298    
      7300  -62935.543      336.25649     -62599.286      199.60066      199.34634      316.68574    
      7400  -62926.903      335.83417     -62591.068      199.58366      199.3305       316.83851    
      7500  -62918.038      332.35771     -62585.681      199.56766      199.31433      316.99128    
      7600  -62910.811      330.00223     -62580.809      199.55154      199.29798      317.14405    
      7700  -62907.089      331.72263     -62575.367      199.53612      199.28241      317.29681    
      7800  -62896.901      330.17643     -62566.725      199.51881      199.26339      317.44958    
      7900  -62889.727      334.34537     -62555.382      199.50151      199.24442      317.60235    
      8000  -62879.255      334.99697     -62544.258      199.48624      199.22669      317.75511    
      8100  -62868.215      331.71173     -62536.503      199.47083      199.20771      317.90788    
      8200  -62864.301      332.21636     -62532.085      199.45414      199.18786      318.06065    
      8300  -62859.438      330.97865     -62528.459      199.43896      199.16742      318.21341    
      8400  -62848.583      327.76035     -62520.823      199.42232      199.14541      318.36618    
      8500  -62841.849      333.72809     -62508.121      199.4053       199.12296      318.51895    
      8600  -62828.387      333.15867     -62495.228      199.39086      199.10123      318.67171    
      8700  -62821.947      336.07215     -62485.875      199.37386      199.07755      318.82448    
      8800  -62814.749      333.68764     -62481.061      199.35545      199.05142      318.97725    
      8900  -62810.607      333.61415     -62476.993      199.33934      199.027        319.13001    
      9000  -62797.089      328.11317     -62468.976      199.32286      199.00198      319.28278    
      9100  -62785.253      329.4002      -62455.853      199.30499      198.97403      319.43555    
      9200  -62778.069      335.38385     -62442.685      199.28798      198.9478       319.58832    
      9300  -62764.493      331.43582     -62433.057      199.27145      198.92097      319.74108    
      9400  -62760.621      333.6407      -62426.98       199.25272      198.89113      319.89385    
      9500  -62752.818      330.49303     -62422.325      199.23386      198.86166      320.04662    
      9600  -62743.615      328.78547     -62414.83       199.21749      198.83261      320.19938    
      9700  -62735.099      332.47114     -62402.628      199.19856      198.80169      320.35215    
      9800  -62721.528      333.41792     -62388.11       199.17767      198.76896      320.50492    
      9900  -62714.33       337.31993     -62377.01       199.16028      198.73755      320.65768    
     10000  -62703.309      332.37174     -62370.937      199.14036      198.70606      320.81045    
     10100  -62698.45       331.09592     -62367.354      199.11773      198.67085      320.96322    
     10200  -62681.499      323.63094     -62357.868      199.09799      198.63719      321.11598    
     10300  -62674.358      329.84049     -62344.517      199.0777       198.60466      321.26875    
     10400  -62665.884      333.14863     -62332.736      199.05506      198.56957      321.42152    
     10500  -62656.032      333.59147     -62322.441      199.03374      198.53484      321.57428    
     10600  -62647.76       333.6898      -62314.07       199.01229      198.50151      321.72705    
     10700  -62637.895      328.60417     -62309.29       198.98826      198.46391      321.87982    
     10800  -62630.103      327.75453     -62302.348      198.96264      198.42614      322.03259    
     10900  -62619.284      333.6301      -62285.654      198.93993      198.39189      322.18535    
     11000  -62601.677      331.59189     -62270.085      198.91732      198.3554       322.33812    
     11100  -62591.173      330.65876     -62260.515      198.88953      198.31583      322.49089    
     11200  -62587.349      334.98419     -62252.364      198.86121      198.2765       322.64365    
     11300  -62574.117      328.46613     -62245.651      198.83772      198.23979      322.79642    
     11400  -62564.595      328.02763     -62236.567      198.80945      198.20182      322.94919    
     11500  -62551.377      331.88156     -62219.495      198.77857      198.15962      323.10195    
     11600  -62538.826      334.76354     -62204.062      198.75213      198.1223       323.25472    
     11700  -62527          333.35961     -62193.641      198.72497      198.08622      323.40749    
     11800  -62518.462      331.01693     -62187.446      198.69315      198.04344      323.56025    
     11900  -62510.043      328.76191     -62181.281      198.66077      198.00202      323.71302    
     12000  -62498.135      329.52009     -62168.615      198.6312       197.96409      323.86579    
     12100  -62480.415      325.60707     -62154.808      198.60069      197.92334      324.01856    
     12200  -62474.851      333.82225     -62141.029      198.56518      197.87988      324.17132    
     12300  -62460.039      334.09926     -62125.939      198.53178      197.8386       324.32409    
     12400  -62445.886      332.62711     -62113.259      198.50118      197.79972      324.47686    
     12500  -62437.353      332.06106     -62105.292      198.46442      197.75617      324.62962    
     12600  -62428.503      328.47047     -62100.033      198.4263       197.71069      324.78239    
     12700  -62415.581      328.17925     -62087.402      198.39334      197.67057      324.93516    
     12800  -62405.964      336.13343     -62069.83       198.35886      197.63025      325.08792    
     12900  -62390.654      334.49915     -62056.155      198.31958      197.58409      325.24069    
     13000  -62377.759      332.70858     -62045.051      198.28178      197.53938      325.39346    
     13100  -62365.311      330.12717     -62035.184      198.2467       197.49906      325.54622    
     13200  -62354.312      326.70521     -62027.607      198.20877      197.45459      325.69899    
     13300  -62348.542      327.82416     -62020.718      198.16725      197.40702      325.85176    
     13400  -62334.026      329.14189     -62004.884      198.12896      197.36343      326.00452    
     13500  -62318.781      333.52335     -61985.257      198.09273      197.32093      326.15729    
     13600  -62306.731      335.1735      -61971.558      198.05128      197.27402      326.31006    
     13700  -62289.652      329.72154     -61959.93       198.00879      197.22633      326.46283    
     13800  -62284.21       332.73547     -61951.475      197.97219      197.18304      326.61559    
     13900  -62272.106      329.48549     -61942.621      197.93342      197.13844      326.76836    
     14000  -62254.735      327.8035      -61926.931      197.89024      197.08913      326.92113    
     14100  -62240.032      333.93134     -61906.101      197.85094      197.04306      327.07389    
     14200  -62227.95       334.48725     -61893.462      197.81422      196.99991      327.22666    
     14300  -62216.494      331.82598     -61884.668      197.77353      196.95203      327.37943    
     14400  -62205.672      330.06038     -61875.612      197.73111      196.90287      327.53219    
     14500  -62189.946      327.02036     -61862.925      197.69317      196.85777      327.68496    
     14600  -62177.343      337.23294     -61840.111      197.65571      196.81264      327.83773    
     14700  -62159.822      334.01408     -61825.808      197.61431      196.7648       327.99049    
     14800  -62150.935      334.36505     -61816.57       197.57324      196.71568      328.14326    
     14900  -62136.888      329.72193     -61807.166      197.53482      196.66995      328.29603    
     15000  -62122.191      328.67452     -61793.517      197.49698      196.62459      328.44879    
     15100  -62110.088      337.75477     -61772.333      197.45829      196.57783      328.60156    
     15200  -62090.773      334.99562     -61755.777      197.41934      196.53086      328.75433    
     15300  -62079.139      333.08117     -61746.058      197.38122      196.48422      328.9071     
     15400  -62074.288      338.11923     -61736.168      197.34393      196.43815      329.05986    
     15500  -62055.24       330.95996     -61724.28       197.30786      196.39301      329.21263    
     15600  -62042.297      332.27778     -61710.019      197.27017      196.34635      329.3654     
     15700  -62026.059      331.69701     -61694.362      197.23233      196.29852      329.51816    
     15800  -62006.131      333.66556     -61672.465      197.19651      196.25343      329.67093    
     15900  -61989.739      334.58989     -61655.149      197.16212      196.20877      329.8237     
     16000  -61978.499      331.53542     -61646.964      197.12603      196.16279      329.97646    
     16100  -61969.452      332.26732     -61637.185      197.08882      196.11619      330.12923    
     16200  -61956.775      331.92158     -61624.854      197.05551      196.0717       330.282      
     16300  -61940.867      328.69105     -61612.176      197.02306      196.02976      330.43476    
     16400  -61928.735      332.02718     -61596.708      196.98794      195.98377      330.58753    
     16500  -61910.264      333.72256     -61576.541      196.95443      195.93932      330.7403     
     16600  -61896.557      336.8493      -61559.708      196.92476      195.89964      330.89306    
     16700  -61883.897      334.51371     -61549.383      196.89281      195.85689      331.04583    
     16800  -61870.889      329.94783     -61540.941      196.85935      195.81214      331.1986     
     16900  -61855.116      329.34934     -61525.766      196.82966      195.77202      331.35137    
     17000  -61840.489      333.42217     -61507.067      196.80004      195.73138      331.50413    
     17100  -61822.285      333.53335     -61488.752      196.76881      195.68927      331.6569     
     17200  -61806.392      332.67343     -61473.719      196.74095      195.65126      331.80967    
     17300  -61795.269      335.18832     -61460.081      196.71371      195.61317      331.96243    
     17400  -61775.622      330.04311     -61445.579      196.68329      195.57255      332.1152     
     17500  -61767.919      337.71694     -61430.202      196.65555      195.53504      332.26797    
     17600  -61747.168      332.67158     -61414.497      196.63136      195.5009       332.42073    
     17700  -61734.062      335.28937     -61398.773      196.60422      195.46496      332.5735     
     17800  -61711.893      329.2301      -61382.663      196.57564      195.42731      332.72627    
     17900  -61698.913      331.5701      -61367.343      196.55161      195.39456      332.87903    
     18000  -61682.361      328.79267     -61353.569      196.52789      195.36299      333.0318     
     18100  -61675.703      335.79659     -61339.906      196.49965      195.32689      333.18457    
     18200  -61656.252      330.54008     -61325.712      196.47395      195.29324      333.33733    
     18300  -61637.504      329.76563     -61307.738      196.45259      195.26507      333.4901     
     18400  -61623.586      337.82282     -61285.763      196.42777      195.23329      333.64287    
     18500  -61600.712      332.53255     -61268.18       196.40005      195.19979      333.79564    
     18600  -61587.655      331.95034     -61255.705      196.37834      195.17205      333.9484     
     18700  -61575.851      329.55835     -61246.292      196.35806      195.14566      334.10117    
     18800  -61559.654      328.69739     -61230.957      196.33159      195.11503      334.25394    
     18900  -61547.662      335.22281     -61212.439      196.3078       195.08592      334.4067     
     19000  -61523.985      331.07313     -61192.912      196.28995      195.06414      334.55947    
     19100  -61508.573      335.15181     -61173.422      196.2674       195.03779      334.71224    
     19200  -61492.837      336.68571     -61156.151      196.24134      195.00787      334.865      
     19300  -61480.253      334.09207     -61146.161      196.22182      194.98613      335.01777    
     19400  -61464.432      330.20163     -61134.23       196.20451      194.96537      335.17054    
     19500  -61444.61       329.60313     -61115.007      196.17931      194.93792      335.3233     
     19600  -61422.107      329.14838     -61092.958      196.15584      194.91334      335.47607    
     19700  -61409.473      334.51512     -61074.958      196.14063      194.89627      335.62884    
     19800  -61395.771      336.19305     -61059.578      196.12168      194.87591      335.7816     
     19900  -61375.933      330.44939     -61045.484      196.09717      194.85107      335.93437    
     20000  -61359.972      326.6659      -61033.306      196.0794       194.83127      336.08714    
     20100  -61347.605      323.72588     -61023.879      196.0645       194.81694      336.23991    
     20200  -61333.862      330.6421      -61003.22       196.04423      194.79589      336.39267    
     20300  -61310.845      329.95697     -60980.888      196.02307      194.77359      336.54544    
     20400  -61290.451      330.04945     -60960.402      196.00778      194.75901      336.69821    
     20500  -61274.702      334.89514     -60939.806      195.99263      194.74325      336.85097    
     20600  -61258.807      337.53643     -60921.271      195.97113      194.72169      337.00374    
     20700  -61245.203      336.25278     -60908.95       195.95265      194.70411      337.15651    
     20800  -61224.185      326.3156      -60897.869      195.93935      194.68993      337.30927    
     20900  -61205.646      327.64182     -60878.004      195.92015      194.67222      337.46204    
     21000  -61184.848      328.93613     -60855.912      195.90099      194.65246      337.61481    
     21100  -61168.648      331.78107     -60836.867      195.88753      194.63932      337.76757    
     21200  -61152.255      333.14907     -60819.106      195.87253      194.62485      337.92034    
     21300  -61135.314      333.86184     -60801.452      195.85348      194.60482      338.07311    
     21400  -61122.439      335.05798     -60787.381      195.83824      194.58976      338.22588    
     21500  -61101.694      328.40186     -60773.292      195.82585      194.57664      338.37864    
     21600  -61085.32       331.97306     -60753.347      195.80972      194.55958      338.53141    
     21700  -61063.067      333.71388     -60729.353      195.79254      194.54274      338.68418    
     21800  -61043.76       333.37199     -60710.388      195.77974      194.52837      338.83694    
     21900  -61025.594      331.1718      -60694.422      195.766        194.51397      338.98971    
     22000  -61008.125      328.39865     -60679.727      195.75012      194.49721      339.14248    
     22100  -60997.397      331.53581     -60665.862      195.73598      194.4807       339.29524    
     22200  -60981.616      326.74642     -60654.87       195.72358      194.46776      339.44801    
     22300  -60959.79       327.50149     -60632.289      195.71057      194.45284      339.60078    
     22400  -60941.325      333.14468     -60608.18       195.69715      194.4362       339.75354    
     22500  -60919.623      332.83203     -60586.791      195.68535      194.4235       339.90631    
     22600  -60902.706      336.93015     -60565.776      195.67379      194.40837      340.05908    
     22700  -60886.966      338.92774     -60548.038      195.66094      194.39272      340.21184    
     22800  -60867.731      330.58341     -60537.147      195.64935      194.37858      340.36461    
     22900  -60847.448      326.83732     -60520.611      195.63788      194.36227      340.51738    
     23000  -60825.551      327.60152     -60497.949      195.62429      194.34615      340.67015    
     23100  -60808.56       332.39387     -60476.166      195.61384      194.33153      340.82291    
     23200  -60788.002      331.20911     -60456.793      195.60416      194.31699      340.97568    
     23300  -60769.817      332.08944     -60437.727      195.59059      194.30069      341.12845    
     23400  -60749.523      330.46942     -60419.054      195.57963      194.28397      341.28121    
     23500  -60734.915      335.47257     -60399.442      195.5699       194.27003      341.43398    
     23600  -60713.009      333.37831     -60379.631      195.55876      194.25505      341.58675    
     23700  -60696.437      336.26564     -60360.172      195.54714      194.23796      341.73951    
     23800  -60672.944      329.55012     -60343.394      195.53648      194.22412      341.89228    
     23900  -60659.228      330.96545     -60328.263      195.52646      194.20932      342.04505    
     24000  -60639.456      327.66212     -60311.794      195.51428      194.19255      342.19781    
     24100  -60618.862      330.19484     -60288.667      195.5026       194.1776       342.35058    
     24200  -60596.462      332.89392     -60263.568      195.49299      194.16292      342.50335    
     24300  -60573.912      329.19646     -60244.715      195.48136      194.14734      342.65611    
     24400  -60562.007      332.89288     -60229.115      195.4684       194.13056      342.80888    
     24500  -60544.997      328.96598     -60216.031      195.45837      194.11514      342.96165    
     24600  -60526.416      327.8144      -60198.601      195.44806      194.10155      343.11442    
     24700  -60501.999      333.07826     -60168.921      195.43556      194.08451      343.26718    
     24800  -60483.244      335.50943     -60147.735      195.42438      194.06901      343.41995    
     24900  -60460.436      329.52292     -60130.913      195.41465      194.05603      343.57272    
     25000  -60447.428      331.70481     -60115.723      195.40369      194.0401       343.72548    
     25100  -60425.171      327.02798     -60098.143      195.39032      194.02416      343.87825    
     25200  -60406.872      331.2442      -60075.627      195.38014      194.00985      344.03102    
     25300  -60381.602      332.76536     -60048.837      195.36946      193.9957       344.18378    
     25400  -60362.277      333.73848     -60028.538      195.35536      193.97953      344.33655    
     25500  -60343.15       330.90001     -60012.25       195.34366      193.96349      344.48932    
     25600  -60327.555      330.80454     -59996.751      195.33267      193.95005      344.64208    
     25700  -60309.54       332.0452      -59977.494      195.31957      193.93444      344.79485    
     25800  -60280.314      332.23247     -59948.081      195.30608      193.91827      344.94762    
     25900  -60262.877      336.83887     -59926.039      195.29499      193.90511      345.10038    
     26000  -60244.074      333.65542     -59910.419      195.2834       193.89139      345.25315    
     26100  -60226.973      331.52946     -59895.444      195.26862      193.87464      345.40592    
     26200  -60208.277      332.00319     -59876.274      195.25515      193.86019      345.55869    
     26300  -60183.709      332.46424     -59851.245      195.24461      193.8476       345.71145    
     26400  -60161.571      336.81048     -59824.76       195.2303       193.83254      345.86422    
     26500  -60140.777      334.21708     -59806.56       195.21469      193.81555      346.01699    
     26600  -60124.529      333.43083     -59791.098      195.20186      193.8022       346.16975    
     26700  -60103.123      329.48195     -59773.641      195.18882      193.78819      346.32252    
     26800  -60080.428      327.58184     -59752.846      195.17259      193.77208      346.47529    
     26900  -60058.267      333.26862     -59724.999      195.15753      193.75668      346.62805    
     27000  -60037.767      336.38702     -59701.38       195.14431      193.74322      346.78082    
     27100  -60018.514      333.15175     -59685.363      195.12967      193.72911      346.93359    
     27200  -60001.863      332.20086     -59669.662      195.11362      193.71282      347.08635    
     27300  -59981.535      330.94854     -59650.586      195.09828      193.69769      347.23912    
     27400  -59960.583      332.43885     -59628.145      195.08397      193.68422      347.39189    
     27500  -59935.09       333.13455     -59601.955      195.06956      193.66966      347.54465    
     27600  -59915.118      340.06775     -59575.05       195.05333      193.65389      347.69742    
     27700  -59895.744      338.12577     -59557.618      195.03794      193.6386       347.85019    
     27800  -59873.317      332.66785     -59540.649      195.02174      193.62277      348.00296    
     27900  -59856.157      333.29178     -59522.866      195.00502      193.60719      348.15572    
     28000  -59835.231      330.83133     -59504.4        194.99039      193.59264      348.30849    
     28100  -59815.122      330.67427     -59484.448      194.97413      193.57771      348.46126    
     28200  -59787.203      329.24751     -59457.956      194.95607      193.56071      348.61402    
     28300  -59766.029      333.13803     -59432.891      194.94091      193.54606      348.76679    
     28400  -59746.621      333.93019     -59412.691      194.9263       193.533        348.91956    
     28500  -59731.685      334.33672     -59397.348      194.90852      193.51545      349.07232    
     28600  -59712.586      331.56338     -59381.023      194.89037      193.49833      349.22509    
     28700  -59685.989      327.8235      -59358.165      194.87639      193.48482      349.37786    
     28800  -59664.79       330.67707     -59334.113      194.86118      193.46962      349.53062    
     28900  -59641.084      331.70355     -59309.38       194.84142      193.45098      349.68339    
     29000  -59619.14       333.06228     -59286.077      194.82465      193.43401      349.83616    
     29100  -59597.826      333.49497     -59264.331      194.8092       193.41916      349.98892    
     29200  -59577.94       331.87542     -59246.064      194.79049      193.40086      350.14169    
     29300  -59559.204      329.35717     -59229.847      194.77187      193.38201      350.29446    
     29400  -59537.907      328.93317     -59208.974      194.75542      193.36617      350.44723    
     29500  -59515.405      334.32982     -59181.075      194.73878      193.34867      350.59999    
     29600  -59493.221      336.3553      -59156.865      194.72003      193.32984      350.75276    
     29700  -59468.294      331.75814     -59136.536      194.70208      193.31169      350.90553    
     29800  -59447.293      330.28792     -59117.005      194.68622      193.29471      351.05829    
     29900  -59427.532      328.01483     -59099.518      194.66834      193.27681      351.21106    
     30000  -59413.129      330.6456      -59082.483      194.64938      193.2564       351.36383    
     30100  -59385.536      329.1702      -59056.366      194.63187      193.23802      351.51659    
     30200  -59357.96       329.28026     -59028.679      194.61578      193.22093      351.66936    
     30300  -59337.854      333.26154     -59004.592      194.5972       193.20047      351.82213    
     30400  -59314.081      332.08167     -58981.999      194.57755      193.17941      351.97489    
     30500  -59294.681      333.04355     -58961.638      194.56108      193.16112      352.12766    
     30600  -59273.914      328.9947      -58944.919      194.54426      193.14203      352.28043    
     30700  -59253.125      327.81028     -58925.315      194.52428      193.12077      352.43319    
     30800  -59228.897      332.15        -58896.747      194.50658      193.10005      352.58596    
     30900  -59202.812      331.74017     -58871.072      194.49128      193.08275      352.73873    
     31000  -59177.548      327.80755     -58849.74       194.47372      193.06243      352.8915     
     31100  -59161.012      331.00793     -58830.004      194.45284      193.03963      353.04426    
     31200  -59140.639      328.15101     -58812.488      194.43517      193.01938      353.19703    
     31300  -59121.11       327.90714     -58793.203      194.41904      193.00037      353.3498     
     31400  -59097.602      333.11933     -58764.483      194.39866      192.978        353.50256    
     31500  -59068.555      330.74888     -58737.806      194.37854      192.95494      353.65533    
     31600  -59049.34       334.01033     -58715.329      194.36149      192.93543      353.8081     
     31700  -59025.939      330.71988     -58695.219      194.34241      192.91408      353.96086    
     31800  -59010.069      332.50444     -58677.564      194.32031      192.88918      354.11363    
     31900  -58984.368      325.55376     -58658.815      194.30139      192.86737      354.2664     
     32000  -58961.27       330.42502     -58630.845      194.28348      192.84753      354.41916    
     32100  -58936.541      333.57823     -58602.963      194.26355      192.82388      354.57193    
     32200  -58913.216      333.26821     -58579.947      194.24199      192.79975      354.7247     
     32300  -58891.084      332.90824     -58558.175      194.223        192.7786       354.87747    
     32400  -58870.94       331.43335     -58539.507      194.20482      192.75785      355.03023    
     32500  -58855.491      333.81799     -58521.673      194.18296      192.73385      355.183      
     32600  -58827.381      330.16226     -58497.219      194.16099      192.70974      355.33577    
     32700  -58799.474      332.74674     -58466.727      194.14257      192.68896      355.48853    
     32800  -58775.277      332.20024     -58443.077      194.122        192.66682      355.6413     
     32900  -58756.271      334.15414     -58422.117      194.09869      192.64175      355.79407    
     33000  -58735.538      332.06047     -58403.477      194.07791      192.61894      355.94683    
     33100  -58714.519      330.38512     -58384.134      194.05883      192.59817      356.0996     
     33200  -58690.403      331.54512     -58358.858      194.03691      192.57474      356.25237    
     33300  -58658.023      329.24437     -58328.779      194.01317      192.55044      356.40513    
     33400  -58638.111      333.40995     -58304.701      193.99317      192.52843      356.5579     
     33500  -58614.933      331.07142     -58283.862      193.97318      192.50755      356.71067    
     33600  -58591.872      326.34033     -58265.531      193.94904      192.48248      356.86343    
     33700  -58573.266      326.63436     -58246.632      193.925        192.45749      357.0162     
     33800  -58549.598      330.02463     -58219.573      193.90463      192.43632      357.16897    
     33900  -58522.572      332.56219     -58190.009      193.88333      192.41425      357.32174    
     34000  -58501.399      335.73392     -58165.665      193.85765      192.38721      357.4745     
     34100  -58477.784      333.32891     -58144.455      193.83256      192.36247      357.62727    
     34200  -58459.719      333.47571     -58126.243      193.81096      192.34033      357.78004    
     34300  -58435.046      328.86388     -58106.182      193.78642      192.31571      357.9328     
     34400  -58410.769      331.76328     -58079.006      193.76066      192.29004      358.08557    
     34500  -58385.08       335.8784      -58049.201      193.73836      192.26742      358.23834    
     34600  -58359.046      334.04334     -58025.003      193.71556      192.24498      358.3911     
     34700  -58339.098      336.07293     -58003.026      193.68903      192.21829      358.54387    
     34800  -58313.45       328.11837     -57985.332      193.66464      192.19342      358.69664    
     34900  -58291.906      325.3512      -57966.555      193.6425       192.17182      358.8494     
     35000  -58269.72       330.35144     -57939.369      193.61715      192.14569      359.00217    
     35100  -58242.883      330.53083     -57912.353      193.58984      192.11951      359.15494    
     35200  -58220.468      332.36987     -57888.099      193.56774      192.09676      359.3077     
     35300  -58193.054      330.20827     -57862.845      193.54373      192.07332      359.46047    
     35400  -58173.803      336.20148     -57837.602      193.51693      192.04681      359.61324    
     35500  -58150.47       336.04895     -57814.421      193.49201      192.0213       359.76601    
     35600  -58124.333      330.02586     -57794.307      193.46773      191.99797      359.91877    
     35700  -58106.607      331.83491     -57774.772      193.44304      191.97297      360.07154    
     35800  -58082.285      331.67145     -57750.613      193.41732      191.9474       360.22431    
     35900  -58054.809      335.1141      -57719.695      193.39262      191.92347      360.37707    
     36000  -58028.761      334.71428     -57694.047      193.36882      191.89905      360.52984    
     36100  -58008.888      336.97168     -57671.917      193.34222      191.87283      360.68261    
     36200  -57980.937      328.81609     -57652.121      193.31578      191.84677      360.83537    
     36300  -57962.242      328.26624     -57633.976      193.29061      191.82065      360.98814    
     36400  -57935.163      321.13396     -57614.029      193.26513      191.79605      361.14091    
     36500  -57913.834      331.53787     -57582.296      193.23953      191.76879      361.29367    
     36600  -57882.897      329.10251     -57553.795      193.21154      191.74198      361.44644    
     36700  -57860.51       332.75354     -57527.756      193.1872       191.7164       361.59921    
     36800  -57838.321      334.68803     -57503.633      193.16254      191.69138      361.75197    
     36900  -57814.836      332.71864     -57482.118      193.13495      191.66342      361.90474    
     37000  -57792.844      330.95269     -57461.891      193.10878      191.63529      362.05751    
     37100  -57766.397      326.50635     -57439.891      193.08502      191.61168      362.21028    
     37200  -57744.567      334.45473     -57410.113      193.06026      191.58506      362.36304    
     37300  -57715.316      333.29506     -57382.021      193.03285      191.55663      362.51581    
     37400  -57691.284      331.86229     -57359.421      193.00766      191.53046      362.66858    
     37500  -57673.799      333.54178     -57340.257      192.98417      191.50507      362.82134    
     37600  -57649.852      329.2033      -57320.649      192.95726      191.47759      362.97411    
     37700  -57626.508      332.25625     -57294.251      192.93074      191.44876      363.12688    
     37800  -57596.267      334.3083      -57261.959      192.90672      191.42393      363.27964    
     37900  -57566.406      329.94016     -57236.466      192.88183      191.39685      363.43241    
     38000  -57550.718      335.10684     -57215.612      192.85388      191.36757      363.58518    
     38100  -57527.309      331.11366     -57196.195      192.82864      191.34036      363.73794    
     38200  -57505.999      332.53029     -57173.468      192.80571      191.315        363.89071    
     38300  -57474.46       332.96561     -57141.495      192.7796       191.28738      364.04348    
     38400  -57447.736      333.55747     -57114.179      192.75407      191.25872      364.19624    
     38500  -57426.945      335.50231     -57091.443      192.73032      191.23321      364.34901    
     38600  -57400.913      329.45315     -57071.46       192.70584      191.20615      364.50178    
     38700  -57381.17       329.89095     -57051.279      192.67921      191.17652      364.65455    
     38800  -57351.379      324.60817     -57026.771      192.65327      191.14927      364.80731    
     38900  -57326.379      332.20259     -56994.176      192.62951      191.12187      364.96008    
     39000  -57297.239      330.06726     -56967.172      192.60375      191.09451      365.11285    
     39100  -57280.676      334.82557     -56945.851      192.57794      191.0657       365.26561    
     39200  -57253.497      327.01188     -56926.485      192.55138      191.03702      365.41838    
     39300  -57232.486      329.40711     -56903.079      192.5265       191.00996      365.57115    
     39400  -57202.782      332.84314     -56869.939      192.50311      190.98361      365.72391    
     39500  -57179.159      336.20418     -56842.955      192.47647      190.95543      365.87668    
     39600  -57158.493      336.37479     -56822.118      192.45092      190.92636      366.02945    
     39700  -57134.056      331.20061     -56802.856      192.42718      190.90058      366.18221    
     39800  -57106.776      326.92473     -56779.852      192.40434      190.87459      366.33498    
     39900  -57081.594      329.06764     -56752.526      192.37752      190.84589      366.48775    
     40000  -57057.011      337.42942     -56719.581      192.35068      190.81745      366.64051    
     40100  -57029.601      333.78043     -56695.821      192.32828      190.79186      366.79328    
     40200  -57013.019      337.15483     -56675.865      192.3042       190.76698      366.94605    
     40300  -56987.146      332.87897     -56654.267      192.27752      190.73674      367.09882    
     40400  -56961.958      331.86531     -56630.093      192.25133      190.70931      367.25158    
     40500  -56931.939      333.20161     -56598.737      192.22872      190.68444      367.40435    
     40600  -56903.075      333.44304     -56569.631      192.20502      190.65769      367.55712    
     40700  -56877.906      329.83978     -56548.066      192.17773      190.63021      367.70988    
     40800  -56859.282      331.66199     -56527.62       192.15362      190.60326      367.86265    
     40900  -56837.578      333.63483     -56503.943      192.12963      190.57932      368.01542    
     41000  -56808.087      330.37776     -56477.709      192.10438      190.55266      368.16818    
     41100  -56785.458      333.6045      -56451.854      192.07949      190.52632      368.32095    
     41200  -56757.955      330.54307     -56427.412      192.05576      190.50333      368.47372    
     41300  -56731.545      328.77373     -56402.771      192.03068      190.47632      368.62648    
     41400  -56711.076      333.8661      -56377.21       192.00322      190.44986      368.77925    
     41500  -56683.615      332.90511     -56350.71       191.97951      190.42541      368.93202    
     41600  -56654.027      329.50323     -56324.524      191.95531      190.40136      369.08479    
     41700  -56635.291      334.70023     -56300.591      191.92877      190.37517      369.23755    
     41800  -56609.46       329.3508      -56280.109      191.90294      190.34947      369.39032    
     41900  -56588.836      330.43414     -56258.402      191.87915      190.32671      369.54309    
     42000  -56561.165      331.09717     -56230.067      191.85455      190.30192      369.69585    
     42100  -56536.872      338.94165     -56197.93       191.8282       190.27669      369.84862    
     42200  -56506.635      332.2528      -56174.382      191.8046       190.25362      370.00139    
     42300  -56486.75       332.76915     -56153.981      191.78078      190.2302       370.15415    
     42400  -56463.377      331.8493      -56131.528      191.75491      190.20612      370.30692    
     42500  -56436.409      330.10775     -56106.301      191.73054      190.18216      370.45969    
     42600  -56410.935      331.24809     -56079.687      191.70641      190.15967      370.61245    
     42700  -56384.08       330.99825     -56053.082      191.68213      190.13555      370.76522    
     42800  -56359.638      332.7809      -56026.857      191.65668      190.11221      370.91799    
     42900  -56334.537      333.63973     -56000.897      191.6331       190.08898      371.07075    
     43000  -56309.784      332.62238     -55977.162      191.60917      190.06653      371.22352    
     43100  -56284.439      330.01162     -55954.427      191.58446      190.04278      371.37629    
     43200  -56259.781      330.51049     -55929.271      191.56221      190.0211       371.52906    
     43300  -56233.796      334.49309     -55899.303      191.53869      189.99908      371.68182    
     43400  -56204.433      334.43585     -55869.997      191.51428      189.97546      371.83459    
     43500  -56182.514      336.5587      -55845.955      191.49087      189.95318      371.98736    
     43600  -56154.561      326.28366     -55828.277      191.4691       189.93234      372.14012    
     43700  -56134.309      328.8628      -55805.446      191.44654      189.9107       372.29289    
     43800  -56104.909      327.99602     -55776.913      191.4215       189.88707      372.44566    
     43900  -56078.41       330.61395     -55747.796      191.39837      189.86415      372.59842    
     44000  -56054.731      333.33329     -55721.398      191.37855      189.84522      372.75119    
     44100  -56029.38       330.56824     -55698.812      191.35574      189.82274      372.90396    
     44200  -56008.006      327.74537     -55680.26       191.32977      189.7972       373.05672    
     44300  -55983.248      329.73358     -55653.514      191.30734      189.77569      373.20949    
     44400  -55954.68       332.09549     -55622.584      191.28863      189.75663      373.36226    
     44500  -55929.403      333.56129     -55595.841      191.26658      189.73548      373.51502    
     44600  -55903.557      331.78655     -55571.771      191.24128      189.71034      373.66779    
     44700  -55881.086      333.00663     -55548.08       191.21942      189.68819      373.82056    
     44800  -55856.715      330.21932     -55526.496      191.2003       189.66972      373.97333    
     44900  -55833.657      326.45306     -55507.204      191.17931      189.64761      374.12609    
     45000  -55805.657      326.82473     -55478.832      191.15703      189.6255       374.27886    
     45100  -55775.257      329.10483     -55446.152      191.13617      189.6042       374.43163    
     45200  -55749.5        331.23396     -55418.266      191.11637      189.58322      374.58439    
     45300  -55725.007      333.21835     -55391.788      191.09593      189.56245      374.73716    
     45400  -55701.533      334.66076     -55366.873      191.07552      189.54016      374.88993    
     45500  -55673.45       327.75292     -55345.697      191.05467      189.51934      375.04269    
     45600  -55653.195      329.5684      -55323.627      191.03517      189.49748      375.19546    
     45700  -55623.321      329.93099     -55293.39       191.01525      189.47704      375.34823    
     45800  -55596.074      334.08926     -55261.985      190.99631      189.45661      375.50099    
     45900  -55569.623      332.50258     -55237.12       190.9766       189.43548      375.65376    
     46000  -55547.384      331.7224      -55215.661      190.95744      189.41524      375.80653    
     46100  -55526.265      333.19688     -55193.068      190.93949      189.39467      375.95929    
     46200  -55495.066      328.19494     -55166.871      190.9191       189.37344      376.11206    
     46300  -55468.291      336.71394     -55131.577      190.90003      189.35198      376.26483    
     46400  -55440.761      335.60441     -55105.157      190.88317      189.33322      376.4176     
     46500  -55420.441      335.05782     -55085.383      190.86419      189.31313      376.57036    
     46600  -55392.997      330.35656     -55062.641      190.84362      189.28923      376.72313    
     46700  -55366.905      328.95019     -55037.954      190.82436      189.2693       376.8759     
     46800  -55347.107      333.88924     -55013.218      190.80994      189.2518       377.02866    
     46900  -55323.595      333.48941     -54990.105      190.78983      189.2313       377.18143    
     47000  -55292.838      329.30876     -54963.529      190.76763      189.20635      377.3342     
     47100  -55267.721      336.54352     -54931.177      190.75097      189.18749      377.48696    
     47200  -55238.823      335.43472     -54903.389      190.73659      189.17248      377.63973    
     47300  -55215.452      334.72643     -54880.726      190.71722      189.1498       377.7925     
     47400  -55188.362      327.93142     -54860.43       190.69513      189.12726      377.94526    
     47500  -55166.517      330.72844     -54835.789      190.68109      189.11094      378.09803    
     47600  -55137.441      329.70995     -54807.732      190.66643      189.09455      378.2508     
     47700  -55114.161      335.96059     -54778.201      190.64475      189.07137      378.40356    
     47800  -55083.739      334.32257     -54749.416      190.62589      189.05066      378.55633    
     47900  -55060.742      336.77693     -54723.965      190.61331      189.03722      378.7091     
     48000  -55037.558      332.52453     -54705.033      190.59748      189.01891      378.86187    
     48100  -55004.009      323.49583     -54680.513      190.57432      188.99488      379.01463    
     48200  -54983.183      332.43691     -54650.746      190.55658      188.97585      379.1674     
     48300  -54949.103      327.15179     -54621.951      190.54626      188.96381      379.32017    
     48400  -54929.621      334.19935     -54595.422      190.52771      188.94474      379.47293    
     48500  -54906.729      336.46327     -54570.265      190.504        188.9195       379.6257     
     48600  -54873.514      328.5142      -54544.999      190.48765      188.9024       379.77847    
     48700  -54850.11       328.70855     -54521.401      190.47626      188.8898       379.93123    
     48800  -54830.241      330.88755     -54499.353      190.45745      188.87048      380.084      
     48900  -54804.099      326.61471     -54477.485      190.43606      188.84803      380.23677    
     49000  -54775.364      329.46004     -54445.904      190.42034      188.83161      380.38953    
     49100  -54749.123      335.37014     -54413.753      190.40662      188.81739      380.5423     
     49200  -54722.799      335.58056     -54387.218      190.38656      188.79715      380.69507    
     49300  -54695.23       329.85014     -54365.38       190.36773      188.77779      380.84783    
     49400  -54672.086      329.85271     -54342.234      190.35292      188.76342      381.0006     
     49500  -54645.066      328.53616     -54316.53       190.33514      188.74522      381.15337    
     49600  -54619.015      337.77022     -54281.245      190.31427      188.72488      381.30614    
     49700  -54588.992      336.25419     -54252.738      190.29811      188.70905      381.4589     
     49800  -54564.657      332.90263     -54231.754      190.28475      188.69558      381.61167    
     49900  -54540.833      330.86612     -54209.967      190.26654      188.677        381.76444    
     50000  -54516.004      331.40457     -54184.599      190.24623      188.65682      381.9172     
     50100  -54489.003      332.68147     -54156.322      190.23127      188.64262      382.06997    
     50200  -54461.156      337.71405     -54123.442      190.21868      188.62991      382.22274    
     50300  -54430.787      336.92267     -54093.864      190.20026      188.61187      382.3755     
     50400  -54405.974      331.21946     -54074.754      190.17929      188.59188      382.52827    
     50500  -54384.003      332.74852     -54051.254      190.16508      188.57765      382.68104    
     50600  -54360.553      333.54427     -54027.009      190.15148      188.5657       382.8338     
     50700  -54331.541      328.10867     -54003.432      190.13336      188.54711      382.98657    
     50800  -54304.97       327.15467     -53977.816      190.11304      188.52785      383.13934    
     50900  -54279.045      333.62996     -53945.415      190.09842      188.5131       383.29211    
     51000  -54251.795      337.22964     -53914.565      190.0828       188.49941      383.44487    
     51100  -54224.164      333.16619     -53890.997      190.06339      188.48075      383.59764    
     51200  -54199.791      331.66813     -53868.123      190.0448       188.46316      383.75041    
     51300  -54171.639      329.82404     -53841.815      190.03051      188.45047      383.90317    
     51400  -54150.631      335.64608     -53814.985      190.01449      188.43517      384.05594    
     51500  -54121.275      331.68669     -53789.588      189.99476      188.41651      384.20871    
     51600  -54098.736      328.35701     -53770.379      189.97669      188.4007       384.36147    
     51700  -54070.908      326.47521     -53744.432      189.96369      188.38706      384.51424    
     51800  -54044.732      331.26458     -53713.468      189.94672      188.37241      384.66701    
     51900  -54018.045      334.65802     -53683.387      189.92721      188.3529       384.81977    
     52000  -53991.267      334.6842      -53656.583      189.91022      188.33801      384.97254    
     52100  -53966.093      334.92758     -53631.166      189.89638      188.32519      385.12531    
     52200  -53939.161      332.99966     -53606.162      189.87934      188.30866      385.27807    
     52300  -53914.799      334.17682     -53580.622      189.8595       188.29132      385.43084    
     52400  -53885.51       330.68487     -53554.825      189.84502      188.2766       385.58361    
     52500  -53864.042      329.76523     -53534.277      189.83026      188.26426      385.73638    
     52600  -53838.404      327.75318     -53510.651      189.81276      188.24774      385.88914    
     52700  -53808.166      330.9411      -53477.225      189.7956       188.23165      386.04191    
     52800  -53781.992      336.79524     -53445.196      189.7805       188.21915      386.19468    
     52900  -53750.699      332.25775     -53418.441      189.7654       188.20381      386.34744    
     53000  -53731.957      335.15016     -53396.807      189.74683      188.18786      386.50021    
     53100  -53703.081      330.20883     -53372.872      189.73119      188.17243      386.65298    
     53200  -53678.011      334.13308     -53343.878      189.71555      188.15858      386.80574    
     53300  -53648.392      333.81953     -53314.573      189.699        188.14341      386.95851    
     53400  -53624.118      337.7162      -53286.401      189.682        188.12675      387.11128    
     53500  -53593.451      331.06114     -53262.39       189.66427      188.11118      387.26404    
     53600  -53567.547      327.62248     -53239.925      189.6483       188.09458      387.41681    
     53700  -53542.895      330.17228     -53212.723      189.63303      188.08141      387.56958    
     53800  -53514.955      333.40183     -53181.553      189.61742      188.06586      387.72234    
     53900  -53484.163      335.84544     -53148.317      189.59741      188.0472       387.87511    
     54000  -53458.468      336.20095     -53122.267      189.58042      188.03088      388.02788    
     54100  -53433.096      329.72749     -53103.369      189.56874      188.01903      388.18065    
     54200  -53409.887      331.41981     -53078.468      189.55428      188.00557      388.33341    
     54300  -53386.46       332.62012     -53053.84       189.53465      187.9859       388.48618    
     54400  -53359.665      332.27527     -53027.39       189.51736      187.96917      388.63895    
     54500  -53330.851      334.65948     -52996.191      189.50584      187.95762      388.79171    
     54600  -53298.858      335.5551      -52963.303      189.49155      187.9424       388.94448    
     54700  -53271.529      332.19981     -52939.329      189.4711       187.92259      389.09725    
     54800  -53251.14       332.9147      -52918.225      189.45673      187.90753      389.25001    
     54900  -53225.476      333.52566     -52891.95       189.44552      187.89606      389.40278    
     55000  -53197.172      331.85633     -52865.316      189.42804      187.87773      389.55555    
     55100  -53168.41       329.07317     -52839.337      189.40901      187.85727      389.70831    
     55200  -53144.71       330.74327     -52813.967      189.39664      187.84454      389.86108    
     55300  -53120.536      331.57859     -52788.958      189.38538      187.83172      390.01385    
     55400  -53088.38       327.04239     -52761.338      189.36567      187.81099      390.16661    
     55500  -53060.939      334.4306      -52726.509      189.34727      187.79085      390.31938    
     55600  -53032.126      337.63556     -52694.491      189.33751      187.77933      390.47215    
     55700  -53008.543      336.81545     -52671.728      189.3252       187.76615      390.62492    
     55800  -52976.334      329.31782     -52647.016      189.30414      187.74258      390.77768    
     55900  -52952.692      331.08895     -52621.604      189.28749      187.72431      390.93045    
     56000  -52924.836      328.39934     -52596.437      189.27922      187.71386      391.08322    
     56100  -52901.656      329.77233     -52571.884      189.26484      187.69808      391.23598    
     56200  -52874.805      327.33299     -52547.472      189.24392      187.67509      391.38875    
     56300  -52852.551      326.41138     -52526.14       189.22875      187.6577       391.54152    
     56400  -52824.336      326.95817     -52497.378      189.21902      187.64727      391.69428    
     56500  -52794.072      332.36713     -52461.705      189.20317      187.62831      391.84705    
     56600  -52763.359      331.49934     -52431.86       189.18116      187.60543      391.99982    
     56700  -52737.633      333.00135     -52404.631      189.16816      187.58987      392.15258    
     56800  -52715.088      333.47693     -52381.611      189.1592       187.57808      392.30535    
     56900  -52688.44       332.05334     -52356.386      189.14191      187.55983      392.45812    
     57000  -52658.998      331.10288     -52327.895      189.12322      187.53778      392.61088    
     57100  -52632.741      334.78806     -52297.953      189.11018      187.52383      392.76365    
     57200  -52604.872      333.60795     -52271.264      189.09951      187.51013      392.91642    
     57300  -52578.666      327.48244     -52251.183      189.08214      187.49107      393.06919    
     57400  -52548.833      326.22093     -52222.612      189.06471      187.47202      393.22195    
     57500  -52522.886      332.9327      -52189.954      189.05134      187.45605      393.37472    
     57600  -52493.944      335.52865     -52158.415      189.03638      187.44034      393.52749    
     57700  -52469.046      335.34443     -52133.701      189.01984      187.42094      393.68025    
     57800  -52446.428      335.28998     -52111.138      189.00404      187.40419      393.83302    
     57900  -52417.018      334.60294     -52082.415      188.98955      187.38817      393.98579    
     58000  -52387.453      335.06451     -52052.388      188.97323      187.36946      394.13855    
     58100  -52359.16       335.06642     -52024.093      188.95519      187.35134      394.29132    
     58200  -52334.962      333.91831     -52001.044      188.94122      187.33447      394.44409    
     58300  -52304.754      330.50763     -51974.247      188.92664      187.31965      394.59685    
     58400  -52279.162      334.65327     -51944.508      188.91044      187.30198      394.74962    
     58500  -52248.999      331.16439     -51917.834      188.89327      187.283        394.90239    
     58600  -52223.58       328.65017     -51894.93       188.87695      187.26687      395.05515    
     58700  -52199.159      333.00506     -51866.154      188.86362      187.25167      395.20792    
     58800  -52164.596      329.5009      -51835.095      188.84467      187.23354      395.36069    
     58900  -52137.424      337.1773      -51800.247      188.82604      187.21388      395.51346    
     59000  -52107.762      338.75586     -51769.006      188.81067      187.19823      395.66622    
     59100  -52079.529      332.17887     -51747.35       188.79478      187.18265      395.81899    
     59200  -52058.539      336.70505     -51721.834      188.7776       187.16459      395.97176    
     59300  -52029.824      333.08        -51696.744      188.76004      187.14811      396.12452    
     59400  -52002.443      331.968       -51670.475      188.74405      187.132        396.27729    
     59500  -51971.354      329.45021     -51641.903      188.72651      187.11398      396.43006    
     59600  -51949.233      333.44206     -51615.791      188.70832      187.09785      396.58282    
     59700  -51922.492      330.135       -51592.357      188.69391      187.08265      396.73559    
     59800  -51897.388      334.68708     -51562.701      188.67644      187.06684      396.88836    
     59900  -51858.957      328.85976     -51530.098      188.65732      187.04823      397.04112    
     60000  -51830.795      332.46295     -51498.332      188.63921      187.03041      397.19389    
     60100  -51804.173      334.77973     -51469.394      188.62224      187.01529      397.34666    
     60200  -51775.721      332.15929     -51443.562      188.60521      186.99875      397.49942    
     60300  -51751.37       336.84713     -51414.522      188.58518      186.98068      397.65219    
     60400  -51721.556      336.75547     -51384.801      188.56681      186.96371      397.80496    
     60500  -51690.955      333.15705     -51357.798      188.54937      186.94807      397.95773    
     60600  -51669.102      337.79247     -51331.31       188.53064      186.93155      398.11049    
     60700  -51637.492      335.59972     -51301.892      188.51109      186.91351      398.26326    
     60800  -51609.476      337.38756     -51272.089      188.49271      186.89769      398.41603    
     60900  -51579.653      334.17236     -51245.48       188.4746       186.88215      398.56879    
     61000  -51547.484      330.0283      -51217.456      188.45633      186.86572      398.72156    
     61100  -51521.296      333.55032     -51187.745      188.4363       186.84886      398.87433    
     61200  -51490.818      331.27489     -51159.543      188.41618      186.83115      399.02709    
     61300  -51466.559      333.95358     -51132.605      188.39899      186.81585      399.17986    
     61400  -51439.245      335.01146     -51104.234      188.38097      186.80032      399.33263    
     61500  -51406.468      332.93275     -51073.535      188.35991      186.78183      399.48539    
     61600  -51376.615      332.39458     -51044.22       188.3395       186.76376      399.63816    
     61700  -51349.495      332.93725     -51016.558      188.32214      186.74939      399.79093    
     61800  -51316.726      325.73263     -50990.993      188.30381      186.73399      399.9437     
     61900  -51291.908      331.79031     -50960.117      188.28172      186.71383      400.09646    
     62000  -51263.554      336.21889     -50927.336      188.26097      186.69667      400.24923    
     62100  -51231.272      335.14118     -50896.131      188.24293      186.68158      400.402      
     62200  -51205.68       334.10294     -50871.577      188.22388      186.66506      400.55476    
     62300  -51175.577      333.69528     -50841.882      188.20244      186.6469       400.70753    
     62400  -51141.571      332.04463     -50809.527      188.18322      186.63065      400.8603     
     62500  -51110.902      331.29945     -50779.602      188.16527      186.61454      401.01306    
     62600  -51084.252      330.25208     -50754          188.1436       186.59618      401.16583    
     62700  -51054.019      331.79006     -50722.229      188.12255      186.57686      401.3186     
     62800  -51024.49       334.41012     -50690.08       188.10584      186.56257      401.47136    
     62900  -50992.835      330.21521     -50662.62       188.0869       186.54629      401.62413    
     63000  -50966.348      332.7884      -50633.559      188.06388      186.5248       401.7769     
     63100  -50935.338      333.77786     -50601.561      188.04411      186.50706      401.92966    
     63200  -50906.665      335.56773     -50571.097      188.02696      186.49187      402.08243    
     63300  -50876.551      333.47984     -50543.071      188.00667      186.4729       402.2352     
     63400  -50844.155      332.83438     -50511.32       187.98468      186.45276      402.38797    
     63500  -50812.492      334.29399     -50478.198      187.96519      186.43415      402.54073    
     63600  -50780.045      331.14578     -50448.899      187.94715      186.418        402.6935     
     63700  -50754.222      335.50985     -50418.713      187.92655      186.39827      402.84627    
     63800  -50719.429      333.33899     -50386.09       187.90561      186.37854      402.99903    
     63900  -50692.787      337.16571     -50355.621      187.8879       186.36177      403.1518     
     64000  -50656.484      330.34137     -50326.143      187.86946      186.34394      403.30457    
     64100  -50628.557      334.2251      -50294.332      187.84796      186.32313      403.45733    
     64200  -50596.979      334.4629      -50262.516      187.82898      186.30414      403.6101     
     64300  -50563.494      333.00997     -50230.484      187.81094      186.28606      403.76287    
     64400  -50533.757      334.90421     -50198.853      187.79118      186.26675      403.91563    
     64500  -50503.499      336.8188      -50166.68       187.7721       186.24624      404.0684     
     64600  -50472.702      336.72517     -50135.977      187.75328      186.22762      404.22117    
     64700  -50435.418      331.09706     -50104.321      187.73324      186.20697      404.37393    
     64800  -50405.736      334.29225     -50071.444      187.71404      186.18634      404.5267     
     64900  -50374.266      335.53849     -50038.727      187.69676      186.16849      404.67947    
     65000  -50338.307      331.81336     -50006.493      187.6767       186.14766      404.83224    
     65100  -50307.442      332.96665     -49974.476      187.65707      186.12568      404.985      
     65200  -50274.412      332.51085     -49941.901      187.63962      186.10844      405.13777    
     65300  -50246.509      336.34269     -49910.166      187.62187      186.08811      405.29054    
     65400  -50209.803      331.34688     -49878.456      187.60133      186.06592      405.4433     
     65500  -50183.873      337.35152     -49846.521      187.58208      186.04629      405.59607    
     65600  -50146.969      333.24556     -49813.723      187.56614      186.02675      405.74884    
     65700  -50112.611      332.28687     -49780.324      187.54619      186.0059       405.9016     
     65800  -50081.484      334.21689     -49747.267      187.52581      185.98363      406.05437    
     65900  -50045.365      331.92884     -49713.436      187.50914      185.96277      406.20714    
     66000  -50013.925      333.59539     -49680.33       187.49168      185.94489      406.3599     
     66100  -49980.885      334.9411      -49645.944      187.4715       185.92169      406.51267    
     66200  -49944.557      333.22006     -49611.337      187.45212      185.89912      406.66544    
     66300  -49910.909      333.29435     -49577.615      187.43577      185.88141      406.8182     
     66400  -49878.636      335.52509     -49543.111      187.41879      185.86084      406.97097    
     66500  -49846.515      336.93588     -49509.579      187.39909      185.83794      407.12374    
     66600  -49808.797      333.72155     -49475.076      187.38037      185.81724      407.27651    
     66700  -49773.851      333.61295     -49440.238      187.36496      185.79786      407.42927    
     66800  -49742.8        337.29457     -49405.505      187.34608      185.77696      407.58204    
     66900  -49705.866      335.2801      -49370.586      187.32652      185.75475      407.73481    
     67000  -49674.144      338.40986     -49335.734      187.31089      185.73542      407.88757    
     67100  -49636.602      336.20818     -49300.394      187.29317      185.71592      408.04034    
     67200  -49600.564      335.38229     -49265.182      187.2729       185.69276      408.19311    
     67300  -49570.288      339.57888     -49230.709      187.25553      185.67157      408.34587    
     67400  -49529.395      333.24144     -49196.153      187.23885      185.65354      408.49864    
     67500  -49499.086      337.95201     -49161.134      187.22002      185.63116      408.65141    
     67600  -49462.682      337.0136      -49125.668      187.20083      185.60978      408.80417    
     67700  -49422.991      333.7049      -49089.286      187.18374      185.59069      408.95694    
     67800  -49385.186      332.33563     -49052.851      187.16573      185.56964      409.10971    
     67900  -49353.876      338.22918     -49015.647      187.14678      185.54934      409.26247    
     68000  -49315.157      337.82387     -48977.333      187.1306       185.53048      409.41524    
     68100  -49276.92       336.85656     -48940.064      187.11281      185.51047      409.56801    
     68200  -49239.244      334.63992     -48904.604      187.09347      185.48992      409.72078    
     68300  -49203.12       335.76316     -48867.357      187.07665      185.47053      409.87354    
     68400  -49167.504      336.81439     -48830.69       187.05978      185.45258      410.02631    
     68500  -49127.855      334.13293     -48793.722      187.04099      185.43245      410.17908    
     68600  -49090.685      334.24859     -48756.437      187.0224       185.41235      410.33184    
     68700  -49055.861      337.22637     -48718.634      187.00629      185.3954       410.48461    
     68800  -49018.826      336.39128     -48682.435      186.98849      185.3765       410.63738    
     68900  -48979.108      335.12012     -48643.988      186.96888      185.35564      410.79014    
     69000  -48944.501      337.98057     -48606.521      186.95175      185.3381       410.94291    
     69100  -48903.13       335.16387     -48567.966      186.93569      185.32156      411.09568    
     69200  -48865.977      338.06239     -48527.914      186.91659      185.30188      411.24844    
     69300  -48829.096      339.40335     -48489.693      186.89727      185.2822       411.40121    
     69400  -48784.283      334.10252     -48450.181      186.88139      185.2669       411.55398    
     69500  -48752.711      341.18205     -48411.529      186.86439      185.25         411.70674    
     69600  -48707.177      335.59721     -48371.58       186.84501      185.23097      411.85951    
     69700  -48671.807      339.35773     -48332.45       186.8271       185.21409      412.01228    
     69800  -48633.552      340.49784     -48293.054      186.81142      185.19843      412.16505    
     69900  -48590.076      335.99271     -48254.083      186.79307      185.18099      412.31781    
     70000  -48552.907      337.87768     -48215.029      186.77431      185.16335      412.47058    
     70100  -48512.364      336.21678     -48176.148      186.75842      185.1477       412.62335    
     70200  -48473.034      337.84385     -48135.19       186.74132      185.13225      412.77611    
     70300  -48434.033      339.25184     -48094.781      186.72291      185.11504      412.92888    
     70400  -48395.463      341.21116     -48054.252      186.70561      185.09858      413.08165    
     70500  -48353.54       340.40338     -48013.136      186.68928      185.08447      413.23441    
     70600  -48315.054      341.78891     -47973.265      186.67224      185.06874      413.38718    
     70700  -48270.529      338.80386     -47931.725      186.65479      185.05302      413.53995    
     70800  -48229.386      338.29031     -47891.096      186.63855      185.0386       413.69271    
     70900  -48188.475      338.71866     -47849.756      186.62181      185.02336      413.84548    
     71000  -48150.796      343.07957     -47807.717      186.60347      185.00719      413.99825    
     71100  -48108.025      341.86404     -47766.161      186.58822      184.99412      414.15102    
     71200  -48066.419      342.41819     -47724.001      186.57362      184.98097      414.30378    
     71300  -48027.674      344.19196     -47683.482      186.55429      184.96432      414.45655    
     71400  -47984.921      344.66276     -47640.258      186.53705      184.94913      414.60932    
     71500  -47939.848      341.00913     -47598.839      186.5234       184.93737      414.76208    
     71600  -47895.078      338.03017     -47557.048      186.50709      184.9238       414.91485    
     71700  -47855.392      344.70574     -47510.686      186.48879      184.90731      415.06762    
     71800  -47813.759      345.11812     -47468.641      186.47329      184.89427      415.22038    
     71900  -47770.791      346.26584     -47424.525      186.45993      184.88306      415.37315    
     72000  -47726.335      344.52125     -47381.814      186.44272      184.86782      415.52592    
     72100  -47689.659      349.5101      -47340.149      186.42521      184.85268      415.67868    
     72200  -47642.378      345.19966     -47297.178      186.41205      184.84198      415.83145    
     72300  -47595.61       342.77513     -47252.835      186.39835      184.8298       415.98422    
     72400  -47554.849      345.54675     -47209.302      186.38028      184.81436      416.13698    
     72500  -47513.313      347.19236     -47166.121      186.36575      184.80143      416.28975    
     72600  -47466.258      344.4055      -47121.852      186.35339      184.79074      416.44252    
     72700  -47420.536      343.82291     -47076.713      186.33784      184.77741      416.59529    
     72800  -47379.425      348.17278     -47031.252      186.32185      184.7626       416.74805    
     72900  -47335.048      349.41575     -46985.632      186.30835      184.75133      416.90082    
     73000  -47292.919      351.37896     -46941.54       186.29509      184.73926      417.05359    
     73100  -47246.864      352.78779     -46894.076      186.27953      184.72552      417.20635    
     73200  -47195.655      350.34149     -46845.313      186.2652       184.71262      417.35912    
     73300  -47150.758      348.70317     -46802.055      186.25296      184.70154      417.51189    
     73400  -47101.626      346.08846     -46755.538      186.2386       184.68881      417.66465    
     73500  -47060.888      353.85887     -46707.029      186.22379      184.67492      417.81742    
     73600  -47013.18       355.22001     -46657.96       186.21096      184.66362      417.97019    
     73700  -46968.948      356.43823     -46612.51       186.19858      184.65236      418.12295    
     73800  -46919.172      354.30235     -46564.869      186.18412      184.63879      418.27572    
     73900  -46878.756      361.04756     -46517.709      186.16984      184.62595      418.42849    
     74000  -46831.798      362.82348     -46468.974      186.15824      184.61496      418.58125    
     74100  -46784.327      359.88015     -46424.447      186.14556      184.60323      418.73402    
     74200  -46742.112      363.10309     -46379.009      186.13083      184.58957      418.88679    
     74300  -46690.387      357.01304     -46333.374      186.11789      184.57706      419.03956    
     74400  -46643.567      354.94895     -46288.618      186.10655      184.56682      419.19232    
     74500  -46598.525      354.22014     -46244.305      186.09348      184.55431      419.34509    
     74600  -46547.526      353.14092     -46194.385      186.07944      184.54059      419.49786    
     74700  -46495.657      355.78752     -46139.869      186.06695      184.52907      419.65062    
     74800  -46450.769      361.0588      -46089.71       186.05568      184.51754      419.80339    
     74900  -46405.025      365.11502     -46039.91       186.04206      184.50477      419.95616    
     75000  -46356.577      365.81783     -45990.759      186.02913      184.49189      420.10892    
     75100  -46307.215      370.78194     -45936.433      186.01731      184.4801       420.26169    
     75200  -46245.472      366.41991     -45879.052      186.00493      184.46833      420.41446    
     75300  -46204.196      372.59448     -45831.601      185.992        184.45499      420.56722    
     75400  -46160.231      378.33289     -45781.898      185.97962      184.44299      420.71999    
     75500  -46099.704      370.80051     -45728.903      185.96757      184.431        420.87276    
     75600  -46053.268      376.6671      -45676.6        185.9548       184.41796      421.02552    
     75700  -45995.443      373.54699     -45621.896      185.94223      184.40561      421.17829    
     75800  -45957.727      385.71993     -45572.007      185.93035      184.39311      421.33106    
     75900  -45901.809      381.13459     -45520.674      185.91761      184.38047      421.48383    
     76000  -45845.91       378.06032     -45467.849      185.905        184.36757      421.63659    
     76100  -45801.361      384.54251     -45416.818      185.89281      184.35499      421.78936    
     76200  -45748.769      384.54742     -45364.221      185.88025      184.34242      421.94213    
     76300  -45700.466      390.54054     -45309.925      185.86761      184.32914      422.09489    
     76400  -45644.582      387.7012      -45256.881      185.85497      184.3162       422.24766    
     76500  -45592.141      394.5159      -45197.625      185.84274      184.30347      422.40043    
     76600  -45537.742      399.17435     -45138.567      185.83023      184.29054      422.55319    
     76700  -45488.309      402.11227     -45086.196      185.81719      184.27697      422.70596    
     76800  -45434.4        404.80728     -45029.593      185.80466      184.26381      422.85873    
     76900  -45383.343      403.62425     -44979.719      185.79207      184.2506       423.01149    
     77000  -45324.287      401.14136     -44923.146      185.77911      184.237        423.16426    
     77100  -45269.944      406.33909     -44863.605      185.76611      184.2234       423.31703    
     77200  -45222.873      411.30424     -44811.568      185.75343      184.20987      423.46979    
     77300  -45158.38       406.33864     -44752.041      185.74028      184.19616      423.62256    
     77400  -45105.386      412.65932     -44692.726      185.72697      184.18202      423.77533    
     77500  -45056.386      425.55795     -44630.828      185.71362      184.16818      423.9281     
     77600  -44992.177      425.00866     -44567.169      185.70049      184.15399      424.08086    
     77700  -44927.411      419.89684     -44507.514      185.68675      184.13979      424.23363    
     77800  -44876.913      432.39868     -44444.515      185.67304      184.12529      424.3864     
     77900  -44824.55       433.58155     -44390.968      185.6594       184.11087      424.53916    
     78000  -44769.069      435.03223     -44334.037      185.6455       184.09636      424.69193    
     78100  -44741.375      464.70468     -44276.67       185.63128      184.08122      424.8447     
     78200  -44954.935      665.04438     -44289.89       185.61759      184.06654      424.99746    
     78300  -45549.696      1068.1412     -44481.555      185.60688      184.05245      425.15023    
     78400  -46806.521      1643.962      -45162.559      185.60603      184.0468       425.303      
     78500  -48710.297      2110.0682     -46600.229      185.6162       184.06649      425.45576    
     78600  -50829.109      2187.0614     -48642.048      185.65349      184.12015      425.60853    
     78700  -52739.609      2019.3565     -50720.252      185.7123       184.19629      425.7613     
     78800  -54686.4        1916.4683     -52769.932      185.78322      184.28163      425.91406    
     78900  -56314.752      1652.6938     -54662.059      185.8698       184.37884      426.06683    
     79000  -57496.187      1320.9209     -56175.266      185.97377      184.49266      426.2196     
     79100  -58321.463      1044.4529     -57277.01       186.07508      184.60842      426.37237    
     79200  -58989.65       886.87117     -58102.779      186.15424      184.70281      426.52513    
     79300  -59573.862      799.3947      -58774.467      186.22852      184.79192      426.6779     
     79400  -60114.289      746.81849     -59367.471      186.30954      184.88795      426.83067    
     79500  -60617.273      707.61913     -59909.654      186.38021      184.97543      426.98343    
     79600  -61084.805      674.91129     -60409.894      186.43825      185.05426      427.1362     
     79700  -61523.994      646.87862     -60877.115      186.49451      185.13313      427.28897    
     79800  -61882.858      583.23131     -61299.627      186.55025      185.21237      427.44173    
     79900  -62151.113      509.47088     -61641.642      186.60529      185.29115      427.5945     
     80000  -62344.842      440.77176     -61904.07       186.66317      185.37178      427.74727    
     80100  -62476.63       380.26834     -62096.362      186.72247      185.453        427.90003    
     80200  -62547.426      325.87248     -62221.554      186.78293      185.53418      428.0528     
     80300  -62559.483      281.34189     -62278.141      186.84823      185.61903      428.20557    
     80400  -62519.394      271.92397     -62247.47       186.90744      185.69635      428.35833    
     80500  -62430.498      278.18052     -62152.317      186.94726      185.75189      428.5111     
     80600  -62281.423      230.77559     -62050.648      186.99082      185.80856      428.66387    
     80700  -62149.823      196.74769     -61953.075      187.03907      185.86826      428.81664    
     80800  -62114.214      274.14967     -61840.064      187.05952      185.89824      428.9694     
     80900  -62125.882      393.80186     -61732.08       187.0542       185.90095      429.12217    
     81000  -62092.696      355.96504     -61736.731      187.04915      185.91114      429.27494    
     81100  -62105.907      321.64501     -61784.262      187.08759      185.95464      429.4277     
     81200  -62124.609      317.57968     -61807.029      187.16299      186.03318      429.58047    
     81300  -62156.511      349.51689     -61806.994      187.21786      186.09626      429.73324    
     81400  -62169.939      334.37381     -61835.565      187.24737      186.13134      429.886      
     81500  -62182.807      316.03843     -61866.768      187.28114      186.16068      430.03877    
     81600  -62181.344      315.91987     -61865.424      187.31852      186.1933       430.19154    
     81700  -62181.89       338.47764     -61843.413      187.33545      186.21944      430.3443     
     81800  -62179.647      349.30112     -61830.346      187.36749      186.24289      430.49707    
     81900  -62200.6        348.80479     -61851.795      187.412        186.28498      430.64984    
     82000  -62227.181      328.9239      -61898.257      187.44751      186.33231      430.80261    
     82100  -62233.884      306.56806     -61927.316      187.48995      186.37474      430.95537    
     82200  -62244.128      325.3997      -61918.728      187.52757      186.42707      431.10814    
     82300  -62237.494      340.90972     -61896.585      187.55822      186.47272      431.26091    
     82400  -62243.704      347.99996     -61895.704      187.59964      186.5145       431.41367    
     82500  -62262.545      337.55412     -61924.991      187.644        186.55817      431.56644    
     82600  -62278.9        323.72266     -61955.177      187.66881      186.59152      431.71921    
     82700  -62278.859      316.88948     -61961.969      187.69268      186.6375       431.87197    
     82800  -62281.294      337.90599     -61943.388      187.72214      186.6868       432.02474    
     82900  -62280.008      347.12303     -61932.885      187.73983      186.72131      432.17751    
     83000  -62276.824      334.82302     -61942.001      187.74818      186.75015      432.33027    
     83100  -62277.002      324.22897     -61952.773      187.76822      186.78762      432.48304    
     83200  -62273.183      327.6579      -61945.525      187.78858      186.82454      432.63581    
     83300  -62261.729      334.05137     -61927.678      187.80262      186.85948      432.78857    
     83400  -62253.839      335.52957     -61918.309      187.8119       186.89183      432.94134    
     83500  -62258.319      339.48086     -61918.838      187.82826      186.9341       433.09411    
     83600  -62259.535      327.33322     -61932.202      187.84556      186.9782       433.24688    
     83700  -62265.716      323.46387     -61942.252      187.85481      187.0048       433.39964    
     83800  -62268.399      327.28786     -61941.111      187.86507      187.0365       433.55241    
     83900  -62263.927      332.82817     -61931.099      187.87527      187.07438      433.70518    
     84000  -62262.196      340.34965     -61921.846      187.87613      187.10104      433.85794    
     84100  -62252.274      327.52975     -61924.744      187.87757      187.12603      434.01071    
     84200  -62263.817      332.97298     -61930.844      187.88702      187.15278      434.16348    
     84300  -62266.603      331.25883     -61935.344      187.89082      187.171        434.31624    
     84400  -62268.247      332.27379     -61935.973      187.89599      187.18976      434.46901    
     84500  -62275.461      334.4301      -61941.03       187.90644      187.22039      434.62178    
     84600  -62283.501      331.50222     -61951.999      187.92192      187.24408      434.77454    
     84700  -62294.558      329.32875     -61965.23       187.93705      187.26776      434.92731    
     84800  -62299.575      328.27114     -61971.304      187.95372      187.29657      435.08008    
     84900  -62293.804      324.70785     -61969.096      187.97287      187.32121      435.23284    
     85000  -62301.396      339.66671     -61961.729      187.98691      187.33597      435.38561    
     85100  -62287.362      325.04529     -61962.317      187.99465      187.34561      435.53838    
     85200  -62289.907      330.61565     -61959.291      188.00865      187.35902      435.69115    
     85300  -62290.48       335.61372     -61954.866      188.02668      187.37575      435.84391    
     85400  -62293.11       333.05566     -61960.055      188.03786      187.38443      435.99668    
     85500  -62298.065      330.56442     -61967.5        188.05015      187.38705      436.14945    
     85600  -62304.352      330.30943     -61974.043      188.06859      187.39175      436.30221    
     85700  -62301.103      328.06463     -61973.039      188.0858       187.39639      436.45498    
     85800  -62294.087      328.45636     -61965.631      188.10333      187.39737      436.60775    
     85900  -62295.737      337.73355     -61958.003      188.12093      187.40423      436.76051    
     86000  -62295.972      337.30222     -61958.67       188.14478      187.41564      436.91328    
     86100  -62304.301      331.55403     -61972.747      188.16247      187.42118      437.06605    
     86200  -62316.805      327.06883     -61989.737      188.18419      187.42648      437.21881    
     86300  -62315.446      318.67244     -61996.774      188.20437      187.4303       437.37158    
     86400  -62312.474      329.94678     -61982.527      188.21724      187.42816      437.52435    
     86500  -62301.023      339.55496     -61961.468      188.2353       187.43179      437.67711    
     86600  -62304.877      345.66272     -61959.215      188.25193      187.43845      437.82988    
     86700  -62314.611      334.50684     -61980.105      188.25862      187.43802      437.98265    
     86800  -62324.296      322.57361     -62001.722      188.26816      187.44309      438.13542    
     86900  -62326.11       323.10046     -62003.01       188.28388      187.45581      438.28818    
     87000  -62318.146      331.82008     -61986.325      188.29353      187.46799      438.44095    
     87100  -62307.757      341.14169     -61966.615      188.30211      187.47378      438.59372    
     87200  -62303.686      343.99344     -61959.692      188.31774      187.4847       438.74648    
     87300  -62305.17       332.93287     -61972.238      188.3333       187.49608      438.89925    
     87400  -62312.724      326.68991     -61986.034      188.34319      187.50388      439.05202    
     87500  -62312.034      325.42        -61986.614      188.35517      187.51727      439.20478    
     87600  -62308.586      334.49087     -61974.095      188.36822      187.53273      439.35755    
     87700  -62301.728      340.98399     -61960.744      188.37435      187.53888      439.51032    
     87800  -62299.8        336.61755     -61963.182      188.38357      187.55291      439.66308    
     87900  -62308.315      328.80565     -61979.51       188.39487      187.56862      439.81585    
     88000  -62313.898      321.52013     -61992.378      188.39483      187.57724      439.96862    
     88100  -62311.128      320.71986     -61990.408      188.39531      187.59214      440.12138    
     88200  -62304.778      331.04835     -61973.73       188.40222      187.61141      440.27415    
     88300  -62297.477      339.87094     -61957.606      188.40226      187.62608      440.42692    
     88400  -62289.39       335.0912      -61954.299      188.39458      187.64102      440.57969    
     88500  -62299.528      336.79148     -61962.737      188.39672      187.66018      440.73245    
     88600  -62306.225      331.89962     -61974.325      188.40225      187.68063      440.88522    
     88700  -62312.803      330.31634     -61982.487      188.39655      187.69545      441.03799    
     88800  -62299.997      320.11778     -61979.879      188.38564      187.70848      441.19075    
     88900  -62297.891      333.1483      -61964.742      188.37918      187.72224      441.34352    
     89000  -62292.261      343.0826      -61949.178      188.37751      187.7384       441.49629    
     89100  -62290.632      340.53552     -61950.096      188.37333      187.7501       441.64905    
     89200  -62294.503      330.94702     -61963.556      188.36729      187.75884      441.80182    
     89300  -62308.508      328.3073      -61980.201      188.36844      187.77355      441.95459    
     89400  -62311.539      325.26601     -61986.273      188.36603      187.78251      442.10735    
     89500  -62307.605      328.58281     -61979.022      188.36605      187.78868      442.26012    
     89600  -62310.338      338.81921     -61971.519      188.37319      187.79682      442.41289    
     89700  -62312.934      335.14446     -61977.789      188.37808      187.79827      442.56565    
     89800  -62324.075      332.58264     -61991.493      188.37636      187.79516      442.71842    
     89900  -62326.752      325.81508     -62000.937      188.37872      187.79695      442.87119    
     90000  -62323.57       326.55898     -61997.011      188.38207      187.79908      443.02396    
     90100  -62318.475      336.01384     -61982.461      188.37874      187.79226      443.17672    
     90200  -62311.54       340.50633     -61971.034      188.37999      187.78925      443.32949    
     90300  -62309.368      337.65742     -61971.71       188.3862       187.78908      443.48226    
     90400  -62311.821      331.50105     -61980.32       188.38388      187.77982      443.63502    
     90500  -62316.788      328.55382     -61988.234      188.38455      187.7768       443.78779    
     90600  -62315.325      327.29072     -61988.034      188.39176      187.78156      443.94056    
     90700  -62311.529      329.4463      -61982.082      188.39197      187.77853      444.09332    
     90800  -62313.837      337.94594     -61975.891      188.3936       187.77289      444.24609    
     90900  -62311.746      335.58354     -61976.163      188.40334      187.77879      444.39886    
     91000  -62318.056      333.4656      -61984.59       188.41224      187.78243      444.55162    
     91100  -62320.699      327.79138     -61992.907      188.41012      187.7741       444.70439    
     91200  -62323.666      329.1936      -61994.472      188.41561      187.77392      444.85716    
     91300  -62323.417      335.81331     -61987.604      188.42739      187.7814       445.00993    
     91400  -62312.034      333.59448     -61978.439      188.42747      187.77596      445.16269    
     91500  -62312.177      337.86355     -61974.313      188.42872      187.76971      445.31546    
     91600  -62313.66       332.71357     -61980.946      188.44245      187.77653      445.46823    
     91700  -62320.902      329.21332     -61991.689      188.45089      187.77526      445.62099    
     91800  -62322.982      326.91344     -61996.069      188.44715      187.76489      445.77376    
     91900  -62320.979      331.36506     -61989.614      188.45671      187.7686       445.92653    
     92000  -62312.341      333.80988     -61978.531      188.46651      187.7743       446.07929    
     92100  -62308.19       335.3154      -61972.875      188.46421      187.76767      446.23206    
     92200  -62312.307      334.50402     -61977.803      188.46917      187.76966      446.38483    
     92300  -62316.14       328.67879     -61987.461      188.48017      187.77908      446.53759    
     92400  -62313.69       322.14333     -61991.546      188.48181      187.77333      446.69036    
     92500  -62311.887      326.2458      -61985.641      188.48217      187.76724      446.84313    
     92600  -62308.791      334.43435     -61974.357      188.494        187.77223      446.99589    
     92700  -62311.128      342.5915      -61968.536      188.49544      187.76541      447.14866    
     92800  -62305.684      331.41583     -61974.268      188.48986      187.75433      447.30143    
     92900  -62315.298      331.28479     -61984.013      188.4923       187.75496      447.4542     
     93000  -62320.468      330.20865     -61990.26       188.49413      187.75472      447.60696    
     93100  -62317.649      329.04946     -61988.6        188.48408      187.74669      447.75973    
     93200  -62313.981      334.09214     -61979.888      188.47913      187.74559      447.9125     
     93300  -62308.692      336.74719     -61971.945      188.47788      187.74992      448.06526    
     93400  -62311.898      338.55842     -61973.34       188.46895      187.74689      448.21803    
     93500  -62315.987      333.14549     -61982.842      188.45855      187.74428      448.3708     
     93600  -62319.767      329.08051     -61990.686      188.45792      187.74911      448.52356    
     93700  -62317.429      326.96841     -61990.461      188.451        187.75206      448.67633    
     93800  -62315.492      333.22216     -61982.27       188.43799      187.74953      448.8291     
     93900  -62312.27       338.52073     -61973.749      188.4312       187.74896      448.98186    
     94000  -62305.922      334.52306     -61971.399      188.42676      187.75058      449.13463    
     94100  -62313.852      336.59308     -61977.259      188.41437      187.74513      449.2874     
     94200  -62317.044      329.47376     -61987.571      188.40806      187.74106      449.44016    
     94300  -62319.771      326.5636      -61993.208      188.40522      187.74207      449.59293    
     94400  -62320.321      329.41913     -61990.902      188.39656      187.73494      449.7457     
     94500  -62313.932      329.1172      -61984.815      188.39016      187.72504      449.89847    
     94600  -62313.23       332.44777     -61980.782      188.392        187.71933      450.05123    
     94700  -62319.414      336.47554     -61982.938      188.39002      187.70589      450.204      
     94800  -62324.476      333.13197     -61991.344      188.38915      187.69081      450.35677    
     94900  -62326.322      325.86484     -62000.457      188.39388      187.68421      450.50953    
     95000  -62325.739      324.73258     -62001.007      188.39286      187.67302      450.6623     
     95100  -62322.857      331.22981     -61991.627      188.39005      187.65951      450.81507    
     95200  -62319.595      337.75269     -61981.842      188.39777      187.65482      450.96783    
     95300  -62316.185      336.44578     -61979.739      188.39862      187.64559      451.1206     
     95400  -62319.102      331.21283     -61987.889      188.3927       187.63065      451.27337    
     95500  -62324.016      327.26385     -61996.752      188.39512      187.62462      451.42613    
     95600  -62328.587      331.16419     -61997.423      188.39557      187.6211       451.5789     
     95700  -62320.24       330.07435     -61990.165      188.39052      187.61277      451.73167    
     95800  -62317.747      336.83196     -61980.915      188.38796      187.60615      451.88443    
     95900  -62311.769      333.99082     -61977.778      188.38609      187.60707      452.0372     
     96000  -62317.542      334.86011     -61982.682      188.38027      187.60348      452.18997    
     96100  -62313.917      324.24574     -61989.671      188.37146      187.59476      452.34274    
     96200  -62322.772      330.49925     -61992.273      188.36814      187.59451      452.4955     
     96300  -62318.479      330.68484     -61987.794      188.36312      187.59356      452.64827    
     96400  -62318.395      337.747       -61980.648      188.34959      187.58358      452.80104    
     96500  -62316.489      339.88397     -61976.605      188.34205      187.58359      452.9538     
     96600  -62309.862      332.59644     -61977.265      188.33804      187.58597      453.10657    
     96700  -62310.763      330.48017     -61980.282      188.32166      187.57807      453.25934    
     96800  -62311.941      329.02886     -61982.913      188.3068       187.57419      453.4121     
     96900  -62307.855      326.61834     -61981.237      188.29892      187.57851      453.56487    
     97000  -62306.538      329.87536     -61976.663      188.28199      187.57599      453.71764    
     97100  -62307.499      333.5973      -61973.902      188.26024      187.56961      453.8704     
     97200  -62305.496      331.18073     -61974.315      188.2464       187.57091      454.02317    
     97300  -62309.821      332.24805     -61977.573      188.23139      187.57171      454.17594    
     97400  -62310.812      329.88022     -61980.932      188.20978      187.56626      454.3287     
     97500  -62312.865      330.57667     -61982.288      188.19158      187.56399      454.48147    
     97600  -62318.705      337.85606     -61980.849      188.17776      187.56627      454.63424    
     97700  -62312.891      333.63142     -61979.26       188.15674      187.55973      454.78701    
     97800  -62311.116      330.5958      -61980.52       188.13737      187.55218      454.93977    
     97900  -62317.636      334.53082     -61983.106      188.12469      187.55159      455.09254    
     98000  -62325.201      336.07799     -61989.123      188.10803      187.545        455.24531    
     98100  -62324.376      327.31017     -61997.066      188.08816      187.53574      455.39807    
     98200  -62328.83       329.52093     -61999.309      188.07314      187.52885      455.55084    
     98300  -62327.451      333.80256     -61993.649      188.05833      187.52208      455.70361    
     98400  -62321.456      334.80619     -61986.649      188.04031      187.50999      455.85637    
     98500  -62322.053      337.19899     -61984.854      188.02338      187.49791      456.00914    
     98600  -62325.398      334.71361     -61990.684      188.01118      187.4885       456.16191    
     98700  -62331.744      332.23737     -61999.507      187.99512      187.47317      456.31467    
     98800  -62326.926      324.78672     -62002.14       187.97984      187.45843      456.46744    
     98900  -62326.67       331.75235     -61994.918      187.9712       187.44782      456.62021    
     99000  -62322.088      336.07352     -61986.015      187.96082      187.43253      456.77297    
     99100  -62323.141      339.04354     -61984.097      187.94873      187.41269      456.92574    
     99200  -62325.247      334.60414     -61990.643      187.94288      187.39689      457.07851    
     99300  -62331.135      331.42881     -61999.707      187.93877      187.38302      457.23128    
     99400  -62334.378      331.37891     -62002.999      187.92939      187.36169      457.38404    
     99500  -62327.381      328.60127     -61998.779      187.92217      187.34163      457.53681    
     99600  -62319.632      329.57639     -61990.056      187.91972      187.32505      457.68958    
     99700  -62322.52       339.03411     -61983.486      187.91425      187.30305      457.84234    
     99800  -62322.504      336.313       -61986.191      187.90701      187.27932      457.99511    
     99900  -62328.439      332.38381     -61996.055      187.90578      187.26027      458.14788    
    100000  -62327.036      324.78132     -62002.255      187.90355      187.23901      458.30064    
Loop time of 5170.79 on 12 procs for 100000 steps with 8568 atoms

Performance: 1.671 ns/day, 14.363 hours/ns, 19.339 timesteps/s, 165.700 katom-step/s
74.0% CPU use with 12 MPI tasks x 1 OpenMP threads

MPI task timing breakdown:
Section |  min time  |  avg time  |  max time  |%varavg| %total
---------------------------------------------------------------
Pair    | 1153.9     | 1304       | 1639.9     | 365.9 | 25.22
Neigh   | 4.7511     | 6.7072     | 10.39      |  77.2 |  0.13
Comm    | 995.19     | 1364.8     | 1512.1     | 384.6 | 26.39
Output  | 7.0227     | 7.327      | 7.7226     |   8.0 |  0.14
Modify  | 2253.4     | 2305.7     | 2347.8     |  54.1 | 44.59
Other   |            | 182.2      |            |       |  3.52

Nlocal:            714 ave        1122 max         442 min
Histogram: 4 0 3 1 0 0 0 0 1 3
Nghost:        2770.75 ave        3863 max        2027 min
Histogram: 4 0 4 0 0 0 0 0 0 4
Neighs:              0 ave           0 max           0 min
Histogram: 12 0 0 0 0 0 0 0 0 0

Total # of neighbors = 0
Ave neighs/atom = 0
Neighbor list builds = 541
Dangerous builds = 0
Total wall time: 1:26:12
