LAMMPS (2 Aug 2023 - Update 3)
OMP_NUM_THREADS environment is not set. Defaulting to 1 thread. (src/comm.cpp:98)
  using 1 OpenMP thread(s) per MPI task

# 1------general---------------
units                             metal      #单位为lammps 中的metel 类型
dimension                    3          #模拟的维度 三维
boundary                    p p p      #周期边界条件
atom_style                  atomic   #原子类型自动
atom_modify              map array sort 100 2.0
neighbor                    3.0 bin
neigh_modify            every 1 delay 0 check yes
#2 -----global variable-------定义全局变量，方便统一修改；
variable temperature equal 300
variable tstep equal 0.001
variable pressure equal 0
variable thermalstep equal 100
variable dumpstep equal 1000
variable relaxtime equal 0
variable totaltime equal 100000
variable deformrate equal 5e-3
#3 -------model------------
#box tilt large
read_data     1.lmp
Reading data file ...
  orthogonal box = (-100 -100 -2.3312512) to (100 100 41.316429)
  3 by 4 by 1 MPI processor grid
  reading atoms ...
  1824 atoms
  read_data CPU = 0.006 seconds
replicate 1 1 5
Replication is creating a 1x1x5 = 5 times larger system...
  orthogonal box = (-100 -100 -2.3312512) to (100 100 215.90715)
  2 by 2 by 3 MPI processor grid
  9120 atoms
  replicate CPU = 0.001 seconds
write_data h.data
System init for write_data ...
WARNING: Communication cutoff is 0.0. No ghost atoms will be generated. Atoms may get lost. (src/comm_brick.cpp:210)
pair_style hybrid airebo 3.0 airebo 3.0 airebo 3.0 lj/cut 10
pair_coeff * * airebo 1 CH.airebo C NULL NULL
Reading airebo potential file CH.airebo with DATE: 2011-10-25
pair_coeff * * airebo 2 CH.airebo NULL C NULL
Reading airebo potential file CH.airebo with DATE: 2011-10-25
pair_coeff * * airebo 3 CH.airebo NULL NULL C
Reading airebo potential file CH.airebo with DATE: 2011-10-25
pair_coeff 1 2 lj/cut 0.00456 3.431
pair_coeff 1 3 lj/cut 0.00456 3.431
pair_coeff 2 3 lj/cut 0.00456 3.431

# 5------minimize -----------
min_style      sd
minimize       1.0e-4 1.0e-6 100 1000
Neighbor list info ...
  update: every = 1 steps, delay = 0 steps, check = yes
  max neighbors/atom: 2000, page size: 100000
  master list distance cutoff = 13.2
  ghost atom cutoff = 13.2
  binsize = 6.6, bins = 31 31 34
  6 neighbor lists, perpetual/occasional/extra = 6 0 0
  (1) pair airebo, perpetual, skip from (5)
      attributes: full, newton on, ghost
      pair build: skip/ghost
      stencil: none
      bin: none
  (2) pair airebo, perpetual, skip from (5)
      attributes: full, newton on, ghost
      pair build: skip/ghost
      stencil: none
      bin: none
  (3) pair airebo, perpetual, skip from (5)
      attributes: full, newton on, ghost
      pair build: skip/ghost
      stencil: none
      bin: none
  (4) pair lj/cut, perpetual, skip from (6)
      attributes: half, newton on, cut 13
      pair build: skip
      stencil: none
      bin: none
  (5) neighbor class addition, perpetual
      attributes: full, newton on, ghost
      pair build: full/bin/ghost
      stencil: full/ghost/bin/3d
      bin: standard
  (6) neighbor class addition, perpetual
      attributes: half, newton on, cut 13
      pair build: half/bin/atomonly/newton
      stencil: half/bin/3d
      bin: standard
Per MPI rank memory allocation (min/avg/max) = 12.08 | 12.46 | 12.84 Mbytes
   Step          Temp          E_pair         E_mol          TotEng         Press     
         0   0             -65701.823      0             -65701.823      705.43265    
         4   0             -65925.892      0             -65925.892      93.415916    
Loop time of 0.108367 on 12 procs for 4 steps with 9120 atoms

94.6% CPU use with 12 MPI tasks x 1 OpenMP threads

Minimization stats:
  Stopping criterion = energy tolerance
  Energy initial, next-to-last, final = 
     -65701.8231789424  -65920.2820508667  -65925.8918853968
  Force two-norm initial, final = 154.42012 25.744755
  Force max component initial, final = 3.4318528 0.54749295
  Final line search alpha, max atom move = 0.13695896 0.074984064
  Iterations, force evaluations = 4 8

MPI task timing breakdown:
Section |  min time  |  avg time  |  max time  |%varavg| %total
---------------------------------------------------------------
Pair    | 0.061199   | 0.088927   | 0.10707    |   4.4 | 82.06
Neigh   | 0          | 0          | 0          |   0.0 |  0.00
Comm    | 0.00075297 | 0.018898   | 0.046655   |   9.6 | 17.44
Output  | 0          | 0          | 0          |   0.0 |  0.00
Modify  | 0          | 0          | 0          |   0.0 |  0.00
Other   |            | 0.0005411  |            |       |  0.50

Nlocal:            760 ave         795 max         698 min
Histogram: 1 0 1 1 0 1 3 0 2 3
Nghost:        3358.33 ave        3426 max        3315 min
Histogram: 2 2 1 1 3 1 0 1 0 1
Neighs:              0 ave           0 max           0 min
Histogram: 12 0 0 0 0 0 0 0 0 0

Total # of neighbors = 0
Ave neighs/atom = 0
Neighbor list builds = 0
Dangerous builds = 0
#6----define computes------
variable nums equal count(all) #计算原子数目
variable toval equal 22.7273*22.7165*lz #计算系统总体积，单层石墨烯厚度为0.335nm
variable vol equal ${toval} #体系的初始体积
variable vol equal 112673.150058635 
variable vatom equal v_vol/v_nums #单个原子体积
compute 1 all stress/atom NULL #计算体系中单原子应力
compute xalls all reduce sum c_1[1]
variable xstress equal (c_xalls)/(v_toval*10000)
compute yalls all reduce sum c_1[2]
variable ystress equal (c_yalls)/(v_toval*10000)
compute zalls all reduce sum c_1[3]
variable zstress equal (c_zalls)/(v_toval*10000)
#7---------relaxation-------------------------
timestep ${tstep}
timestep 0.001
velocity all create ${temperature} 231743 units box dist gaussian
velocity all create 300 231743 units box dist gaussian
dump   1 all atom 100 all-cy.lammpstrj
#fix    1 all npt temp 300 300  0.1 aniso 0 0 10 drag 1  #三个方向独立控压
fix  1 all npt temp ${temperature} ${temperature} 0.1 x ${pressure} ${pressure} 10 y ${pressure} ${pressure} 10
fix  1 all npt temp 300 ${temperature} 0.1 x ${pressure} ${pressure} 10 y ${pressure} ${pressure} 10
fix  1 all npt temp 300 300 0.1 x ${pressure} ${pressure} 10 y ${pressure} ${pressure} 10
fix  1 all npt temp 300 300 0.1 x 0 ${pressure} 10 y ${pressure} ${pressure} 10
fix  1 all npt temp 300 300 0.1 x 0 0 10 y ${pressure} ${pressure} 10
fix  1 all npt temp 300 300 0.1 x 0 0 10 y 0 ${pressure} 10
fix  1 all npt temp 300 300 0.1 x 0 0 10 y 0 0 10
compute  2 all pe/atom
compute  pe all reduce sum c_2
variable PE equal "c_pe"
fix    pe all print 100 "${PE} " file PE.txt screen no
thermo  ${thermalstep}
thermo  100
#thermo_style  custom step pe ke etotal lx ly lz
run   ${relaxtime}
run   0
Per MPI rank memory allocation (min/avg/max) = 12.7 | 13.08 | 13.46 Mbytes
   Step          Temp          E_pair         E_mol          TotEng         Press          Volume    
         4   300           -65925.892      0             -65572.275      136.68334      8729536.1    
Loop time of 3.20722e-05 on 12 procs for 0 steps with 9120 atoms

79.0% CPU use with 12 MPI tasks x 1 OpenMP threads

MPI task timing breakdown:
Section |  min time  |  avg time  |  max time  |%varavg| %total
---------------------------------------------------------------
Pair    | 0          | 0          | 0          |   0.0 |  0.00
Neigh   | 0          | 0          | 0          |   0.0 |  0.00
Comm    | 0          | 0          | 0          |   0.0 |  0.00
Output  | 0          | 0          | 0          |   0.0 |  0.00
Modify  | 0          | 0          | 0          |   0.0 |  0.00
Other   |            | 3.207e-05  |            |       |100.00

Nlocal:            760 ave         819 max         700 min
Histogram: 1 0 2 2 0 1 4 1 0 1
Nghost:           3358 ave        3422 max        3303 min
Histogram: 1 1 3 2 0 0 3 0 1 1
Neighs:              0 ave           0 max           0 min
Histogram: 12 0 0 0 0 0 0 0 0 0

Total # of neighbors = 0
Ave neighs/atom = 0
Neighbor list builds = 0
Dangerous builds = 0
#8 -------tension-----------------------------
unfix  1
undump  1
unfix  pe
reset_timestep 0
fix avestress all ave/atom 1 ${dumpstep} ${dumpstep} c_1[1] c_1[2] c_1[3] c_1[4] c_1[5] c_1[6]
fix avestress all ave/atom 1 1000 ${dumpstep} c_1[1] c_1[2] c_1[3] c_1[4] c_1[5] c_1[6]
fix avestress all ave/atom 1 1000 1000 c_1[1] c_1[2] c_1[3] c_1[4] c_1[5] c_1[6]

#-----calculation of strain and Cumulative compression--------
variable                tmp equal "lz"
variable                L0 equal ${tmp}
variable                L0 equal 218.238401754
variable                strain equal "(lz - v_L0)/v_L0"
variable                Cumulativels equal "(lz - v_L0)/10"
fix Step all print 100 "${strain} ${Cumulativels} ${zstress}" file grapoten.txt screen no

dump 2 all custom ${dumpstep} tension.xyz type x y z f_avestress[1] f_avestress[2] f_avestress[3] f_avestress[4] f_avestress[5] f_avestress[6]
dump 2 all custom 1000 tension.xyz type x y z f_avestress[1] f_avestress[2] f_avestress[3] f_avestress[4] f_avestress[5] f_avestress[6]

fix  1 all npt temp ${temperature} ${temperature} 0.1 y ${pressure} ${pressure} 10 x ${pressure} ${pressure} 10
fix  1 all npt temp 300 ${temperature} 0.1 y ${pressure} ${pressure} 10 x ${pressure} ${pressure} 10
fix  1 all npt temp 300 300 0.1 y ${pressure} ${pressure} 10 x ${pressure} ${pressure} 10
fix  1 all npt temp 300 300 0.1 y 0 ${pressure} 10 x ${pressure} ${pressure} 10
fix  1 all npt temp 300 300 0.1 y 0 0 10 x ${pressure} ${pressure} 10
fix  1 all npt temp 300 300 0.1 y 0 0 10 x 0 ${pressure} 10
fix  1 all npt temp 300 300 0.1 y 0 0 10 x 0 0 10

thermo_style custom step pe ke etotal lx ly lz
fix   2 all deform 1 z erate ${deformrate} remap x units box
fix   2 all deform 1 z erate 0.005 remap x units box
fix   3 all ave/time 2 500 1000 v_xstress v_ystress v_zstress file pressure.out
run   ${totaltime}
run   100000
WARNING: Dump 2 includes no atom IDs and is not sorted by ID. This may complicate post-processing tasks or visualization (src/dump.cpp:221)
Per MPI rank memory allocation (min/avg/max) = 14.2 | 14.58 | 14.96 Mbytes
   Step         PotEng         KinEng         TotEng           Lx             Ly             Lz      
         0  -65925.892      353.61698     -65572.275      200            200            218.2384     
       100  -65724.959      179.54871     -65545.41       199.99033      199.98975      218.34752    
       200  -65738.803      230.33532     -65508.468      199.97749      199.97921      218.45664    
       300  -65709.684      244.85925     -65464.825      199.99225      199.99749      218.56576    
       400  -65692.877      275.20661     -65417.671      199.97868      199.99278      218.67488    
       500  -65670.105      301.07481     -65369.03       199.96093      199.98642      218.784      
       600  -65649.972      328.98122     -65320.991      199.9723       200.00624      218.89312    
       700  -65623.675      346.08009     -65277.595      199.96026      199.99883      219.00224    
       800  -65591.197      347.20327     -65243.994      199.93452      199.97801      219.11136    
       900  -65581.892      357.47166     -65224.42       199.93366      199.97695      219.22047    
      1000  -65574.116      347.36296     -65226.753      199.94096      199.98239      219.32959    
      1100  -65597.788      351.43154     -65246.356      199.92711      199.9659       219.43871    
      1200  -65600.348      337.96382     -65262.384      199.93049      199.96782      219.54783    
      1300  -65608.084      348.03709     -65260.047      199.93089      199.96541      219.65695    
      1400  -65605.122      362.55205     -65242.57       199.91671      199.94932      219.76607    
      1500  -65593.451      365.484       -65227.967      199.91611      199.94478      219.87519    
      1600  -65595.948      369.96281     -65225.985      199.91787      199.94248      219.98431    
      1700  -65586.116      350.33203     -65235.784      199.90384      199.92602      220.09343    
      1800  -65602.009      354.11795     -65247.891      199.90003      199.9196       220.20255    
      1900  -65587.275      336.75537     -65250.52       199.90925      199.92822      220.31167    
      2000  -65588.914      348.47168     -65240.443      199.89469      199.91805      220.42079    
      2100  -65572.627      345.82252     -65226.804      199.87813      199.90899      220.5299     
      2200  -65581.905      360.24508     -65221.66       199.87213      199.90933      220.63902    
      2300  -65580.462      352.92168     -65227.54       199.86418      199.91021      220.74814    
      2400  -65591.704      355.0189      -65236.685      199.84322      199.90026      220.85726    
      2500  -65589.849      349.47659     -65240.372      199.83576      199.90564      220.96638    
      2600  -65588.4        354.75431     -65233.646      199.83006      199.91217      221.0755     
      2700  -65580.313      358.38164     -65221.932      199.81153      199.90231      221.18462    
      2800  -65573.238      358.57282     -65214.666      199.79408      199.89517      221.29374    
      2900  -65574.785      359.60868     -65215.177      199.78585      199.89531      221.40286    
      3000  -65574.502      352.77199     -65221.73       199.77707      199.89536      221.51198    
      3100  -65579.885      352.82289     -65227.062      199.75889      199.88607      221.6211     
      3200  -65572.141      348.0181      -65224.123      199.75145      199.88566      221.73022    
      3300  -65571.572      357.84436     -65213.727      199.73786      199.87979      221.83934    
      3400  -65558.125      353.02485     -65205.1        199.72249      199.86795      221.94845    
      3500  -65556.654      353.49093     -65203.164      199.71288      199.86146      222.05757    
      3600  -65558.225      349.99534     -65208.229      199.70949      199.86074      222.16669    
      3700  -65561.616      350.29927     -65211.317      199.69689      199.85237      222.27581    
      3800  -65558.914      351.6835      -65207.23       199.6845       199.84432      222.38493    
      3900  -65553.355      355.64689     -65197.708      199.67579      199.83883      222.49405    
      4000  -65546.464      357.43156     -65189.032      199.66271      199.8267       222.60317    
      4100  -65543.251      358.2722      -65184.979      199.64999      199.81316      222.71229    
      4200  -65541.94       354.80381     -65187.137      199.64163      199.80622      222.82141    
      4300  -65544.128      354.25232     -65189.876      199.63428      199.80074      222.93053    
      4400  -65536.268      348.07776     -65188.19       199.61918      199.78948      223.03965    
      4500  -65530.167      348.88888     -65181.278      199.60734      199.78183      223.14877    
      4600  -65529.368      356.26127     -65173.106      199.5914       199.76997      223.25788    
      4700  -65522.676      355.50406     -65167.172      199.57558      199.75887      223.367      
      4800  -65521.377      355.99845     -65165.378      199.56466      199.75326      223.47612    
      4900  -65521.845      355.25025     -65166.594      199.55178      199.7478       223.58524    
      5000  -65516.946      349.42485     -65167.521      199.53288      199.73807      223.69436    
      5100  -65515.979      352.76066     -65163.219      199.51429      199.72866      223.80348    
      5200  -65508.928      353.44456     -65155.484      199.49722      199.72167      223.9126     
      5300  -65504.521      356.25821     -65148.263      199.47798      199.71088      224.02172    
      5400  -65499.228      355.09967     -65144.128      199.4619       199.70327      224.13084    
      5500  -65493.954      352.65468     -65141.3        199.44468      199.6955       224.23996    
      5600  -65488.254      348.82863     -65139.425      199.42735      199.68959      224.34908    
      5700  -65491.396      353.69228     -65137.704      199.4085       199.68256      224.4582     
      5800  -65486.222      353.11399     -65133.108      199.38898      199.67139      224.56732    
      5900  -65482.835      355.76561     -65127.069      199.37109      199.65707      224.67643    
      6000  -65473.607      351.661       -65121.946      199.3548       199.64457      224.78555    
      6100  -65471.564      353.28884     -65118.275      199.33359      199.63241      224.89467    
      6200  -65467.92       354.94531     -65112.975      199.3158       199.62354      225.00379    
      6300  -65463.877      355.90724     -65107.97       199.29863      199.61916      225.11291    
      6400  -65458.365      354.02762     -65104.338      199.27557      199.60738      225.22203    
      6500  -65451.719      352.61422     -65099.105      199.25289      199.59391      225.33115    
      6600  -65447.062      355.35823     -65091.704      199.23644      199.58378      225.44027    
      6700  -65438.175      352.49584     -65085.679      199.21638      199.57066      225.54939    
      6800  -65434.427      351.60128     -65082.825      199.19382      199.55574      225.65851    
      6900  -65432.758      351.17822     -65081.58       199.17669      199.54593      225.76763    
      7000  -65432.962      355.92723     -65077.035      199.1522       199.53015      225.87675    
      7100  -65422.983      354.329       -65068.654      199.1303       199.51641      225.98587    
      7200  -65412.573      352.68489     -65059.888      199.112        199.50949      226.09498    
      7300  -65406.686      353.73122     -65052.955      199.08883      199.49529      226.2041     
      7400  -65405.377      355.28486     -65050.092      199.06468      199.48014      226.31322    
      7500  -65401.524      352.07859     -65049.446      199.04312      199.46539      226.42234    
      7600  -65396.447      350.15745     -65046.29       199.02075      199.44519      226.53146    
      7700  -65392.158      353.31744     -65038.841      198.99749      199.42239      226.64058    
      7800  -65383.986      355.15059     -65028.835      198.97851      199.40498      226.7497     
      7900  -65375.974      354.82365     -65021.15       198.95933      199.38759      226.85882    
      8000  -65370.917      352.55825     -65018.359      198.9362       199.36869      226.96794    
      8100  -65369.905      353.94404     -65015.961      198.91373      199.34985      227.07706    
      8200  -65362.317      351.11155     -65011.206      198.89378      199.33392      227.18618    
      8300  -65356.983      353.21489     -65003.768      198.86573      199.31146      227.2953     
      8400  -65352.185      356.75667     -64995.428      198.83552      199.28501      227.40441    
      8500  -65347.295      357.84385     -64989.451      198.81067      199.26556      227.51353    
      8600  -65339.812      353.03554     -64986.776      198.78656      199.24631      227.62265    
      8700  -65336.026      352.02419     -64984.002      198.7571       199.22116      227.73177    
      8800  -65330.65       352.25012     -64978.4        198.73299      199.20063      227.84089    
      8900  -65321.149      351.93302     -64969.216      198.71099      199.18092      227.95001    
      9000  -65315.393      355.30685     -64960.086      198.67893      199.15297      228.05913    
      9100  -65306.204      352.98092     -64953.223      198.65073      199.13145      228.16825    
      9200  -65298.176      351.12325     -64947.053      198.62925      199.11662      228.27737    
      9300  -65291.081      350.40554     -64940.675      198.60165      199.0989       228.38649    
      9400  -65289.462      354.20648     -64935.256      198.56878      199.07886      228.49561    
      9500  -65284.582      351.21842     -64933.363      198.54024      199.06356      228.60473    
      9600  -65279.099      351.57683     -64927.522      198.5048       199.04252      228.71385    
      9700  -65269.409      355.85269     -64913.556      198.46569      199.01734      228.82296    
      9800  -65260.402      357.33165     -64903.07       198.43107      198.99504      228.93208    
      9900  -65252.815      354.09878     -64898.716      198.39877      198.97858      229.0412     
     10000  -65245.575      350.20833     -64895.367      198.36409      198.96191      229.15032    
     10100  -65244.643      354.27247     -64890.37       198.32541      198.94082      229.25944    
     10200  -65234.674      351.49683     -64883.177      198.28647      198.92103      229.36856    
     10300  -65230.151      354.82902     -64875.322      198.24728      198.8984       229.47768    
     10400  -65222.411      354.45238     -64867.959      198.20435      198.87277      229.5868     
     10500  -65216.164      355.52377     -64860.641      198.16373      198.84666      229.69592    
     10600  -65203.912      354.906       -64849.006      198.12691      198.82223      229.80504    
     10700  -65197.173      359.08347     -64838.09       198.09043      198.79493      229.91416    
     10800  -65190.51       355.165       -64835.345      198.05811      198.76863      230.02328    
     10900  -65188.56       355.02009     -64833.54       198.02542      198.74412      230.13239    
     11000  -65180.559      354.28504     -64826.274      197.99251      198.71733      230.24151    
     11100  -65169.378      351.93311     -64817.444      197.95461      198.6912       230.35063    
     11200  -65164.302      357.43819     -64806.863      197.91432      198.66044      230.45975    
     11300  -65149.635      355.1993      -64794.436      197.87667      198.63003      230.56887    
     11400  -65142.68       354.21942     -64788.461      197.83806      198.60027      230.67799    
     11500  -65143.193      354.95514     -64788.237      197.8003       198.56953      230.78711    
     11600  -65136.264      354.45051     -64781.814      197.76564      198.54122      230.89623    
     11700  -65124.589      352.0863      -64772.503      197.73239      198.51231      231.00535    
     11800  -65113.739      353.70751     -64760.031      197.69428      198.47871      231.11447    
     11900  -65104.523      357.71301     -64746.81       197.65776      198.44548      231.22359    
     12000  -65096.534      357.66508     -64738.869      197.61767      198.40974      231.33271    
     12100  -65090.942      351.51408     -64739.427      197.57339      198.37129      231.44183    
     12200  -65086.649      351.48814     -64735.161      197.53254      198.33808      231.55094    
     12300  -65082.909      354.57285     -64728.336      197.48912      198.30546      231.66006    
     12400  -65075.035      352.56425     -64722.471      197.44914      198.2732       231.76918    
     12500  -65066.153      351.58325     -64714.57       197.40808      198.24244      231.8783     
     12600  -65049.616      350.77381     -64698.842      197.36631      198.21042      231.98742    
     12700  -65040.511      353.81812     -64686.693      197.32339      198.17506      232.09654    
     12800  -65034.212      354.40755     -64679.805      197.27711      198.13864      232.20566    
     12900  -65032.456      354.97011     -64677.486      197.23186      198.10432      232.31478    
     13000  -65022.509      352.09375     -64670.415      197.18658      198.07285      232.4239     
     13100  -65013.541      351.9707      -64661.57       197.14265      198.04513      232.53302    
     13200  -65001.172      349.4998      -64651.672      197.10191      198.02073      232.64214    
     13300  -64995.543      354.54219     -64641          197.05954      197.99307      232.75126    
     13400  -64983.42       356.04527     -64627.375      197.01426      197.95658      232.86037    
     13500  -64973.746      359.79932     -64613.947      196.96961      197.91926      232.96949    
     13600  -64963.557      353.02969     -64610.528      196.92806      197.88414      233.07861    
     13700  -64960.323      353.72879     -64606.595      196.88859      197.84949      233.18773    
     13800  -64950.205      352.63682     -64597.568      196.85012      197.81226      233.29685    
     13900  -64937.916      351.08504     -64586.831      196.81816      197.7763       233.40597    
     14000  -64929.702      356.5474      -64573.154      196.78541      197.7375       233.51509    
     14100  -64918.24       359.21909     -64559.021      196.74811      197.69448      233.62421    
     14200  -64910.308      355.60607     -64554.702      196.71051      197.65215      233.73333    
     14300  -64902.695      351.16341     -64551.531      196.66939      197.60841      233.84245    
     14400  -64898.025      354.55155     -64543.473      196.63076      197.56663      233.95157    
     14500  -64887.665      353.63604     -64534.029      196.59766      197.52893      234.06069    
     14600  -64876.276      354.40032     -64521.876      196.56142      197.48666      234.16981    
     14700  -64865.05       356.98522     -64508.065      196.52344      197.44341      234.27892    
     14800  -64856.806      360.89281     -64495.913      196.48945      197.40278      234.38804    
     14900  -64849.793      356.3849      -64493.408      196.45253      197.36055      234.49716    
     15000  -64845.033      355.83395     -64489.199      196.41551      197.31661      234.60628    
     15100  -64830.622      350.07282     -64480.549      196.37901      197.27546      234.7154     
     15200  -64821.535      352.20732     -64469.328      196.34281      197.23573      234.82452    
     15300  -64812.546      358.25329     -64454.293      196.30409      197.19716      234.93364    
     15400  -64797.509      355.88486     -64441.625      196.2651       197.16309      235.04276    
     15500  -64790.967      355.43735     -64435.53       196.22545      197.13132      235.15188    
     15600  -64782.229      349.47751     -64432.752      196.18066      197.10264      235.261      
     15700  -64773.133      350.21921     -64422.914      196.13471      197.07662      235.37012    
     15800  -64762.032      353.34189     -64408.69       196.0912       197.05491      235.47924    
     15900  -64748.808      355.3236      -64393.485      196.04774      197.0374       235.58835    
     16000  -64742.595      357.08004     -64385.515      196.00205      197.01965      235.69747    
     16100  -64737.231      351.76219     -64385.469      195.95588      197.00182      235.80659    
     16200  -64725.465      351.14155     -64374.323      195.91011      196.98673      235.91571    
     16300  -64714.293      356.80151     -64357.492      195.86703      196.96782      236.02483    
     16400  -64699.25       354.69014     -64344.56       195.82913      196.94775      236.13395    
     16500  -64688.296      352.18566     -64336.111      195.79199      196.92578      236.24307    
     16600  -64680.938      352.19212     -64328.746      195.75182      196.90319      236.35219    
     16700  -64673.133      350.01362     -64323.119      195.71517      196.88681      236.46131    
     16800  -64664.747      349.46091     -64315.286      195.67552      196.86401      236.57043    
     16900  -64650.788      352.81479     -64297.974      195.6317       196.83293      236.67955    
     17000  -64637.309      354.48207     -64282.827      195.60005      196.80667      236.78867    
     17100  -64621.346      350.70033     -64270.646      195.57096      196.78084      236.89779    
     17200  -64610.973      352.81491     -64258.158      195.53874      196.75312      237.0069     
     17300  -64603.258      355.05358     -64248.204      195.51493      196.73017      237.11602    
     17400  -64595.236      350.44346     -64244.792      195.49114      196.70791      237.22514    
     17500  -64585.625      349.93776     -64235.687      195.46445      196.67853      237.33426    
     17600  -64572.331      352.31057     -64220.02       195.44163      196.65121      237.44338    
     17700  -64558.543      354.32394     -64204.219      195.41975      196.62572      237.5525     
     17800  -64548.316      355.31436     -64193.002      195.3963       196.59915      237.66162    
     17900  -64540.964      355.24539     -64185.718      195.37638      196.5732       237.77074    
     18000  -64525.851      348.77856     -64177.072      195.3584       196.54867      237.87986    
     18100  -64515.051      350.93643     -64164.114      195.3371       196.52456      237.98898    
     18200  -64501.423      356.93881     -64144.484      195.30988      196.49619      238.0981     
     18300  -64488.605      354.52874     -64134.076      195.2847       196.47454      238.20722    
     18400  -64484.548      355.85202     -64128.696      195.26372      196.45404      238.31633    
     18500  -64473.876      352.97074     -64120.905      195.24103      196.4329       238.42545    
     18600  -64463.067      353.14647     -64109.921      195.22105      196.41293      238.53457    
     18700  -64445.792      350.24671     -64095.545      195.2024       196.39385      238.64369    
     18800  -64432.676      357.72698     -64074.949      195.1752       196.37258      238.75281    
     18900  -64424.763      361.64704     -64063.116      195.15247      196.35323      238.86193    
     19000  -64414.701      358.09144     -64056.61       195.13286      196.33723      238.97105    
     19100  -64402.54       353.19011     -64049.35       195.11429      196.32303      239.08017    
     19200  -64393.659      354.34556     -64039.314      195.09673      196.30864      239.18929    
     19300  -64377.282      350.69562     -64026.586      195.08057      196.29875      239.29841    
     19400  -64364.568      357.8964      -64006.671      195.05928      196.28588      239.40753    
     19500  -64349.677      355.66842     -63994.009      195.03051      196.27245      239.51665    
     19600  -64341.639      354.03738     -63987.602      195.00573      196.26487      239.62577    
     19700  -64328.128      349.64733     -63978.48       194.98232      196.25935      239.73488    
     19800  -64314.945      348.57315     -63966.372      194.95906      196.25218      239.844      
     19900  -64307.929      356.01786     -63951.911      194.9396       196.24216      239.95312    
     20000  -64290.028      354.54464     -63935.483      194.92117      196.23187      240.06224    
     20100  -64280.897      361.63972     -63919.257      194.89687      196.21552      240.17136    
     20200  -64271.169      357.93103     -63913.238      194.87103      196.20054      240.28048    
     20300  -64259.723      352.49465     -63907.228      194.85001      196.18908      240.3896     
     20400  -64252.518      355.55665     -63896.962      194.83123      196.17609      240.49872    
     20500  -64236.134      351.7135      -63884.42       194.81674      196.16048      240.60784    
     20600  -64223.954      353.4336      -63870.521      194.80931      196.14888      240.71696    
     20700  -64209.137      357.66312     -63851.474      194.79766      196.1323       240.82608    
     20800  -64194.642      356.69741     -63837.945      194.78194      196.1099       240.9352     
     20900  -64186.18       354.67477     -63831.505      194.7736       196.09259      241.04431    
     21000  -64174.668      353.13166     -63821.536      194.76769      196.07544      241.15343    
     21100  -64157.252      347.59227     -63809.66       194.76241      196.0602       241.26255    
     21200  -64151.518      354.35122     -63797.166      194.75871      196.04724      241.37167    
     21300  -64138.516      354.46769     -63784.048      194.74637      196.031        241.48079    
     21400  -64125.318      355.28758     -63770.03       194.73114      196.01486      241.58991    
     21500  -64111.881      357.49256     -63754.388      194.72039      196.00539      241.69903    
     21600  -64091.644      352.43947     -63739.205      194.70621      195.99585      241.80815    
     21700  -64084.439      356.09072     -63728.348      194.6889       195.98765      241.91727    
     21800  -64074.188      351.05086     -63723.137      194.67224      195.98281      242.02639    
     21900  -64061.301      349.42483     -63711.876      194.65374      195.97597      242.13551    
     22000  -64051.438      355.86551     -63695.572      194.63534      195.96889      242.24463    
     22100  -64035.352      356.87302     -63678.479      194.61822      195.95928      242.35375    
     22200  -64013.081      348.43654     -63664.644      194.59943      195.94876      242.46286    
     22300  -64005.712      354.36166     -63651.35       194.58261      195.93898      242.57198    
     22400  -63993.401      354.15535     -63639.245      194.56724      195.92613      242.6811     
     22500  -63981.32       350.35684     -63630.963      194.55005      195.91064      242.79022    
     22600  -63968.281      344.50808     -63623.773      194.53685      195.89738      242.89934    
     22700  -63956.694      350.11473     -63606.58       194.52715      195.88935      243.00846    
     22800  -63944.139      355.92043     -63588.219      194.51622      195.8799       243.11758    
     22900  -63927.01       352.84117     -63574.169      194.50229      195.86846      243.2267     
     23000  -63911.981      351.78786     -63560.193      194.48588      195.85427      243.33582    
     23100  -63902.926      353.68239     -63549.244      194.47056      195.84013      243.44494    
     23200  -63890.625      351.14764     -63539.477      194.45475      195.82818      243.55406    
     23300  -63881.926      353.89221     -63528.033      194.44507      195.82179      243.66318    
     23400  -63862.073      351.08391     -63510.989      194.43703      195.81716      243.77229    
     23500  -63845.665      354.49716     -63491.168      194.42443      195.80766      243.88141    
     23600  -63836.446      359.80107     -63476.645      194.41262      195.79619      243.99053    
     23700  -63817.144      351.20996     -63465.934      194.40299      195.7858       244.09965    
     23800  -63812.261      353.37504     -63458.886      194.39027      195.7744       244.20877    
     23900  -63801.2        350.73549     -63450.465      194.37753      195.76245      244.31789    
     24000  -63782.519      349.06752     -63433.451      194.36479      195.7492       244.42701    
     24100  -63766.766      350.60799     -63416.158      194.34959      195.73505      244.53613    
     24200  -63751.225      351.78195     -63399.444      194.33496      195.72069      244.64525    
     24300  -63739.77       356.8063      -63382.963      194.31774      195.70594      244.75437    
     24400  -63719.888      352.40074     -63367.488      194.30216      195.6918       244.86349    
     24500  -63707.308      355.56456     -63351.744      194.29031      195.67981      244.97261    
     24600  -63698.961      360.03994     -63338.921      194.27639      195.6671       245.08173    
     24700  -63688.239      356.04646     -63332.192      194.25982      195.65846      245.19084    
     24800  -63672.898      351.35447     -63321.544      194.2424       195.651        245.29996    
     24900  -63661.835      354.68519     -63307.15       194.22486      195.64196      245.40908    
     25000  -63633.902      347.41923     -63286.483      194.20893      195.63298      245.5182     
     25100  -63629.633      359.76183     -63269.871      194.19798      195.62429      245.62732    
     25200  -63611.387      352.70782     -63258.679      194.18579      195.61529      245.73644    
     25300  -63600.895      353.37798     -63247.517      194.17306      195.60642      245.84556    
     25400  -63585.557      349.65092     -63235.906      194.16054      195.59626      245.95468    
     25500  -63575.435      353.00153     -63222.433      194.14314      195.58478      246.0638     
     25600  -63555.454      354.75915     -63200.695      194.1271       195.57277      246.17292    
     25700  -63537.924      354.45925     -63183.465      194.1148       195.56117      246.28204    
     25800  -63530.634      358.56666     -63172.068      194.10357      195.54682      246.39116    
     25900  -63521.945      357.60167     -63164.343      194.0945       195.5316       246.50027    
     26000  -63503.957      352.63948     -63151.318      194.08655      195.51584      246.60939    
     26100  -63483.422      348.59028     -63134.832      194.0765       195.50047      246.71851    
     26200  -63472.866      357.61638     -63115.249      194.06178      195.48139      246.82763    
     26300  -63455.135      355.78383     -63099.351      194.04811      195.46261      246.93675    
     26400  -63441.078      354.33499     -63086.743      194.03949      195.44978      247.04587    
     26500  -63430.529      357.12051     -63073.409      194.02832      195.43206      247.15499    
     26600  -63409.861      349.93572     -63059.925      194.01703      195.41563      247.26411    
     26700  -63397.827      351.19435     -63046.633      194.0091       195.4037       247.37323    
     26800  -63389.332      358.13907     -63031.193      193.99353      195.38324      247.48235    
     26900  -63368.384      353.06039     -63015.324      193.98246      195.37024      247.59147    
     27000  -63353.202      354.54898     -62998.653      193.97705      195.36321      247.70059    
     27100  -63335.297      354.84878     -62980.449      193.96093      195.34886      247.80971    
     27200  -63321.495      355.98304     -62965.512      193.94422      195.33776      247.91882    
     27300  -63310.869      354.22964     -62956.639      193.92903      195.32816      248.02794    
     27400  -63296.833      350.75563     -62946.078      193.9041       195.31075      248.13706    
     27500  -63282.691      353.58978     -62929.101      193.88228      195.29578      248.24618    
     27600  -63261.567      354.25898     -62907.308      193.86574      195.28461      248.3553     
     27700  -63248.17       357.68503     -62890.485      193.84375      195.26968      248.46442    
     27800  -63233.104      354.63652     -62878.467      193.82591      195.25566      248.57354    
     27900  -63220.942      354.16249     -62866.78       193.80987      195.24506      248.68266    
     28000  -63207.296      353.32195     -62853.974      193.7895       195.22825      248.79178    
     28100  -63197.981      354.44151     -62843.54       193.77415      195.21213      248.9009     
     28200  -63181.075      350.19763     -62830.877      193.76244      195.1973       249.01002    
     28300  -63159.383      351.25449     -62808.129      193.75007      195.17854      249.11914    
     28400  -63146.815      356.86109     -62789.954      193.73991      195.16268      249.22825    
     28500  -63125.844      351.14621     -62774.698      193.72942      195.143        249.33737    
     28600  -63113.841      353.29219     -62760.549      193.7207       195.11917      249.44649    
     28700  -63104.077      354.5496      -62749.527      193.7144       195.09863      249.55561    
     28800  -63086.714      349.53841     -62737.175      193.70532      195.07514      249.66473    
     28900  -63069.664      353.22112     -62716.443      193.69251      195.0518       249.77385    
     29000  -63052.286      355.80745     -62696.478      193.68168      195.03449      249.88297    
     29100  -63037.62       356.38539     -62681.235      193.66336      195.01499      249.99209    
     29200  -63021.143      351.53315     -62669.61       193.64095      194.99888      250.10121    
     29300  -63011.223      351.97478     -62659.248      193.62379      194.98901      250.21033    
     29400  -62993.996      352.83725     -62641.159      193.60275      194.9779       250.31945    
     29500  -62972.689      355.2129      -62617.477      193.57985      194.96526      250.42857    
     29600  -62960.896      357.6467      -62603.249      193.56059      194.95857      250.53769    
     29700  -62947.218      354.1955      -62593.022      193.53471      194.9517       250.6468     
     29800  -62926.734      346.34223     -62580.392      193.50397      194.93755      250.75592    
     29900  -62915.555      354.4945      -62561.061      193.47984      194.93102      250.86504    
     30000  -62894.108      355.76374     -62538.344      193.45746      194.92179      250.97416    
     30100  -62876.8        353.06649     -62523.733      193.42706      194.90396      251.08328    
     30200  -62868.584      356.85306     -62511.731      193.40105      194.89066      251.1924     
     30300  -62852.294      352.04971     -62500.245      193.38309      194.87901      251.30152    
     30400  -62837.709      352.66677     -62485.042      193.36035      194.8627       251.41064    
     30500  -62821.022      357.72989     -62463.292      193.34367      194.8455       251.51976    
     30600  -62798.048      356.47919     -62441.568      193.3283       194.83027      251.62888    
     30700  -62780.535      351.0842      -62429.451      193.30633      194.80977      251.738      
     30800  -62769.709      351.20229     -62418.507      193.28719      194.78725      251.84712    
     30900  -62759.094      354.73664     -62404.357      193.27075      194.7689       251.95623    
     31000  -62741.124      353.0869      -62388.037      193.25516      194.7462       252.06535    
     31100  -62722.416      353.08076     -62369.336      193.23948      194.72247      252.17447    
     31200  -62698.655      354.44206     -62344.213      193.22482      194.69907      252.28359    
     31300  -62684.987      355.62918     -62329.358      193.21043      194.67432      252.39271    
     31400  -62675.908      355.8374      -62320.071      193.19522      194.65167      252.50183    
     31500  -62659.528      351.72038     -62307.808      193.18092      194.62972      252.61095    
     31600  -62643.06       349.68456     -62293.375      193.16584      194.60894      252.72007    
     31700  -62627.455      352.16323     -62275.291      193.14541      194.58417      252.82919    
     31800  -62606.409      353.82956     -62252.579      193.1235       194.55759      252.93831    
     31900  -62592.753      358.22908     -62234.524      193.10461      194.53607      253.04743    
     32000  -62577.724      354.52009     -62223.204      193.08937      194.51471      253.15655    
     32100  -62561.862      352.04962     -62209.813      193.07062      194.48773      253.26567    
     32200  -62552.14       357.89075     -62194.249      193.05151      194.46339      253.37478    
     32300  -62533.356      354.39495     -62178.961      193.0346       194.44006      253.4839     
     32400  -62512.193      352.51789     -62159.675      193.00936      194.41499      253.59302    
     32500  -62494.599      357.52434     -62137.075      192.98498      194.39418      253.70214    
     32600  -62476.725      354.80668     -62121.919      192.9661       194.38271      253.81126    
     32700  -62464.054      353.77641     -62110.278      192.94316      194.37178      253.92038    
     32800  -62450.806      354.27285     -62096.533      192.91447      194.35209      254.0295     
     32900  -62433.779      353.52874     -62080.25       192.8884       194.33605      254.13862    
     33000  -62411.998      349.60042     -62062.398      192.86327      194.31695      254.24774    
     33100  -62395.581      351.67604     -62043.905      192.83605      194.2948       254.35686    
     33200  -62381.225      357.73303     -62023.492      192.81242      194.28156      254.46598    
     33300  -62360.231      357.93204     -62002.299      192.78928      194.26801      254.5751     
     33400  -62352.857      362.02001     -61990.837      192.75904      194.24971      254.68421    
     33500  -62334.856      354.01389     -61980.842      192.73344      194.22779      254.79333    
     33600  -62320.162      355.53849     -61964.624      192.71282      194.20604      254.90245    
     33700  -62298.203      352.69102     -61945.512      192.69075      194.18216      255.01157    
     33800  -62279.694      355.2247      -61924.47       192.67013      194.15771      255.12069    
     33900  -62259.631      351.58959     -61908.041      192.64667      194.13751      255.22981    
     34000  -62251.388      350.80152     -61900.586      192.62147      194.11504      255.33893    
     34100  -62235.473      349.76938     -61885.704      192.59543      194.09191      255.44805    
     34200  -62219.318      354.21681     -61865.101      192.57116      194.07107      255.55717    
     34300  -62197.565      352.92858     -61844.637      192.54716      194.04694      255.66629    
     34400  -62183.446      355.16612     -61828.279      192.5212       194.02458      255.77541    
     34500  -62167.89       354.59387     -61813.297      192.49739      194.00129      255.88453    
     34600  -62152.13       354.10113     -61798.029      192.4718       193.97628      255.99365    
     34700  -62137.119      354.92647     -61782.193      192.44678      193.94938      256.10276    
     34800  -62120.368      354.81171     -61765.556      192.42477      193.92243      256.21188    
     34900  -62099.782      351.79787     -61747.984      192.40166      193.89601      256.321      
     35000  -62083.161      356.56162     -61726.599      192.37874      193.87092      256.43012    
     35100  -62065.762      359.71091     -61706.051      192.35682      193.84595      256.53924    
     35200  -62052.729      357.94908     -61694.78       192.33464      193.81495      256.64836    
     35300  -62037.337      354.65303     -61682.684      192.31159      193.78746      256.75748    
     35400  -62018.613      353.98353     -61664.63       192.29098      193.76231      256.8666     
     35500  -61999.073      354.63225     -61644.441      192.27054      193.73716      256.97572    
     35600  -61980.824      355.90579     -61624.918      192.25115      193.71432      257.08484    
     35700  -61963.042      357.00604     -61606.036      192.23421      193.68988      257.19396    
     35800  -61945.681      353.98704     -61591.694      192.21304      193.66101      257.30308    
     35900  -61933.317      352.22129     -61581.096      192.19218      193.63182      257.41219    
     36000  -61916.629      351.28741     -61565.341      192.17024      193.60489      257.52131    
     36100  -61896.434      353.32813     -61543.106      192.14527      193.57733      257.63043    
     36200  -61878.836      356.68937     -61522.147      192.12256      193.55352      257.73955    
     36300  -61864.189      358.86497     -61505.324      192.09751      193.53205      257.84867    
     36400  -61842.89       353.60326     -61489.287      192.06978      193.50614      257.95779    
     36500  -61829.154      354.51541     -61474.639      192.04271      193.48211      258.06691    
     36600  -61813.77       349.28661     -61464.483      192.01396      193.46215      258.17603    
     36700  -61801.007      349.46658     -61451.541      191.98074      193.43845      258.28515    
     36800  -61775.917      346.89025     -61429.027      191.94955      193.42057      258.39427    
     36900  -61764.573      355.80266     -61408.77       191.91781      193.40328      258.50339    
     37000  -61737.903      349.93175     -61387.971      191.87899      193.37633      258.61251    
     37100  -61722.907      354.73948     -61368.167      191.84405      193.35187      258.72163    
     37200  -61706.696      354.62217     -61352.074      191.81735      193.33047      258.83074    
     37300  -61691.538      351.49553     -61340.043      191.78591      193.30456      258.93986    
     37400  -61677.118      349.64302     -61327.475      191.75491      193.28111      259.04898    
     37500  -61661.041      352.46627     -61308.575      191.72762      193.26152      259.1581     
     37600  -61635.594      353.11044     -61282.484      191.69534      193.23458      259.26722    
     37700  -61620.276      356.42822     -61263.848      191.6661       193.20596      259.37634    
     37800  -61601.588      353.09439     -61248.494      191.64631      193.18092      259.48546    
     37900  -61585.261      349.21402     -61236.047      191.62765      193.15442      259.59458    
     38000  -61573.444      351.62694     -61221.817      191.60706      193.1247       259.7037     
     38100  -61552.933      350.95816     -61201.975      191.58837      193.10039      259.81282    
     38200  -61536.48       359.08488     -61177.395      191.56717      193.07724      259.92194    
     38300  -61516.594      356.57695     -61160.017      191.54377      193.04937      260.03106    
     38400  -61499.148      353.52223     -61145.626      191.52493      193.02298      260.14017    
     38500  -61484.437      351.24902     -61133.188      191.51006      192.99621      260.24929    
     38600  -61466.666      348.11732     -61118.549      191.49169      192.9652       260.35841    
     38700  -61444.377      349.99203     -61094.385      191.47104      192.93714      260.46753    
     38800  -61426.796      355.5661      -61071.229      191.44741      192.91298      260.57665    
     38900  -61406.747      353.82668     -61052.921      191.41449      192.88502      260.68577    
     39000  -61391.593      351.12777     -61040.465      191.38191      192.86172      260.79489    
     39100  -61376.489      348.81787     -61027.671      191.3529       192.8417       260.90401    
     39200  -61362.668      353.46396     -61009.204      191.31971      192.81589      261.01313    
     39300  -61341.091      352.3829      -60988.708      191.28911      192.79031      261.12225    
     39400  -61327.414      357.25197     -60970.162      191.25931      192.76516      261.23137    
     39500  -61309.487      357.00938     -60952.478      191.22405      192.73718      261.34049    
     39600  -61291.638      356.5881      -60935.049      191.19284      192.71477      261.44961    
     39700  -61269.274      350.51087     -60918.763      191.1661       192.69987      261.55872    
     39800  -61258.211      354.54638     -60903.665      191.1362       192.68112      261.66784    
     39900  -61242.407      354.78158     -60887.626      191.11051      192.66453      261.77696    
     40000  -61218.941      352.86868     -60866.073      191.08695      192.64854      261.88608    
     40100  -61197.135      354.0805      -60843.054      191.05989      192.6228       261.9952     
     40200  -61182.073      355.19683     -60826.876      191.03532      192.59709      262.10432    
     40300  -61164.871      351.69518     -60813.176      191.01354      192.57393      262.21344    
     40400  -61149.018      351.46298     -60797.555      190.9874       192.54484      262.32256    
     40500  -61130.314      350.999       -60779.315      190.96258      192.51805      262.43168    
     40600  -61114.463      354.48301     -60759.98       190.94483      192.49503      262.5408     
     40700  -61093.026      354.36141     -60738.664      190.92516      192.4666       262.64992    
     40800  -61074.037      355.38237     -60718.655      190.90484      192.43532      262.75904    
     40900  -61058.817      355.18688     -60703.63       190.88704      192.40289      262.86815    
     41000  -61041.16       348.26696     -60692.893      190.86554      192.36929      262.97727    
     41100  -61024.827      349.27959     -60675.548      190.8468       192.33979      263.08639    
     41200  -61003.571      351.17514     -60652.396      190.83013      192.31567      263.19551    
     41300  -60988.508      358.12209     -60630.385      190.80842      192.28588      263.30463    
     41400  -60967.118      353.96667     -60613.151      190.79087      192.25848      263.41375    
     41500  -60950.594      352.82162     -60597.772      190.77476      192.23451      263.52287    
     41600  -60933.122      351.72557     -60581.397      190.75167      192.20159      263.63199    
     41700  -60917.239      352.96622     -60564.272      190.73107      192.1722       263.74111    
     41800  -60896.677      350.91098     -60545.766      190.71452      192.14916      263.85023    
     41900  -60880.808      357.06363     -60523.744      190.69014      192.12209      263.95935    
     42000  -60858.57       355.00057     -60503.57       190.66759      192.09745      264.06847    
     42100  -60841.069      353.01292     -60488.056      190.65128      192.07814      264.17759    
     42200  -60823.695      346.46553     -60477.23       190.62825      192.05201      264.2867     
     42300  -60808.978      349.76424     -60459.214      190.60393      192.02342      264.39582    
     42400  -60793.82       356.22293     -60437.598      190.58319      192.00177      264.50494    
     42500  -60770.012      351.80728     -60418.205      190.56009      191.97942      264.61406    
     42600  -60754.442      354.49071     -60399.952      190.53492      191.95812      264.72318    
     42700  -60736.135      354.33279     -60381.802      190.50799      191.94216      264.8323     
     42800  -60716.281      353.36703     -60362.914      190.48162      191.92561      264.94142    
     42900  -60699.175      355.54096     -60343.634      190.45606      191.91083      265.05054    
     43000  -60680.508      354.65821     -60325.85       190.43026      191.89286      265.15966    
     43100  -60663.927      354.37727     -60309.55       190.40521      191.87054      265.26878    
     43200  -60647.872      351.9096      -60295.962      190.38419      191.85441      265.3779     
     43300  -60634.283      353.31585     -60280.967      190.361        191.83595      265.48702    
     43400  -60607.326      350.36791     -60256.959      190.3332       191.81668      265.59613    
     43500  -60590.787      357.42827     -60233.359      190.30879      191.80433      265.70525    
     43600  -60573.232      356.07856     -60217.153      190.2856       191.78897      265.81437    
     43700  -60557.155      353.51156     -60203.643      190.25464      191.76556      265.92349    
     43800  -60542.148      353.4068      -60188.741      190.23046      191.74428      266.03261    
     43900  -60522.952      353.35201     -60169.6        190.21168      191.72524      266.14173    
     44000  -60496.009      354.83219     -60141.177      190.18512      191.70258      266.25085    
     44100  -60481.748      358.03128     -60123.717      190.16184      191.684        266.35997    
     44200  -60463.344      352.07103     -60111.273      190.13862      191.66938      266.46909    
     44300  -60452.307      355.71922     -60096.588      190.10845      191.64913      266.57821    
     44400  -60428.265      350.56295     -60077.702      190.08299      191.62957      266.68733    
     44500  -60412.708      359.15084     -60053.557      190.06451      191.61557      266.79645    
     44600  -60390.731      361.09877     -60029.632      190.04738      191.59552      266.90557    
     44700  -60371.457      357.44644     -60014.011      190.03273      191.57572      267.01468    
     44800  -60355.421      355.19862     -60000.222      190.0196       191.55794      267.1238     
     44900  -60335.537      351.63412     -59983.903      190.00168      191.53367      267.23292    
     45000  -60317.9        350.791       -59967.109      189.98206      191.5099       267.34204    
     45100  -60303.695      353.60133     -59950.093      189.96848      191.48967      267.45116    
     45200  -60281.642      349.21615     -59932.425      189.95301      191.46641      267.56028    
     45300  -60263.733      354.43206     -59909.301      189.93943      191.44523      267.6694     
     45400  -60241.683      355.29727     -59886.385      189.93051      191.42911      267.77852    
     45500  -60224.334      354.415       -59869.919      189.91297      191.40833      267.88764    
     45600  -60212.802      354.30991     -59858.492      189.89173      191.38259      267.99676    
     45700  -60195.051      353.97629     -59841.074      189.8753       191.36117      268.10588    
     45800  -60173.327      352.83686     -59820.491      189.8554       191.33838      268.215      
     45900  -60155.619      356.68079     -59798.938      189.83128      191.31343      268.32411    
     46000  -60127.727      351.10236     -59776.624      189.81183      191.29712      268.43323    
     46100  -60112.81       359.07298     -59753.737      189.79024      191.28167      268.54235    
     46200  -60097.16       357.01425     -59740.146      189.76522      191.26074      268.65147    
     46300  -60083.295      355.00614     -59728.288      189.74436      191.24188      268.76059    
     46400  -60065.261      353.31902     -59711.942      189.72547      191.2214       268.86971    
     46500  -60047.182      354.83465     -59692.348      189.70353      191.19577      268.97883    
     46600  -60027.435      358.06531     -59669.369      189.68751      191.1753       269.08795    
     46700  -60007.948      360.42614     -59647.522      189.67495      191.15992      269.19707    
     46800  -59987.774      353.77692     -59633.997      189.65583      191.13871      269.30619    
     46900  -59972.873      350.82724     -59622.045      189.63959      191.12033      269.41531    
     47000  -59953.954      349.7683      -59604.186      189.62704      191.1054       269.52443    
     47100  -59933.986      350.97901     -59583.007      189.60923      191.08698      269.63355    
     47200  -59914.487      356.37293     -59558.114      189.59362      191.07246      269.74266    
     47300  -59892.002      353.51645     -59538.485      189.57677      191.06079      269.85178    
     47400  -59876.689      351.50348     -59525.186      189.55564      191.0458       269.9609     
     47500  -59864.299      353.89365     -59510.406      189.53802      191.03168      270.07002    
     47600  -59841.072      350.35726     -59490.715      189.5213       191.01827      270.17914    
     47700  -59824.809      354.18276     -59470.626      189.50131      191.00189      270.28826    
     47800  -59804.253      353.96902     -59450.284      189.48211      190.98879      270.39738    
     47900  -59782.436      352.15456     -59430.281      189.46406      190.97643      270.5065     
     48000  -59767.195      355.47608     -59411.719      189.44591      190.95912      270.61562    
     48100  -59750.009      352.04398     -59397.965      189.4303       190.94382      270.72474    
     48200  -59731.78       348.29969     -59383.48       189.41687      190.92541      270.83386    
     48300  -59715.19       352.59828     -59362.591      189.39848      190.9019       270.94298    
     48400  -59691.707      355.25138     -59336.455      189.38036      190.87935      271.05209    
     48500  -59673.546      356.13325     -59317.412      189.36511      190.85747      271.16121    
     48600  -59654.7        352.84993     -59301.85       189.34803      190.83783      271.27033    
     48700  -59643.526      355.92895     -59287.597      189.33428      190.81628      271.37945    
     48800  -59623.698      352.89632     -59270.802      189.31994      190.79366      271.48857    
     48900  -59606.043      354.36596     -59251.677      189.30318      190.7697       271.59769    
     49000  -59583.748      358.14374     -59225.604      189.28628      190.74582      271.70681    
     49100  -59562.315      359.79485     -59202.521      189.26953      190.72775      271.81593    
     49200  -59544.527      355.29914     -59189.227      189.25383      190.71033      271.92505    
     49300  -59531.837      356.59043     -59175.246      189.23828      190.69564      272.03417    
     49400  -59506.787      349.02681     -59157.76       189.2255       190.68071      272.14329    
     49500  -59492.76       354.69639     -59138.064      189.21096      190.66231      272.25241    
     49600  -59470.843      356.24053     -59114.603      189.19401      190.64457      272.36153    
     49700  -59448.43       355.8144      -59092.616      189.17841      190.62811      272.47064    
     49800  -59434.462      354.81261     -59079.649      189.16065      190.60917      272.57976    
     49900  -59416.231      351.16613     -59065.065      189.14407      190.5907       272.68888    
     50000  -59400.998      356.04627     -59044.952      189.13362      190.5785       272.798      
     50100  -59375.22       351.73405     -59023.486      189.11894      190.56418      272.90712    
     50200  -59356.221      354.85938     -59001.362      189.10032      190.54692      273.01624    
     50300  -59339.47       358.78571     -58980.684      189.08634      190.53302      273.12536    
     50400  -59325.109      356.83459     -58968.275      189.07209      190.51905      273.23448    
     50500  -59305.389      351.90061     -58953.489      189.05241      190.49959      273.3436     
     50600  -59288.702      353.96859     -58934.733      189.03506      190.48232      273.45272    
     50700  -59268.032      356.39621     -58911.636      189.02163      190.4681       273.56184    
     50800  -59245.25       358.65151     -58886.598      189.00688      190.44896      273.67096    
     50900  -59230.268      359.33402     -58870.934      188.99234      190.43007      273.78008    
     51000  -59211.278      351.92431     -58859.353      188.98037      190.4134       273.88919    
     51100  -59190.448      350.18676     -58840.261      188.96651      190.39597      273.99831    
     51200  -59176.408      357.0384      -58819.37       188.95151      190.37927      274.10743    
     51300  -59153.504      356.00721     -58797.497      188.93576      190.36184      274.21655    
     51400  -59134.915      358.3854      -58776.529      188.91965      190.3447       274.32567    
     51500  -59116.513      355.64366     -58760.869      188.9044       190.32831      274.43479    
     51600  -59101.712      353.78164     -58747.93       188.88741      190.31097      274.54391    
     51700  -59081.964      353.23315     -58728.73       188.8709       190.29402      274.65303    
     51800  -59057.767      351.87958     -58705.888      188.85732      190.28051      274.76215    
     51900  -59041.395      360.92666     -58680.468      188.83937      190.26339      274.87127    
     52000  -59018.797      357.0018      -58661.795      188.8196       190.2424       274.98039    
     52100  -59003.352      351.84175     -58651.51       188.80335      190.22624      275.08951    
     52200  -58987.212      352.92689     -58634.285      188.78401      190.20887      275.19862    
     52300  -58966.498      350.95855     -58615.54       188.75995      190.18992      275.30774    
     52400  -58945.336      350.93779     -58594.398      188.74058      190.17851      275.41686    
     52500  -58926.419      356.31523     -58570.104      188.72331      190.16649      275.52598    
     52600  -58905.981      357.31272     -58548.668      188.70341      190.1506       275.6351     
     52700  -58889.786      353.08345     -58536.703      188.69315      190.13863      275.74422    
     52800  -58874.466      353.24185     -58521.224      188.68288      190.12689      275.85334    
     52900  -58858.423      356.38031     -58502.043      188.66669      190.10668      275.96246    
     53000  -58831.037      350.06194     -58480.975      188.65355      190.09056      276.07158    
     53100  -58814.156      357.32899     -58456.827      188.64183      190.07895      276.1807     
     53200  -58792.335      357.47355     -58434.862      188.6252       190.06266      276.28982    
     53300  -58775.532      353.79211     -58421.74       188.60646      190.04904      276.39894    
     53400  -58759.794      352.71922     -58407.075      188.59271      190.03799      276.50806    
     53500  -58742.189      354.19472     -58387.994      188.57499      190.02044      276.61717    
     53600  -58721.756      355.15371     -58366.602      188.55557      190.00191      276.72629    
     53700  -58701.408      358.99434     -58342.414      188.54204      189.98501      276.83541    
     53800  -58684.482      361.45672     -58323.025      188.52449      189.96593      276.94453    
     53900  -58662.485      350.99083     -58311.494      188.50649      189.94503      277.05365    
     54000  -58647.474      353.78021     -58293.693      188.49309      189.92723      277.16277    
     54100  -58630.342      356.60538     -58273.736      188.47913      189.91073      277.27189    
     54200  -58606.789      354.34902     -58252.44       188.4612       189.88856      277.38101    
     54300  -58590.313      358.91914     -58231.394      188.44363      189.87026      277.49013    
     54400  -58569.95       355.47668     -58214.474      188.42936      189.85473      277.59925    
     54500  -58551.08       350.73685     -58200.344      188.41315      189.83737      277.70837    
     54600  -58530.373      348.15674     -58182.217      188.39549      189.82247      277.81749    
     54700  -58516.132      356.35219     -58159.78       188.38045      189.80605      277.9266     
     54800  -58489.552      356.67447     -58132.878      188.36276      189.78797      278.03572    
     54900  -58470.195      359.98568     -58110.209      188.34471      189.77014      278.14484    
     55000  -58451.657      354.56882     -58097.088      188.3279       189.7535       278.25396    
     55100  -58437.192      355.8883      -58081.303      188.30799      189.73406      278.36308    
     55200  -58416.754      351.62515     -58065.129      188.28929      189.71543      278.4722     
     55300  -58402.323      354.72955     -58047.593      188.27197      189.69896      278.58132    
     55400  -58381.843      352.81432     -58029.029      188.25647      189.68247      278.69044    
     55500  -58361.536      355.2743      -58006.261      188.24294      189.6657       278.79956    
     55600  -58338.853      358.45109     -57980.402      188.23048      189.65005      278.90868    
     55700  -58317.996      356.30239     -57961.693      188.21705      189.63415      279.0178     
     55800  -58302.986      354.26258     -57948.723      188.19943      189.61818      279.12692    
     55900  -58283.841      353.68842     -57930.152      188.18228      189.60604      279.23604    
     56000  -58262.01       352.1365      -57909.874      188.16388      189.59596      279.34515    
     56100  -58240.973      351.87302     -57889.1        188.14069      189.58341      279.45427    
     56200  -58224.259      354.39313     -57869.866      188.11973      189.57229      279.56339    
     56300  -58207.593      353.95638     -57853.637      188.09908      189.56138      279.67251    
     56400  -58191.24       354.05473     -57837.185      188.07484      189.54541      279.78163    
     56500  -58171.498      355.31411     -57816.184      188.05217      189.53265      279.89075    
     56600  -58146.634      356.28135     -57790.353      188.03171      189.52216      279.99987    
     56700  -58125.728      360.98646     -57764.741      188.01015      189.50634      280.10899    
     56800  -58104.211      354.42447     -57749.786      187.98941      189.48944      280.21811    
     56900  -58090.139      356.75025     -57733.388      187.97178      189.47077      280.32723    
     57000  -58071.696      354.12429     -57717.572      187.95588      189.44953      280.43635    
     57100  -58053.105      351.76183     -57701.343      187.93796      189.42525      280.54547    
     57200  -58031.863      350.28592     -57681.577      187.92276      189.40076      280.65458    
     57300  -58011.648      353.51575     -57658.132      187.91057      189.3815       280.7637     
     57400  -57989.04       358.25542     -57630.785      187.89802      189.36002      280.87282    
     57500  -57973.767      361.12649     -57612.641      187.88397      189.33407      280.98194    
     57600  -57952.92       354.26993     -57598.65       187.87478      189.31145      281.09106    
     57700  -57942.202      361.06013     -57581.142      187.86682      189.28727      281.20018    
     57800  -57915.228      350.78588     -57564.443      187.85092      189.26181      281.3093     
     57900  -57901.094      355.40819     -57545.686      187.8392       189.24304      281.41842    
     58000  -57878.72       353.73749     -57524.982      187.82657      189.22642      281.52754    
     58100  -57857.614      355.23695     -57502.377      187.80769      189.20713      281.63666    
     58200  -57834.88       354.05904     -57480.821      187.79345      189.18694      281.74578    
     58300  -57820.563      357.52461     -57463.038      187.78084      189.1688       281.8549     
     58400  -57803.636      356.1809      -57447.455      187.76727      189.15002      281.96402    
     58500  -57779.789      351.97166     -57427.817      187.75217      189.13156      282.07313    
     58600  -57758.98       355.04758     -57403.932      187.73         189.11569      282.18225    
     58700  -57733.639      359.00998     -57374.629      187.70697      189.09976      282.29137    
     58800  -57713.889      360.41114     -57353.477      187.6825       189.08319      282.40049    
     58900  -57698.009      359.40498     -57338.604      187.65905      189.06746      282.50961    
     59000  -57678.677      356.34254     -57322.335      187.63846      189.05116      282.61873    
     59100  -57659.637      353.37249     -57306.264      187.6155       189.03223      282.72785    
     59200  -57639.752      351.69489     -57288.057      187.59474      189.01341      282.83697    
     59300  -57627.651      359.31992     -57268.331      187.57545      188.99525      282.94609    
     59400  -57601.162      349.88964     -57251.272      187.55328      188.97741      283.05521    
     59500  -57586.582      351.51915     -57235.063      187.53312      188.96054      283.16433    
     59600  -57557.906      346.87307     -57211.033      187.5145       188.944        283.27345    
     59700  -57534.378      351.47418     -57182.904      187.49367      188.92559      283.38256    
     59800  -57520.392      359.14697     -57161.245      187.4726       188.90382      283.49168    
     59900  -57503.552      360.32528     -57143.227      187.45036      188.8829       283.6008     
     60000  -57483.374      356.79028     -57126.584      187.4318       188.86497      283.70992    
     60100  -57464.312      355.69634     -57108.615      187.41369      188.84678      283.81904    
     60200  -57442.52       353.58918     -57088.93       187.39242      188.82763      283.92816    
     60300  -57422.989      354.5671      -57068.422      187.37577      188.811        284.03728    
     60400  -57402.967      350.10181     -57052.865      187.35975      188.79438      284.1464     
     60500  -57383.981      348.87931     -57035.101      187.34228      188.77664      284.25552    
     60600  -57361.276      351.47506     -57009.801      187.32767      188.75874      284.36464    
     60700  -57338.294      355.59942     -56982.695      187.31016      188.73762      284.47376    
     60800  -57313.983      353.60315     -56960.38       187.28601      188.71356      284.58288    
     60900  -57300.049      352.6893      -56947.359      187.26167      188.68794      284.692      
     61000  -57280.491      353.23792     -56927.253      187.24014      188.6672       284.80111    
     61100  -57260.194      355.08818     -56905.106      187.21973      188.64554      284.91023    
     61200  -57235.228      351.66061     -56883.568      187.19945      188.62341      285.01935    
     61300  -57215.395      350.64606     -56864.749      187.18058      188.60522      285.12847    
     61400  -57198.665      351.26493     -56847.4        187.15873      188.58593      285.23759    
     61500  -57178.245      352.36766     -56825.878      187.13486      188.56753      285.34671    
     61600  -57156.423      356.13898     -56800.284      187.11373      188.55269      285.45583    
     61700  -57129.566      360.82615     -56768.74       187.09467      188.53912      285.56495    
     61800  -57109.789      360.46514     -56749.324      187.07438      188.52401      285.67407    
     61900  -57089.875      357.23113     -56732.644      187.05659      188.50909      285.78319    
     62000  -57072.085      356.9831      -56715.102      187.03901      188.48891      285.89231    
     62100  -57052.184      354.76935     -56697.415      187.01828      188.46203      286.00143    
     62200  -57027.837      350.69353     -56677.143      187.00097      188.43689      286.11054    
     62300  -57011.281      355.08972     -56656.192      186.98611      188.41177      286.21966    
     62400  -56987.626      348.90637     -56638.72       186.9728       188.38685      286.32878    
     62500  -56969.969      349.60425     -56620.365      186.95898      188.3602       286.4379     
     62600  -56946.829      350.69984     -56596.129      186.94352      188.33011      286.54702    
     62700  -56930.508      358.88447     -56571.623      186.92755      188.29835      286.65614    
     62800  -56906.613      358.23705     -56548.376      186.91016      188.26593      286.76526    
     62900  -56879.827      350.87005     -56528.957      186.89533      188.23465      286.87438    
     63000  -56860.42       351.20216     -56509.218      186.8808       188.20895      286.9835     
     63100  -56839.367      353.17567     -56486.191      186.8645       188.18377      287.09262    
     63200  -56820.407      357.19228     -56463.214      186.84672      188.16055      287.20174    
     63300  -56796.253      352.80299     -56443.45       186.82491      188.13778      287.31086    
     63400  -56780.544      356.38975     -56424.154      186.80221      188.11574      287.41998    
     63500  -56754.631      353.71498     -56400.916      186.7803       188.09753      287.52909    
     63600  -56728.75       352.48702     -56376.263      186.76135      188.08213      287.63821    
     63700  -56706.794      354.41488     -56352.379      186.73977      188.06848      287.74733    
     63800  -56685.769      354.99107     -56330.778      186.71625      188.05242      287.85645    
     63900  -56663.21       354.17759     -56309.033      186.69197      188.03442      287.96557    
     64000  -56642.464      355.00014     -56287.464      186.67043      188.01776      288.07469    
     64100  -56620.239      353.59913     -56266.64       186.64851      187.99622      288.18381    
     64200  -56591.635      350.03427     -56241.601      186.62617      187.97651      288.29293    
     64300  -56572.38       354.2487      -56218.132      186.60855      187.95953      288.40205    
     64400  -56553.185      354.95778     -56198.227      186.5868       187.93649      288.51117    
     64500  -56531.711      354.51103     -56177.2        186.56547      187.91283      288.62029    
     64600  -56512.706      359.70122     -56153.004      186.5467       187.88847      288.72941    
     64700  -56484.471      354.70469     -56129.767      186.52545      187.8633       288.83852    
     64800  -56461.317      353.39747     -56107.92       186.50734      187.84068      288.94764    
     64900  -56438.166      353.6954      -56084.471      186.48894      187.82044      289.05676    
     65000  -56409.775      349.9744      -56059.801      186.46833      187.79725      289.16588    
     65100  -56390.314      353.48491     -56036.829      186.44814      187.77494      289.275      
     65200  -56371.946      356.22368     -56015.722      186.425        187.75264      289.38412    
     65300  -56342.007      349.77229     -55992.235      186.4046       187.72955      289.49324    
     65400  -56325.643      357.48625     -55968.157      186.38685      187.70858      289.60236    
     65500  -56298.477      353.87462     -55944.602      186.36802      187.68634      289.71148    
     65600  -56277.535      357.28788     -55920.247      186.34836      187.6642       289.8206     
     65700  -56250.977      355.33823     -55895.639      186.32422      187.64211      289.92972    
     65800  -56231.197      358.37746     -55872.82       186.29804      187.62097      290.03884    
     65900  -56203.37       354.18661     -55849.184      186.27402      187.60272      290.14796    
     66000  -56180.462      355.92136     -55824.541      186.25026      187.58471      290.25707    
     66100  -56155.501      355.01928     -55800.481      186.22559      187.56836      290.36619    
     66200  -56131.183      354.57562     -55776.608      186.20169      187.55378      290.47531    
     66300  -56109.177      355.80514     -55753.372      186.17451      187.53958      290.58443    
     66400  -56082.533      353.96196     -55728.571      186.14617      187.52469      290.69355    
     66500  -56058.132      354.5193      -55703.612      186.12075      187.51083      290.80267    
     66600  -56032.135      352.28805     -55679.847      186.09767      187.49678      290.91179    
     66700  -56011.226      355.05389     -55656.172      186.07442      187.48326      291.02091    
     66800  -55979.248      349.9007      -55629.347      186.04986      187.46601      291.13003    
     66900  -55960.923      357.25864     -55603.664      186.02547      187.44938      291.23915    
     67000  -55934.879      355.96071     -55578.918      186.00402      187.43396      291.34827    
     67100  -55909.612      356.73261     -55552.879      185.98444      187.4145       291.45739    
     67200  -55883.335      356.80198     -55526.533      185.96672      187.39566      291.5665     
     67300  -55862.634      360.17708     -55502.456      185.94818      187.37219      291.67562    
     67400  -55832.445      354.92748     -55477.517      185.92881      187.34711      291.78474    
     67500  -55811.285      359.12139     -55452.163      185.91069      187.32244      291.89386    
     67600  -55782.34       356.35126     -55425.988      185.89292      187.29716      292.00298    
     67700  -55753.152      354.43508     -55398.717      185.87802      187.27538      292.1121     
     67800  -55730.515      357.66742     -55372.847      185.86319      187.25021      292.22122    
     67900  -55708.299      361.16139     -55347.138      185.84525      187.22335      292.33034    
     68000  -55676.865      354.53275     -55322.333      185.82835      187.19621      292.43946    
     68100  -55651.368      353.98009     -55297.388      185.81115      187.17124      292.54858    
     68200  -55625.577      354.94546     -55270.632      185.79453      187.14987      292.6577     
     68300  -55598.919      354.6061      -55244.312      185.7774       187.13063      292.76682    
     68400  -55572.242      355.08006     -55217.162      185.75931      187.11291      292.87594    
     68500  -55551.052      360.45603     -55190.596      185.74321      187.09512      292.98505    
     68600  -55520.529      356.61987     -55163.909      185.72569      187.07813      293.09417    
     68700  -55495.478      358.71047     -55136.767      185.70604      187.06219      293.20329    
     68800  -55465.623      357.12381     -55108.499      185.68441      187.04597      293.31241    
     68900  -55443.318      360.34639     -55082.971      185.66665      187.03365      293.42153    
     69000  -55410.544      355.22575     -55055.319      185.64695      187.02008      293.53065    
     69100  -55385.464      357.80678     -55027.658      185.62275      187.00367      293.63977    
     69200  -55357.408      357.15831     -55000.249      185.60275      186.99029      293.74889    
     69300  -55326.901      354.76459     -54972.136      185.58186      186.97285      293.85801    
     69400  -55299.979      355.211       -54944.768      185.56168      186.95392      293.96713    
     69500  -55273.007      355.57498     -54917.432      185.54398      186.93698      294.07625    
     69600  -55249.97       360.27757     -54889.692      185.52432      186.91874      294.18537    
     69700  -55219.18       356.31571     -54862.865      185.50471      186.90147      294.29448    
     69800  -55191.117      357.02531     -54834.092      185.48684      186.88398      294.4036     
     69900  -55166.242      361.19756     -54805.045      185.46851      186.86761      294.51272    
     70000  -55137.264      360.73645     -54776.528      185.45099      186.85074      294.62184    
     70100  -55109.351      360.19554     -54749.156      185.43539      186.83345      294.73096    
     70200  -55075.314      353.31515     -54721.999      185.42048      186.81579      294.84008    
     70300  -55051.098      359.26832     -54691.83       185.40863      186.79494      294.9492     
     70400  -55021.125      358.7026      -54662.423      185.39803      186.77663      295.05832    
     70500  -54996.265      363.19737     -54633.068      185.38662      186.75826      295.16744    
     70600  -54962.371      359.59682     -54602.774      185.37291      186.73738      295.27656    
     70700  -54931.441      358.58332     -54572.858      185.35778      186.71654      295.38568    
     70800  -54901.492      357.99749     -54543.494      185.34466      186.69759      295.4948     
     70900  -54874.12       360.88245     -54513.237      185.33029      186.68064      295.60392    
     71000  -54843.957      360.27352     -54483.684      185.31513      186.66458      295.71303    
     71100  -54815.29       362.95966     -54452.331      185.30012      186.65327      295.82215    
     71200  -54785.171      364.58857     -54420.582      185.28384      186.64294      295.93127    
     71300  -54754.184      361.00365     -54393.181      185.26469      186.63451      296.04039    
     71400  -54725.76       363.94834     -54361.811      185.24399      186.62755      296.14951    
     71500  -54695.904      364.04818     -54331.855      185.22255      186.61923      296.25863    
     71600  -54662.905      360.67382     -54302.231      185.20319      186.60946      296.36775    
     71700  -54634.879      361.03487     -54273.844      185.18776      186.59905      296.47687    
     71800  -54600.999      358.7407      -54242.258      185.17236      186.58873      296.58599    
     71900  -54569.715      356.33331     -54213.382      185.15651      186.57579      296.69511    
     72000  -54541.122      359.44533     -54181.677      185.14083      186.56076      296.80423    
     72100  -54510.399      360.60138     -54149.798      185.12774      186.54513      296.91335    
     72200  -54477.676      361.13647     -54116.539      185.1164       186.52857      297.02246    
     72300  -54448.429      364.49107     -54083.938      185.10611      186.51186      297.13158    
     72400  -54417.31       365.3416      -54051.968      185.09652      186.49394      297.2407     
     72500  -54386.069      364.43143     -54021.638      185.08619      186.47583      297.34982    
     72600  -54349.908      362.52002     -53987.388      185.07599      186.4584       297.45894    
     72700  -54317.114      363.37531     -53953.738      185.0681       186.44675      297.56806    
     72800  -54290.075      366.14239     -53923.932      185.05855      186.43724      297.67718    
     72900  -54258.859      366.9625      -53891.896      185.0453       186.42537      297.7863     
     73000  -54227.162      367.2842      -53859.878      185.03458      186.4177       297.89542    
     73100  -54194.622      365.91326     -53828.709      185.02123      186.40773      298.00454    
     73200  -54162.752      367.57351     -53795.179      185.00649      186.3973       298.11366    
     73300  -54126.983      362.6396      -53764.343      184.99522      186.389        298.22278    
     73400  -54095.219      362.59663     -53732.622      184.98149      186.37753      298.3319     
     73500  -54067.844      369.40914     -53698.435      184.96838      186.36619      298.44101    
     73600  -54034.295      368.32379     -53665.971      184.95762      186.35643      298.55013    
     73700  -53999.314      369.44146     -53629.873      184.94419      186.34448      298.65925    
     73800  -53969.328      373.4122      -53595.915      184.93312      186.3333       298.76837    
     73900  -53934.816      371.17002     -53563.646      184.92259      186.3231       298.87749    
     74000  -53901.746      374.25317     -53527.493      184.91055      186.31187      298.98661    
     74100  -53867.587      376.75365     -53490.834      184.90076      186.30362      299.09573    
     74200  -53828.662      370.06328     -53458.599      184.89017      186.29504      299.20485    
     74300  -53793.522      373.68693     -53419.835      184.87893      186.28399      299.31397    
     74400  -53762.897      377.79762     -53385.1        184.8692       186.27309      299.42309    
     74500  -53731.73       381.27922     -53350.451      184.86119      186.26241      299.53221    
     74600  -53690.626      374.65978     -53315.966      184.85312      186.25197      299.64133    
     74700  -53660.511      376.1179      -53284.393      184.84179      186.24225      299.75044    
     74800  -53628.96       380.5345      -53248.426      184.83154      186.23274      299.85956    
     74900  -53585.059      372.19138     -53212.868      184.82138      186.22248      299.96868    
     75000  -53558.561      380.12913     -53178.431      184.81148      186.21049      300.0778     
     75100  -53524.351      380.69944     -53143.651      184.80484      186.19817      300.18692    
     75200  -53488.069      382.11699     -53105.952      184.79834      186.18719      300.29604    
     75300  -53446.368      377.44258     -53068.925      184.79006      186.17468      300.40516    
     75400  -53416.682      392.41405     -53024.268      184.78308      186.16549      300.51428    
     75500  -53377.696      388.50229     -52989.194      184.77443      186.15699      300.6234     
     75600  -53334.187      386.54291     -52947.644      184.76418      186.14809      300.73252    
     75700  -53306.919      392.23404     -52914.685      184.75537      186.14102      300.84164    
     75800  -53262.164      385.63888     -52876.525      184.74496      186.13301      300.95076    
     75900  -53229.725      392.37498     -52837.35       184.7324       186.12372      301.05988    
     76000  -53194.754      394.98402     -52799.77       184.72069      186.11582      301.16899    
     76100  -53155.661      395.6789      -52759.982      184.70902      186.10752      301.27811    
     76200  -53117.379      392.45159     -52724.928      184.69816      186.09859      301.38723    
     76300  -53085.288      401.7289      -52683.559      184.68794      186.08959      301.49635    
     76400  -53043.956      402.56977     -52641.386      184.67748      186.07868      301.60547    
     76500  -53000.278      398.36783     -52601.91       184.669        186.06936      301.71459    
     76600  -52970.349      404.04635     -52566.303      184.65954      186.05959      301.82371    
     76700  -52929.666      406.78418     -52522.882      184.65095      186.0497       301.93283    
     76800  -52888.835      405.71223     -52483.122      184.64461      186.04013      302.04195    
     76900  -52851.905      408.72222     -52443.183      184.63602      186.02876      302.15107    
     77000  -52832.051      424.9791      -52407.072      184.62801      186.0171       302.26019    
     77100  -52947.24       565.24565     -52381.994      184.61971      186.0069       302.36931    
     77200  -53473.889      961.70294     -52512.186      184.6093       186.00185      302.47842    
     77300  -54324.02       1358.1355     -52965.885      184.60532      186.00546      302.58754    
     77400  -55520.612      1700.8535     -53819.758      184.61748      186.01373      302.69666    
     77500  -57071.489      1927.2885     -55144.2        184.66701      186.03612      302.80578    
     77600  -58596.195      1841.5107     -56754.684      184.75775      186.08337      302.9149     
     77700  -59773.778      1537.4737     -58236.304      184.8573       186.13512      303.02402    
     77800  -60686.555      1279.9546     -59406.6        184.94522      186.17937      303.13314    
     77900  -61461.495      1108.5048     -60352.99       185.01893      186.22214      303.24226    
     78000  -62133.727      989.73585     -61143.991      185.08046      186.26458      303.35138    
     78100  -62732.719      899.60433     -61833.114      185.14734      186.31442      303.4605     
     78200  -63270.472      830.5024      -62439.97       185.21682      186.36845      303.56962    
     78300  -63755.197      773.46928     -62981.727      185.28486      186.41631      303.67874    
     78400  -64203.291      729.615       -63473.676      185.35364      186.46286      303.78786    
     78500  -64595.586      673.54378     -63922.043      185.42461      186.51099      303.89697    
     78600  -64880.853      585.84574     -64295.007      185.49811      186.56113      304.00609    
     78700  -65091.043      507.21799     -64583.825      185.57446      186.61455      304.11521    
     78800  -65235.759      436.18413     -64799.575      185.65291      186.66811      304.22433    
     78900  -65323.728      374.89651     -64948.832      185.73422      186.7228       304.33345    
     79000  -65357.815      322.52842     -65035.287      185.8219       186.78187      304.44257    
     79100  -65338.721      292.15195     -65046.569      185.90592      186.84029      304.55169    
     79200  -65281.109      305.96441     -64975.145      185.97803      186.88966      304.66081    
     79300  -65173.86       294.71761     -64879.142      186.04658      186.9386       304.76993    
     79400  -65063.348      283.53407     -64779.814      186.09937      186.97953      304.87905    
     79500  -65006.7        331.56039     -64675.14       186.12721      187.00118      304.98817    
     79600  -64990.928      400.03236     -64590.895      186.14063      187.00419      305.09729    
     79700  -64970.005      376.38917     -64593.616      186.14035      187.0035       305.2064     
     79800  -64964.848      327.26031     -64637.587      186.16307      187.01935      305.31552    
     79900  -64945.219      311.30161     -64633.918      186.21702      187.06986      305.42464    
     80000  -64921.991      351.7277      -64570.263      186.26306      187.11599      305.53376    
     80100  -64918.364      401.08359     -64517.281      186.32788      187.19125      305.64288    
     80200  -64920.621      372.45403     -64548.167      186.3985       187.27162      305.752      
     80300  -64944.506      338.96445     -64605.542      186.45542      187.3363       305.86112    
     80400  -64952.679      324.97285     -64627.706      186.5204       187.40145      305.97024    
     80500  -64958.285      352.72888     -64605.557      186.57538      187.45301      306.07936    
     80600  -64959.555      378.74116     -64580.814      186.61696      187.48684      306.18848    
     80700  -64966.434      365.57247     -64600.861      186.65941      187.52083      306.2976     
     80800  -64974.007      338.95967     -64635.047      186.6924       187.5467       306.40672    
     80900  -64971.781      335.73385     -64636.047      186.72682      187.57227      306.51584    
     81000  -64961.367      358.65573     -64602.712      186.7733       187.59007      306.62495    
     81100  -64939.208      369.3094      -64569.898      186.81067      187.59995      306.73407    
     81200  -64944.135      374.27968     -64569.855      186.8416       187.61399      306.84319    
     81300  -64964.191      353.78811     -64610.403      186.87503      187.6447       306.95231    
     81400  -64991.471      340.05972     -64651.412      186.90352      187.66652      307.06143    
     81500  -65002.958      337.40406     -64665.553      186.93653      187.68731      307.17055    
     81600  -65000.987      347.70363     -64653.283      186.96564      187.69947      307.27967    
     81700  -65010.461      375.84264     -64634.618      186.99004      187.70364      307.38879    
     81800  -65009.074      360.28429     -64648.79       187.0169       187.7185       307.49791    
     81900  -65026.7        348.90449     -64677.795      187.04662      187.73786      307.60703    
     82000  -65050.453      348.78215     -64701.67       187.06832      187.75075      307.71615    
     82100  -65054.275      341.99116     -64712.284      187.09563      187.75937      307.82527    
     82200  -65057.586      349.27822     -64708.308      187.12772      187.75929      307.93438    
     82300  -65065.64       361.53801     -64704.102      187.15517      187.75249      308.0435     
     82400  -65073.489      355.56902     -64717.92       187.18807      187.74634      308.15262    
     82500  -65085.268      348.09829     -64737.17       187.2298       187.74239      308.26174    
     82600  -65095.296      345.41646     -64749.879      187.27293      187.74195      308.37086    
     82700  -65098.801      346.86145     -64751.939      187.31933      187.74967      308.47998    
     82800  -65097.007      351.95779     -64745.049      187.35677      187.75469      308.5891     
     82900  -65086.476      351.85314     -64734.623      187.39599      187.76708      308.69822    
     83000  -65090.278      362.10215     -64728.176      187.43198      187.78219      308.80734    
     83100  -65087.789      355.45674     -64732.332      187.4596       187.78414      308.91646    
     83200  -65092.762      349.34513     -64743.416      187.48616      187.7856       309.02558    
     83300  -65097.572      350.42568     -64747.146      187.51307      187.78581      309.1347     
     83400  -65098.943      357.91344     -64741.03       187.54407      187.78994      309.24382    
     83500  -65096.157      355.37259     -64740.784      187.56979      187.79434      309.35293    
     83600  -65098.419      353.69913     -64744.72       187.58578      187.79303      309.46205    
     83700  -65101.043      351.78526     -64749.258      187.60463      187.79197      309.57117    
     83800  -65106.493      355.54794     -64750.945      187.6273       187.7957       309.68029    
     83900  -65100.061      350.5503      -64749.511      187.64304      187.79379      309.78941    
     84000  -65092.368      349.72439     -64742.643      187.6603       187.7933       309.89853    
     84100  -65078.95       350.66664     -64728.283      187.68349      187.80021      310.00765    
     84200  -65076.095      362.52126     -64713.574      187.70622      187.80768      310.11677    
     84300  -65074.426      359.7522      -64714.673      187.73802      187.82121      310.22589    
     84400  -65075.784      351.12545     -64724.658      187.76813      187.83085      310.33501    
     84500  -65070.2        342.35463     -64727.845      187.78098      187.82711      310.44413    
     84600  -65059.488      349.0773      -64710.411      187.79918      187.83189      310.55325    
     84700  -65058.735      369.87608     -64688.859      187.82523      187.84633      310.66236    
     84800  -65056.161      363.88622     -64692.275      187.84766      187.86254      310.77148    
     84900  -65070.692      352.15897     -64718.533      187.86593      187.8797       310.8806     
     85000  -65080.321      338.16382     -64742.157      187.87752      187.8951       310.98972    
     85100  -65080.882      340.60373     -64740.278      187.88919      187.915        311.09884    
     85200  -65074.125      358.53576     -64715.589      187.90183      187.93893      311.20796    
     85300  -65062.253      368.04621     -64694.207      187.90383      187.954        311.31708    
     85400  -65063.631      366.61943     -64697.011      187.9123       187.9722       311.4262     
     85500  -65073.831      351.49648     -64722.334      187.92892      188.00485      311.53532    
     85600  -65087.189      342.77241     -64744.417      187.94095      188.03593      311.64444    
     85700  -65079.921      338.33864     -64741.582      187.94939      188.07034      311.75356    
     85800  -65068.518      353.8401      -64714.678      187.95509      188.10727      311.86268    
     85900  -65061.275      369.00511     -64692.27       187.95807      188.13701      311.9718     
     86000  -65062.594      362.98227     -64699.612      187.96462      188.17152      312.08091    
     86100  -65075.282      351.83601     -64723.446      187.96712      188.20196      312.19003    
     86200  -65078.709      338.55013     -64740.159      187.97312      188.23112      312.29915    
     86300  -65082.577      349.92289     -64732.654      187.9797       188.25813      312.40827    
     86400  -65070.644      359.38857     -64711.255      187.97978      188.27781      312.51739    
     86500  -65062.771      364.62086     -64698.151      187.98515      188.30112      312.62651    
     86600  -65063.691      356.88636     -64706.804      187.9929       188.32629      312.73563    
     86700  -65074.849      350.54289     -64724.306      188.00252      188.34921      312.84475    
     86800  -65075.248      343.0462      -64732.202      188.0176       188.37168      312.95387    
     86900  -65073.059      353.86368     -64719.196      188.03003      188.38827      313.06299    
     87000  -65062.921      362.7758      -64700.145      188.03881      188.40087      313.17211    
     87100  -65059.426      363.17187     -64696.254      188.05172      188.41754      313.28123    
     87200  -65073.699      359.73297     -64713.966      188.06088      188.43365      313.39034    
     87300  -65078.806      338.19558     -64740.61       188.06396      188.44769      313.49946    
     87400  -65076.054      332.12501     -64743.929      188.07122      188.46617      313.60858    
     87500  -65066.832      350.96765     -64715.864      188.07786      188.48621      313.7177     
     87600  -65057.585      371.78819     -64685.797      188.08356      188.50182      313.82682    
     87700  -65057.761      369.99458     -64687.766      188.08861      188.51518      313.93594    
     87800  -65067.557      352.05911     -64715.498      188.09812      188.5257       314.04506    
     87900  -65080.388      341.6131      -64738.775      188.11107      188.54139      314.15418    
     88000  -65083.848      344.66608     -64739.181      188.12455      188.55948      314.2633     
     88100  -65075.728      356.29553     -64719.433      188.13494      188.57082      314.37242    
     88200  -65063.559      362.6487      -64700.91       188.14315      188.58099      314.48154    
     88300  -65066.233      361.51114     -64704.722      188.15101      188.5917       314.59066    
     88400  -65078.053      355.03389     -64723.02       188.15754      188.59761      314.69978    
     88500  -65085.097      347.0748      -64738.023      188.16102      188.603        314.80889    
     88600  -65088.598      351.44147     -64737.156      188.16755      188.61286      314.91801    
     88700  -65082.775      358.11898     -64724.657      188.17394      188.62256      315.02713    
     88800  -65074.746      362.00427     -64712.742      188.18351      188.63351      315.13625    
     88900  -65067.292      357.1906      -64710.101      188.18529      188.64026      315.24537    
     89000  -65073.669      354.28286     -64719.386      188.18951      188.65002      315.35449    
     89100  -65074.959      344.29684     -64730.662      188.19909      188.66402      315.46361    
     89200  -65079.913      347.57404     -64732.339      188.20448      188.67926      315.57273    
     89300  -65078.701      353.57906     -64725.122      188.20959      188.69559      315.68185    
     89400  -65073.887      355.84504     -64718.042      188.21766      188.71409      315.79097    
     89500  -65072.877      355.5677      -64717.309      188.2239       188.73281      315.90009    
     89600  -65075.003      355.50846     -64719.495      188.22175      188.74504      316.00921    
     89700  -65075.048      352.34446     -64722.703      188.21892      188.75698      316.11832    
     89800  -65071.825      347.53529     -64724.29       188.22514      188.77542      316.22744    
     89900  -65087.284      362.86325     -64724.421      188.2283       188.79256      316.33656    
     90000  -65076.587      350.23163     -64726.355      188.23056      188.80908      316.44568    
     90100  -65080.268      352.42044     -64727.848      188.23818      188.82641      316.5548     
     90200  -65080.111      353.77553     -64726.335      188.24771      188.84608      316.66392    
     90300  -65080.323      358.29691     -64722.026      188.25555      188.85864      316.77304    
     90400  -65074.603      353.84669     -64720.756      188.26224      188.87335      316.88216    
     90500  -65077.672      356.82939     -64720.843      188.26869      188.88997      316.99128    
     90600  -65075.923      351.22697     -64724.696      188.2732       188.90197      317.1004     
     90700  -65076.893      352.01405     -64724.879      188.2822       188.91697      317.20952    
     90800  -65076.58       354.62856     -64721.952      188.29759      188.93704      317.31864    
     90900  -65069.138      352.95776     -64716.18       188.30796      188.94841      317.42776    
     91000  -65071.426      355.95878     -64715.468      188.31746      188.95704      317.53687    
     91100  -65073.223      351.94742     -64721.276      188.32809      188.96898      317.64599    
     91200  -65079.886      352.44228     -64727.444      188.34015      188.97907      317.75511    
     91300  -65074.491      347.35281     -64727.139      188.35654      188.98399      317.86423    
     91400  -65071.91       353.56615     -64718.344      188.37049      188.98887      317.97335    
     91500  -65068.547      359.72229     -64708.824      188.38814      189.00029      318.08247    
     91600  -65068.592      358.91031     -64709.682      188.41078      189.01619      318.19159    
     91700  -65072.404      352.30723     -64720.097      188.42667      189.02272      318.30071    
     91800  -65078.034      348.07941     -64729.954      188.44171      189.02414      318.40983    
     91900  -65077.841      348.02862     -64729.812      188.4646       189.03844      318.51895    
     92000  -65072.539      353.54342     -64718.996      188.48071      189.04437      318.62807    
     92100  -65068.95       358.61605     -64710.334      188.4882       189.03897      318.73719    
     92200  -65067.361      355.00723     -64712.354      188.50382      189.0432       318.8463     
     92300  -65073.237      352.94389     -64720.293      188.52364      189.04464      318.95542    
     92400  -65075.48       349.77527     -64725.705      188.54106      189.04038      319.06454    
     92500  -65072.032      350.42415     -64721.608      188.56186      189.04097      319.17366    
     92600  -65067.638      355.00054     -64712.637      188.5857       189.04653      319.28278    
     92700  -65070.038      359.53507     -64710.503      188.60542      189.04673      319.3919     
     92800  -65074.905      356.26857     -64718.636      188.6188       189.04752      319.50102    
     92900  -65077.589      351.06687     -64726.522      188.63161      189.04893      319.61014    
     93000  -65075.244      349.21856     -64726.025      188.64012      189.04401      319.71926    
     93100  -65072.678      353.06041     -64719.618      188.64586      189.04304      319.82838    
     93200  -65074.504      358.20299     -64716.301      188.65449      189.04719      319.9375     
     93300  -65075.977      358.04472     -64717.933      188.6611       189.04654      320.04662    
     93400  -65073.181      351.99149     -64721.189      188.66956      189.05181      320.15574    
     93500  -65076.775      353.45339     -64723.322      188.68316      189.06423      320.26485    
     93600  -65072.823      350.57087     -64722.252      188.6921       189.06555      320.37397    
     93700  -65071.034      351.14753     -64719.886      188.69644      189.06383      320.48309    
     93800  -65074.314      355.24034     -64719.074      188.71018      189.07023      320.59221    
     93900  -65079.087      356.58197     -64722.505      188.72275      189.07132      320.70133    
     94000  -65083.312      353.84789     -64729.464      188.73796      189.07256      320.81045    
     94100  -65086.335      351.58024     -64734.755      188.75524      189.08193      320.91957    
     94200  -65079.636      347.33151     -64732.305      188.7686       189.08201      321.02869    
     94300  -65079.31       354.54794     -64724.762      188.78246      189.0811       321.13781    
     94400  -65071.732      353.54056     -64718.191      188.80199      189.08874      321.24693    
     94500  -65073.001      355.13431     -64717.867      188.8177       189.08967      321.35605    
     94600  -65077.345      354.01553     -64723.329      188.83241      189.09294      321.46517    
     94700  -65080.066      350.59838     -64729.468      188.85092      189.1026       321.57428    
     94800  -65082.301      350.49528     -64731.806      188.8621       189.10805      321.6834     
     94900  -65077.01       350.69501     -64726.315      188.87298      189.11472      321.79252    
     95000  -65073.611      355.23234     -64718.378      188.88707      189.12776      321.90164    
     95100  -65075.172      358.11879     -64717.053      188.90157      189.14163      322.01076    
     95200  -65078.811      356.6384      -64722.172      188.90777      189.14551      322.11988    
     95300  -65077.015      348.29847     -64728.717      188.91787      189.15628      322.229      
     95400  -65077.644      347.46909     -64730.175      188.93084      189.16804      322.33812    
     95500  -65080.042      356.72312     -64723.319      188.94252      189.17269      322.44724    
     95600  -65074.07       357.31537     -64716.755      188.95892      189.18163      322.55636    
     95700  -65073.253      357.74093     -64715.512      188.97412      189.19064      322.66548    
     95800  -65075.564      353.46961     -64722.094      188.98966      189.19811      322.7746     
     95900  -65080.577      350.83641     -64729.74       189.00618      189.20704      322.88372    
     96000  -65082.065      350.20289     -64731.862      189.02089      189.21431      322.99283    
     96100  -65076.911      349.68196     -64727.229      189.03229      189.21714      323.10195    
     96200  -65078.894      357.73976     -64721.155      189.04939      189.22363      323.21107    
     96300  -65075.812      354.66171     -64721.15       189.07216      189.23254      323.32019    
     96400  -65081.4        355.30383     -64726.096      189.08993      189.2344       323.42931    
     96500  -65078.249      347.675       -64730.574      189.10946      189.23799      323.53843    
     96600  -65078.831      350.58596     -64728.245      189.1347       189.24648      323.64755    
     96700  -65077.245      354.97444     -64722.271      189.15652      189.25382      323.75667    
     96800  -65077.164      359.01408     -64718.15       189.17701      189.25872      323.86579    
     96900  -65077.973      357.14667     -64720.826      189.19959      189.26775      323.97491    
     97000  -65078.555      351.88649     -64726.669      189.2211       189.27395      324.08403    
     97100  -65083.42       351.73375     -64731.686      189.24318      189.27786      324.19315    
     97200  -65083.446      350.2806      -64733.165      189.26642      189.28123      324.30227    
     97300  -65078.577      350.55357     -64728.023      189.28774      189.28378      324.41138    
     97400  -65074.96       355.37456     -64719.585      189.30693      189.28209      324.5205     
     97500  -65072.562      357.89773     -64714.664      189.32954      189.28488      324.62962    
     97600  -65076.621      359.3677      -64717.253      189.34885      189.28922      324.73874    
     97700  -65080.711      352.7493      -64727.962      189.36656      189.29435      324.84786    
     97800  -65085.863      350.16388     -64735.699      189.38509      189.30487      324.95698    
     97900  -65079.276      346.75559     -64732.52       189.40255      189.31757      325.0661     
     98000  -65075.844      353.99464     -64721.849      189.4155       189.33081      325.17522    
     98100  -65075.959      363.25437     -64712.704      189.4278       189.34141      325.28434    
     98200  -65077.823      360.29541     -64717.528      189.43966      189.35084      325.39346    
     98300  -65080.903      351.0282      -64729.875      189.45264      189.36127      325.50258    
     98400  -65085.495      348.55942     -64736.936      189.46617      189.37163      325.6117     
     98500  -65079.797      346.39979     -64733.397      189.48043      189.38164      325.72081    
     98600  -65075.792      354.51014     -64721.282      189.49812      189.39097      325.82993    
     98700  -65073.989      361.31364     -64712.675      189.51624      189.40109      325.93905    
     98800  -65075.938      358.33282     -64717.605      189.53496      189.40982      326.04817    
     98900  -65081.398      351.44803     -64729.95       189.54924      189.41618      326.15729    
     99000  -65085.302      347.85271     -64737.449      189.5619       189.42359      326.26641    
     99100  -65082.93       349.90614     -64733.024      189.57294      189.43491      326.37553    
     99200  -65073.759      353.41102     -64720.348      189.58023      189.44465      326.48465    
     99300  -65070.397      358.76474     -64711.633      189.58831      189.45633      326.59377    
     99400  -65074.289      359.50583     -64714.783      189.59866      189.46769      326.70289    
     99500  -65077.186      352.45898     -64724.727      189.60612      189.476        326.81201    
     99600  -65078.569      347.22368     -64731.345      189.61344      189.48734      326.92113    
     99700  -65076.191      347.66612     -64728.525      189.62988      189.50735      327.03025    
     99800  -65076.594      358.21964     -64718.375      189.63908      189.52577      327.13936    
     99900  -65074.042      361.73364     -64712.309      189.64497      189.54566      327.24848    
    100000  -65075.246      356.00122     -64719.244      189.65581      189.56984      327.3576     
Loop time of 4354.01 on 12 procs for 100000 steps with 9120 atoms

Performance: 1.984 ns/day, 12.094 hours/ns, 22.967 timesteps/s, 209.462 katom-step/s
79.7% CPU use with 12 MPI tasks x 1 OpenMP threads

MPI task timing breakdown:
Section |  min time  |  avg time  |  max time  |%varavg| %total
---------------------------------------------------------------
Pair    | 1068.7     | 1382.2     | 1684.4     | 535.8 | 31.75
Neigh   | 11.888     | 16.16      | 20.793     |  77.4 |  0.37
Comm    | 710.92     | 990.63     | 1275.4     | 537.9 | 22.75
Output  | 5.8039     | 6.0222     | 6.1701     |   5.1 |  0.14
Modify  | 1668.4     | 1772.6     | 1875.7     | 133.3 | 40.71
Other   |            | 186.4      |            |       |  4.28

Nlocal:            760 ave        1761 max         129 min
Histogram: 2 1 2 1 2 2 1 0 0 1
Nghost:        2662.42 ave        3638 max        1293 min
Histogram: 1 3 0 0 0 0 1 2 3 2
Neighs:              0 ave           0 max           0 min
Histogram: 12 0 0 0 0 0 0 0 0 0

Total # of neighbors = 0
Ave neighs/atom = 0
Neighbor list builds = 720
Dangerous builds = 0
Total wall time: 1:12:34
