LAMMPS (2 Aug 2023 - Update 3)
OMP_NUM_THREADS environment is not set. Defaulting to 1 thread. (src/comm.cpp:98)
  using 1 OpenMP thread(s) per MPI task

# 1------general---------------
units                             metal      #单位为lammps 中的metel 类型
dimension                    3          #模拟的维度 三维
boundary                    p p p      #周期边界条件
atom_style                  atomic   #原子类型自动
atom_modify              map array sort 100 2.0
neighbor                    3.0 bin
neigh_modify            every 1 delay 0 check yes
#2 -----global variable-------定义全局变量，方便统一修改；
variable temperature equal 300
variable tstep equal 0.001
variable pressure equal 0
variable thermalstep equal 100
variable dumpstep equal 1000
variable relaxtime equal 0
variable totaltime equal 100000
variable deformrate equal 5e-3
#3 -------model------------
#box tilt large
read_data     1.lmp
Reading data file ...
  orthogonal box = (-100 -100 -2.1416495) to (100 100 39.081159)
  4 by 3 by 1 MPI processor grid
  reading atoms ...
  1620 atoms
  read_data CPU = 0.042 seconds
replicate 1 1 9
Replication is creating a 1x1x9 = 9 times larger system...
  orthogonal box = (-100 -100 -2.1416495) to (100 100 368.86363)
  2 by 2 by 3 MPI processor grid
  14580 atoms
  replicate CPU = 0.002 seconds
write_data h.data
System init for write_data ...
WARNING: Communication cutoff is 0.0. No ghost atoms will be generated. Atoms may get lost. (src/comm_brick.cpp:210)
pair_style hybrid airebo 3.0 airebo 3.0 airebo 3.0 lj/cut 10
pair_coeff * * airebo 1 CH.airebo C NULL NULL
Reading airebo potential file CH.airebo with DATE: 2011-10-25
pair_coeff * * airebo 2 CH.airebo NULL C NULL
Reading airebo potential file CH.airebo with DATE: 2011-10-25
pair_coeff * * airebo 3 CH.airebo NULL NULL C
Reading airebo potential file CH.airebo with DATE: 2011-10-25
pair_coeff 1 2 lj/cut 0.00456 3.431
pair_coeff 1 3 lj/cut 0.00456 3.431
pair_coeff 2 3 lj/cut 0.00456 3.431

# 5------minimize -----------
min_style      sd
minimize       1.0e-4 1.0e-6 100 1000
Neighbor list info ...
  update: every = 1 steps, delay = 0 steps, check = yes
  max neighbors/atom: 2000, page size: 100000
  master list distance cutoff = 13.2
  ghost atom cutoff = 13.2
  binsize = 6.6, bins = 31 31 57
  6 neighbor lists, perpetual/occasional/extra = 6 0 0
  (1) pair airebo, perpetual, skip from (5)
      attributes: full, newton on, ghost
      pair build: skip/ghost
      stencil: none
      bin: none
  (2) pair airebo, perpetual, skip from (5)
      attributes: full, newton on, ghost
      pair build: skip/ghost
      stencil: none
      bin: none
  (3) pair airebo, perpetual, skip from (5)
      attributes: full, newton on, ghost
      pair build: skip/ghost
      stencil: none
      bin: none
  (4) pair lj/cut, perpetual, skip from (6)
      attributes: half, newton on, cut 13
      pair build: skip
      stencil: none
      bin: none
  (5) neighbor class addition, perpetual
      attributes: full, newton on, ghost
      pair build: full/bin/ghost
      stencil: full/ghost/bin/3d
      bin: standard
  (6) neighbor class addition, perpetual
      attributes: half, newton on, cut 13
      pair build: half/bin/atomonly/newton
      stencil: half/bin/3d
      bin: standard
Per MPI rank memory allocation (min/avg/max) = 14.58 | 14.97 | 15.35 Mbytes
   Step          Temp          E_pair         E_mol          TotEng         Press     
         0   0             -97647.709      0             -97647.709      3997.0868    
        24   0             -104737.26      0             -104737.26      81.021641    
Loop time of 3.55332 on 12 procs for 24 steps with 14580 atoms

74.2% CPU use with 12 MPI tasks x 1 OpenMP threads

Minimization stats:
  Stopping criterion = energy tolerance
  Energy initial, next-to-last, final = 
     -97647.7088679403  -104728.992279912  -104737.263873618
  Force two-norm initial, final = 2505.8195 33.826584
  Force max component initial, final = 177.24911 2.7877205
  Final line search alpha, max atom move = 0.017949923 0.050039368
  Iterations, force evaluations = 24 43

MPI task timing breakdown:
Section |  min time  |  avg time  |  max time  |%varavg| %total
---------------------------------------------------------------
Pair    | 0.74808    | 0.9814     | 1.5481     |  23.1 | 27.62
Neigh   | 0          | 0          | 0          |   0.0 |  0.00
Comm    | 0.62378    | 1.2066     | 1.436      |  21.1 | 33.96
Output  | 0          | 0          | 0          |   0.0 |  0.00
Modify  | 0          | 0          | 0          |   0.0 |  0.00
Other   |            | 1.365      |            |       | 38.42

Nlocal:           1215 ave        1257 max        1140 min
Histogram: 3 0 0 0 0 0 0 6 0 3
Nghost:           4693 ave        4768 max        4651 min
Histogram: 3 0 6 0 0 0 0 0 0 3
Neighs:              0 ave           0 max           0 min
Histogram: 12 0 0 0 0 0 0 0 0 0

Total # of neighbors = 0
Ave neighs/atom = 0
Neighbor list builds = 0
Dangerous builds = 0
#6----define computes------
variable nums equal count(all) #计算原子数目
variable toval equal 20.535*20.0413*lz #计算系统总体积，单层石墨烯厚度为0.335nm
variable vol equal ${toval} #体系的初始体积
variable vol equal 152686.516815992 
variable vatom equal v_vol/v_nums #单个原子体积
compute 1 all stress/atom NULL #计算体系中单原子应力
compute xalls all reduce sum c_1[1]
variable xstress equal (c_xalls)/(v_toval*10000)
compute yalls all reduce sum c_1[2]
variable ystress equal (c_yalls)/(v_toval*10000)
compute zalls all reduce sum c_1[3]
variable zstress equal (c_zalls)/(v_toval*10000)
#7---------relaxation-------------------------
timestep ${tstep}
timestep 0.001
velocity all create ${temperature} 231743 units box dist gaussian
velocity all create 300 231743 units box dist gaussian
dump   1 all atom 100 all-cy.lammpstrj
#fix    1 all npt temp 300 300  0.1 aniso 0 0 10 drag 1  #三个方向独立控压
fix  1 all npt temp ${temperature} ${temperature} 0.1 x ${pressure} ${pressure} 10 y ${pressure} ${pressure} 10
fix  1 all npt temp 300 ${temperature} 0.1 x ${pressure} ${pressure} 10 y ${pressure} ${pressure} 10
fix  1 all npt temp 300 300 0.1 x ${pressure} ${pressure} 10 y ${pressure} ${pressure} 10
fix  1 all npt temp 300 300 0.1 x 0 ${pressure} 10 y ${pressure} ${pressure} 10
fix  1 all npt temp 300 300 0.1 x 0 0 10 y ${pressure} ${pressure} 10
fix  1 all npt temp 300 300 0.1 x 0 0 10 y 0 ${pressure} 10
fix  1 all npt temp 300 300 0.1 x 0 0 10 y 0 0 10
compute  2 all pe/atom
compute  pe all reduce sum c_2
variable PE equal "c_pe"
fix    pe all print 100 "${PE} " file PE.txt screen no
thermo  ${thermalstep}
thermo  100
#thermo_style  custom step pe ke etotal lx ly lz
run   ${relaxtime}
run   0
Per MPI rank memory allocation (min/avg/max) = 15.21 | 15.69 | 16.35 Mbytes
   Step          Temp          E_pair         E_mol          TotEng         Press          Volume    
        24   300           -104737.26      0             -104171.92      121.71211      14840211     
Loop time of 3.04628e-05 on 12 procs for 0 steps with 14580 atoms

89.2% CPU use with 12 MPI tasks x 1 OpenMP threads

MPI task timing breakdown:
Section |  min time  |  avg time  |  max time  |%varavg| %total
---------------------------------------------------------------
Pair    | 0          | 0          | 0          |   0.0 |  0.00
Neigh   | 0          | 0          | 0          |   0.0 |  0.00
Comm    | 0          | 0          | 0          |   0.0 |  0.00
Output  | 0          | 0          | 0          |   0.0 |  0.00
Modify  | 0          | 0          | 0          |   0.0 |  0.00
Other   |            | 3.046e-05  |            |       |100.00

Nlocal:           1215 ave        1257 max        1158 min
Histogram: 3 0 0 0 0 0 6 0 0 3
Nghost:           4691 ave        4748 max        4649 min
Histogram: 3 0 0 6 0 0 0 0 0 3
Neighs:              0 ave           0 max           0 min
Histogram: 12 0 0 0 0 0 0 0 0 0

Total # of neighbors = 0
Ave neighs/atom = 0
Neighbor list builds = 0
Dangerous builds = 0
#8 -------tension-----------------------------
unfix  1
undump  1
unfix  pe
reset_timestep 0
fix avestress all ave/atom 1 ${dumpstep} ${dumpstep} c_1[1] c_1[2] c_1[3] c_1[4] c_1[5] c_1[6]
fix avestress all ave/atom 1 1000 ${dumpstep} c_1[1] c_1[2] c_1[3] c_1[4] c_1[5] c_1[6]
fix avestress all ave/atom 1 1000 1000 c_1[1] c_1[2] c_1[3] c_1[4] c_1[5] c_1[6]

#-----calculation of strain and Cumulative compression--------
variable                tmp equal "lz"
variable                L0 equal ${tmp}
variable                L0 equal 371.005281
variable                strain equal "(lz - v_L0)/v_L0"
variable                Cumulativels equal "(lz - v_L0)/10"
fix Step all print 100 "${strain} ${Cumulativels} ${zstress}" file grapoten.txt screen no

dump 2 all custom ${dumpstep} tension.xyz type x y z f_avestress[1] f_avestress[2] f_avestress[3] f_avestress[4] f_avestress[5] f_avestress[6]
dump 2 all custom 1000 tension.xyz type x y z f_avestress[1] f_avestress[2] f_avestress[3] f_avestress[4] f_avestress[5] f_avestress[6]

fix  1 all npt temp ${temperature} ${temperature} 0.1 y ${pressure} ${pressure} 10 x ${pressure} ${pressure} 10
fix  1 all npt temp 300 ${temperature} 0.1 y ${pressure} ${pressure} 10 x ${pressure} ${pressure} 10
fix  1 all npt temp 300 300 0.1 y ${pressure} ${pressure} 10 x ${pressure} ${pressure} 10
fix  1 all npt temp 300 300 0.1 y 0 ${pressure} 10 x ${pressure} ${pressure} 10
fix  1 all npt temp 300 300 0.1 y 0 0 10 x ${pressure} ${pressure} 10
fix  1 all npt temp 300 300 0.1 y 0 0 10 x 0 ${pressure} 10
fix  1 all npt temp 300 300 0.1 y 0 0 10 x 0 0 10

thermo_style custom step pe ke etotal lx ly lz
fix   2 all deform 1 z erate ${deformrate} remap x units box
fix   2 all deform 1 z erate 0.005 remap x units box
fix   3 all ave/time 2 500 1000 v_xstress v_ystress v_zstress file pressure.out
run   ${totaltime}
run   100000
WARNING: Dump 2 includes no atom IDs and is not sorted by ID. This may complicate post-processing tasks or visualization (src/dump.cpp:221)
Per MPI rank memory allocation (min/avg/max) = 16.71 | 17.19 | 17.85 Mbytes
   Step         PotEng         KinEng         TotEng           Lx             Ly             Lz      
         0  -104737.26      565.3451      -104171.92      200            200            371.00528    
       100  -104509.5       377.11429     -104132.38      199.98446      199.98694      371.19078    
       200  -104504.17      421.74713     -104082.42      199.9162       199.92188      371.37629    
       300  -104502.21      476.62208     -104025.59      200.00509      200.01551      371.56179    
       400  -104473.71      505.60353     -103968.11      200.00357      200.0258       371.74729    
       500  -104422.69      499.52325     -103923.17      199.91217      199.94817      371.93279    
       600  -104448.6       572.5664      -103876.03      199.96136      200.01264      372.1183     
       700  -104440.18      602.05095     -103838.13      199.98624      200.05159      372.3038     
       800  -104420.35      589.60812     -103830.74      199.92373      199.9981       372.4893     
       900  -104397.88      563.7154      -103834.17      199.93438      200.02169      372.6748     
      1000  -104400.03      564.37944     -103835.66      199.94363      200.03412      372.86031    
      1100  -104418.64      567.79547     -103850.85      199.94564      200.03566      373.04581    
      1200  -104413.1       553.87297     -103859.23      199.91534      200.01194      373.23131    
      1300  -104404.25      557.4654      -103846.78      199.93269      200.03616      373.41682    
      1400  -104387.91      564.07707     -103823.84      199.95495      200.05643      373.60232    
      1500  -104383.3       560.92948     -103822.37      199.91488      200.01445      373.78782    
      1600  -104394.41      560.77538     -103833.63      199.93498      200.03902      373.97332    
      1700  -104406.71      562.87952     -103843.83      199.93         200.03347      374.15883    
      1800  -104406.9       560.16445     -103846.73      199.92244      200.03126      374.34433    
      1900  -104405.38      569.54352     -103835.84      199.91985      200.04718      374.52983    
      2000  -104395.2       572.3768      -103822.82      199.90005      200.04029      374.71533    
      2100  -104390.64      568.02916     -103822.61      199.89994      200.0501       374.90084    
      2200  -104393.79      563.16833     -103830.62      199.88811      200.05601      375.08634    
      2300  -104410.32      571.80891     -103838.51      199.88313      200.06251      375.27184    
      2400  -104404.26      561.93066     -103842.33      199.87881      200.06089      375.45734    
      2500  -104400.86      563.96118     -103836.9       199.87878      200.05401      375.64285    
      2600  -104397.3       570.1622      -103827.14      199.88635      200.0563       375.82835    
      2700  -104391.97      567.89158     -103824.08      199.88493      200.04726      376.01385    
      2800  -104393.24      567.95335     -103825.29      199.88381      200.04277      376.19935    
      2900  -104398.78      570.17254     -103828.61      199.88699      200.04507      376.38486    
      3000  -104398.38      565.37802     -103833         199.8798       200.03932      376.57036    
      3100  -104390.31      556.23344     -103834.07      199.87482      200.03999      376.75586    
      3200  -104395.11      568.48626     -103826.62      199.87127      200.04374      376.94137    
      3300  -104389.63      568.07614     -103821.55      199.86308      200.04455      377.12687    
      3400  -104385.26      565.4094      -103819.85      199.8568       200.0423       377.31237    
      3500  -104389.98      570.66107     -103819.31      199.85345      200.03993      377.49787    
      3600  -104383.43      563.68796     -103819.74      199.84935      200.03454      377.68338    
      3700  -104382.96      565.64823     -103817.31      199.8566       200.03283      377.86888    
      3800  -104384.58      570.18866     -103814.39      199.86467      200.02722      378.05438    
      3900  -104384.46      568.82716     -103815.64      199.86375      200.01244      378.23988    
      4000  -104375.29      557.79183     -103817.5       199.86986      199.99999      378.42539    
      4100  -104375.35      561.71535     -103813.63      199.87601      199.98621      378.61089    
      4200  -104372.82      567.14226     -103805.68      199.88168      199.97595      378.79639    
      4300  -104362.62      564.15217     -103798.47      199.88135      199.96327      378.98189    
      4400  -104361.35      569.51042     -103791.84      199.88032      199.95806      379.1674     
      4500  -104359.4       570.98285     -103788.41      199.87746      199.95643      379.3529     
      4600  -104353.77      563.69307     -103790.07      199.87366      199.95567      379.5384     
      4700  -104354.92      560.83433     -103794.08      199.86503      199.95625      379.72391    
      4800  -104349.04      559.34191     -103789.7       199.85067      199.95997      379.90941    
      4900  -104341.71      564.54918     -103777.16      199.84071      199.96731      380.09491    
      5000  -104338.16      572.4346      -103765.73      199.8286       199.97213      380.28041    
      5100  -104325.79      560.42006     -103765.37      199.81047      199.97755      380.46592    
      5200  -104330.23      565.48135     -103764.75      199.79664      199.98636      380.65142    
      5300  -104329.39      567.39376     -103761.99      199.78599      199.98897      380.83692    
      5400  -104327.29      568.23009     -103759.06      199.77529      199.98137      381.02242    
      5500  -104312.62      558.37261     -103754.25      199.76966      199.97849      381.20793    
      5600  -104307.06      563.56729     -103743.5       199.7651       199.97658      381.39343    
      5700  -104299.16      567.01404     -103732.14      199.76012      199.97402      381.57893    
      5800  -104289.65      566.77296     -103722.88      199.75998      199.9783       381.76443    
      5900  -104292.9       575.22188     -103717.68      199.75619      199.97362      381.94994    
      6000  -104285.22      566.69898     -103718.52      199.75045      199.95926      382.13544    
      6100  -104285.45      566.87915     -103718.57      199.75142      199.94349      382.32094    
      6200  -104277.14      563.52496     -103713.61      199.75179      199.92736      382.50644    
      6300  -104272.94      566.27477     -103706.67      199.75486      199.92309      382.69195    
      6400  -104260.24      563.60542     -103696.64      199.75642      199.92175      382.87745    
      6500  -104253.01      570.32837     -103682.68      199.74954      199.90975      383.06295    
      6600  -104244.87      568.55574     -103676.32      199.74717      199.90247      383.24846    
      6700  -104244.79      568.41462     -103676.38      199.74679      199.89321      383.43396    
      6800  -104231.23      558.51696     -103672.71      199.74434      199.88167      383.61946    
      6900  -104230.17      568.23935     -103661.93      199.74596      199.87312      383.80496    
      7000  -104222         568.57801     -103653.42      199.74369      199.8604       383.99047    
      7100  -104209.86      555.47749     -103654.38      199.73927      199.84449      384.17597    
      7200  -104214.97      567.51116     -103647.46      199.74082      199.83176      384.36147    
      7300  -104198.06      564.99918     -103633.06      199.74325      199.8165       384.54697    
      7400  -104191.66      572.2773      -103619.38      199.74796      199.80137      384.73248    
      7500  -104182.05      567.91949     -103614.13      199.75805      199.78775      384.91798    
      7600  -104181.34      572.38047     -103608.96      199.76274      199.76669      385.10348    
      7700  -104163.8       561.05754     -103602.74      199.77182      199.74519      385.28898    
      7800  -104162.79      565.19095     -103597.6       199.78189      199.72279      385.47449    
      7900  -104164.02      566.9537      -103597.07      199.78679      199.69949      385.65999    
      8000  -104157.15      566.08441     -103591.06      199.7904       199.6813       385.84549    
      8100  -104143.02      562.48527     -103580.53      199.79212      199.66134      386.03099    
      8200  -104132.05      562.84236     -103569.21      199.79813      199.64061      386.2165     
      8300  -104121.87      573.08684     -103548.78      199.80848      199.61864      386.402      
      8400  -104114.33      571.00517     -103543.33      199.82015      199.59573      386.5875     
      8500  -104111.51      569.21617     -103542.29      199.82462      199.57098      386.77301    
      8600  -104108.99      566.37839     -103542.61      199.83295      199.54812      386.95851    
      8700  -104100.81      561.81683     -103538.99      199.8421       199.52456      387.14401    
      8800  -104093.21      564.28538     -103528.93      199.84428      199.49858      387.32951    
      8900  -104083.45      565.20721     -103518.24      199.85094      199.47484      387.51502    
      9000  -104078.91      562.6429      -103516.27      199.85345      199.45654      387.70052    
      9100  -104071.18      559.24459     -103511.94      199.85038      199.443        387.88602    
      9200  -104060.72      563.22235     -103497.5       199.84569      199.43477      388.07152    
      9300  -104043.42      561.52284     -103481.89      199.8303       199.42885      388.25703    
      9400  -104035.19      565.06489     -103470.12      199.82151      199.4263       388.44253    
      9500  -104021.97      562.13949     -103459.83      199.81267      199.41994      388.62803    
      9600  -104013.98      569.79621     -103444.18      199.80027      199.40604      388.81353    
      9700  -103996.21      569.65471     -103426.56      199.79349      199.39666      388.99904    
      9800  -103990.63      572.29242     -103418.33      199.78869      199.38747      389.18454    
      9900  -103985.88      570.00304     -103415.88      199.77926      199.38341      389.37004    
     10000  -103967.74      559.69853     -103408.04      199.76568      199.38457      389.55555    
     10100  -103960.34      564.67065     -103395.67      199.74562      199.38254      389.74105    
     10200  -103945.37      565.50016     -103379.87      199.72873      199.37572      389.92655    
     10300  -103934.71      566.78584     -103367.93      199.72032      199.37062      390.11205    
     10400  -103930.02      566.67078     -103363.35      199.70971      199.36414      390.29756    
     10500  -103919.54      559.75916     -103359.78      199.693        199.35328      390.48306    
     10600  -103911.96      562.39394     -103349.56      199.67835      199.33961      390.66856    
     10700  -103901.07      569.36838     -103331.7       199.67162      199.32727      390.85406    
     10800  -103887.3       573.1918      -103314.11      199.6672       199.31293      391.03957    
     10900  -103879.23      569.60812     -103309.62      199.66373      199.29706      391.22507    
     11000  -103872.45      565.46915     -103306.98      199.66161      199.28111      391.41057    
     11100  -103857.56      563.99651     -103293.56      199.65884      199.26574      391.59607    
     11200  -103844.09      567.05416     -103277.03      199.65111      199.25094      391.78158    
     11300  -103822.83      560.27398     -103262.56      199.63623      199.23488      391.96708    
     11400  -103822.35      569.80692     -103252.54      199.62652      199.22341      392.15258    
     11500  -103808.43      559.77297     -103248.66      199.61912      199.21372      392.33808    
     11600  -103804.13      566.17747     -103237.95      199.602        199.20181      392.52359    
     11700  -103794.11      566.52961     -103227.58      199.58741      199.19446      392.70909    
     11800  -103776.56      562.75638     -103213.81      199.57402      199.18696      392.89459    
     11900  -103766.38      571.61774     -103194.76      199.56116      199.17699      393.0801     
     12000  -103746.64      565.35236     -103181.29      199.54705      199.16478      393.2656     
     12100  -103739.63      565.40335     -103174.23      199.53491      199.15311      393.4511     
     12200  -103726.98      558.51968     -103168.46      199.52192      199.14309      393.6366     
     12300  -103715.03      563.72231     -103151.31      199.50709      199.13142      393.82211    
     12400  -103700.86      571.45034     -103129.41      199.49157      199.11883      394.00761    
     12500  -103695.2       575.32595     -103119.88      199.47902      199.11023      394.19311    
     12600  -103682.34      566.20177     -103116.14      199.46442      199.10344      394.37861    
     12700  -103675.26      567.01775     -103108.24      199.44507      199.09501      394.56412    
     12800  -103664.35      567.15312     -103097.2       199.42808      199.08661      394.74962    
     12900  -103646.82      563.2443      -103083.58      199.40931      199.07492      394.93512    
     13000  -103632.3       567.7468      -103064.56      199.39464      199.06165      395.12062    
     13100  -103619.62      570.2457      -103049.37      199.38326      199.04329      395.30613    
     13200  -103609.77      567.13883     -103042.63      199.37289      199.02332      395.49163    
     13300  -103600.79      564.28773     -103036.5       199.36964      199.00696      395.67713    
     13400  -103583.46      562.96619     -103020.49      199.36231      198.98999      395.86263    
     13500  -103562.46      560.32446     -103002.13      199.3501       198.97118      396.04814    
     13600  -103554.79      569.46132     -102985.33      199.34112      198.95459      396.23364    
     13700  -103537.62      568.80604     -102968.82      199.32746      198.93402      396.41914    
     13800  -103526.27      569.93684     -102956.33      199.31604      198.91608      396.60465    
     13900  -103520.26      566.91935     -102953.34      199.3092       198.90015      396.79015    
     14000  -103498.94      557.28457     -102941.65      199.29789      198.87857      396.97565    
     14100  -103488.42      564.4286      -102923.99      199.28864      198.85732      397.16115    
     14200  -103471.49      566.19704     -102905.29      199.28689      198.83887      397.34666    
     14300  -103459.26      571.12474     -102888.14      199.27458      198.81375      397.53216    
     14400  -103451.42      575.70687     -102875.71      199.25661      198.7882       397.71766    
     14500  -103439.55      566.76962     -102872.78      199.24538      198.767        397.90316    
     14600  -103427.79      564.70454     -102863.08      199.22981      198.74314      398.08867    
     14700  -103411.18      561.55545     -102849.62      199.21881      198.72339      398.27417    
     14800  -103399.36      562.94269     -102836.42      199.21608      198.70651      398.45967    
     14900  -103381.78      559.35844     -102822.42      199.20905      198.68536      398.64517    
     15000  -103368.58      565.3399      -102803.24      199.19822      198.66264      398.83068    
     15100  -103361.41      571.66895     -102789.74      199.18597      198.64143      399.01618    
     15200  -103344.95      560.94876     -102784         199.17053      198.61911      399.20168    
     15300  -103332.75      561.39991     -102771.35      199.16004      198.59878      399.38718    
     15400  -103315.78      560.27913     -102755.5       199.15189      198.57735      399.57269    
     15500  -103298.19      566.02628     -102732.16      199.14175      198.54935      399.75819    
     15600  -103284.61      571.50327     -102713.1       199.13471      198.51843      399.94369    
     15700  -103271.69      565.59786     -102706.09      199.12788      198.48717      400.1292     
     15800  -103260.87      563.64397     -102697.22      199.11845      198.45531      400.3147     
     15900  -103249.74      564.5885      -102685.15      199.11232      198.42587      400.5002     
     16000  -103234.45      563.81631     -102670.63      199.10258      198.40001      400.6857     
     16100  -103212.19      562.14872     -102650.04      199.09356      198.3765       400.87121    
     16200  -103200.51      571.65293     -102628.85      199.07821      198.3525       401.05671    
     16300  -103183.48      569.80487     -102613.68      199.05995      198.32872      401.24221    
     16400  -103174.09      565.36584     -102608.73      199.04816      198.30829      401.42771    
     16500  -103163.39      566.21838     -102597.17      199.03052      198.28585      401.61322    
     16600  -103148.28      568.60017     -102579.68      199.01245      198.26314      401.79872    
     16700  -103124.36      564.84914     -102559.51      198.9996       198.24461      401.98422    
     16800  -103109.65      574.00922     -102535.64      198.98281      198.22827      402.16972    
     16900  -103093.26      572.85929     -102520.4       198.96082      198.2123       402.35523    
     17000  -103077.55      566.30146     -102511.25      198.94226      198.19744      402.54073    
     17100  -103063.17      565.72233     -102497.45      198.91617      198.1798       402.72623    
     17200  -103046.38      562.39903     -102483.98      198.89402      198.16141      402.91174    
     17300  -103033.56      565.70101     -102467.86      198.8764       198.1456       403.09724    
     17400  -103011.47      563.80958     -102447.66      198.84977      198.12665      403.28274    
     17500  -102996.94      569.88025     -102427.05      198.82755      198.10954      403.46824    
     17600  -102978.22      565.35938     -102412.86      198.80653      198.08988      403.65375    
     17700  -102970.55      563.83261     -102406.72      198.7876       198.06518      403.83925    
     17800  -102954.35      562.66837     -102391.68      198.77196      198.03993      404.02475    
     17900  -102930.04      561.1526      -102368.89      198.75126      198.0144       404.21025    
     18000  -102915.92      566.60474     -102349.32      198.7292       197.99247      404.39576    
     18100  -102901.35      566.5078      -102334.84      198.7039       197.97249      404.58126    
     18200  -102888.76      566.83795     -102321.93      198.68234      197.9574       404.76676    
     18300  -102872.37      565.68212     -102306.69      198.66497      197.94512      404.95226    
     18400  -102847.18      565.36726     -102281.82      198.63905      197.92649      405.13777    
     18500  -102835.81      576.88851     -102258.92      198.61413      197.90668      405.32327    
     18600  -102810.73      564.88386     -102245.85      198.59873      197.88958      405.50877    
     18700  -102801.4       565.65668     -102235.74      198.57249      197.86476      405.69427    
     18800  -102793.64      569.64896     -102223.99      198.55138      197.84031      405.87978    
     18900  -102773.77      564.06008     -102209.71      198.53296      197.81645      406.06528    
     19000  -102755.83      562.90874     -102192.92      198.50922      197.78947      406.25078    
     19100  -102738.51      563.89982     -102174.61      198.49471      197.76549      406.43629    
     19200  -102718.17      562.44313     -102155.73      198.47524      197.74039      406.62179    
     19300  -102705.07      567.92427     -102137.14      198.45367      197.71728      406.80729    
     19400  -102685         569.44124     -102115.55      198.4324       197.6987       406.99279    
     19500  -102666.59      573.79339     -102092.8       198.40234      197.68187      407.1783     
     19600  -102644.37      566.57514     -102077.8       198.36987      197.66681      407.3638     
     19700  -102632.99      560.91591     -102072.08      198.34223      197.65291      407.5493     
     19800  -102623.62      566.31829     -102057.3       198.31764      197.63775      407.7348     
     19900  -102606.92      567.11627     -102039.81      198.2998       197.62077      407.92031    
     20000  -102582.82      564.9914      -102017.82      198.28507      197.59989      408.10581    
     20100  -102564.03      571.94643     -101992.08      198.26678      197.57654      408.29131    
     20200  -102544.65      569.64096     -101975.01      198.24092      197.55015      408.47681    
     20300  -102525.42      561.44485     -101963.97      198.21622      197.52613      408.66232    
     20400  -102509.05      563.07201     -101945.98      198.19025      197.50598      408.84782    
     20500  -102491.3       565.00498     -101926.3       198.16484      197.48505      409.03332    
     20600  -102474.51      567.40911     -101907.1       198.14466      197.46182      409.21882    
     20700  -102460.55      575.09965     -101885.45      198.12441      197.43471      409.40433    
     20800  -102432.61      565.21338     -101867.4       198.10512      197.40662      409.58983    
     20900  -102421.72      565.40551     -101856.31      198.08485      197.37944      409.77533    
     21000  -102406.63      563.32281     -101843.31      198.06332      197.35402      409.96084    
     21100  -102381.72      560.9606      -101820.76      198.04176      197.33469      410.14634    
     21200  -102361.93      566.02009     -101795.91      198.01444      197.31803      410.33184    
     21300  -102343.02      567.05106     -101775.97      197.9858       197.30472      410.51734    
     21400  -102325.44      566.80206     -101758.64      197.96019      197.2936       410.70285    
     21500  -102305.5       566.13883     -101739.36      197.9348       197.27957      410.88835    
     21600  -102279.5       566.70833     -101712.79      197.91119      197.26129      411.07385    
     21700  -102261.7       572.15393     -101689.54      197.88565      197.24302      411.25935    
     21800  -102247.51      571.63607     -101675.87      197.85925      197.22403      411.44486    
     21900  -102233.28      569.2437      -101664.04      197.83802      197.20133      411.63036    
     22000  -102203.18      558.25301     -101644.93      197.82194      197.17641      411.81586    
     22100  -102189.88      566.95155     -101622.93      197.80366      197.1513       412.00136    
     22200  -102171.47      569.38355     -101602.08      197.78095      197.12621      412.18687    
     22300  -102150.33      560.02067     -101590.31      197.7571       197.10026      412.37237    
     22400  -102144.21      566.43493     -101577.78      197.73359      197.07421      412.55787    
     22500  -102118.9       562.20382     -101556.69      197.71412      197.05148      412.74338    
     22600  -102095.3       564.65428     -101530.65      197.69358      197.02878      412.92888    
     22700  -102076.93      568.53454     -101508.4       197.67349      197.00815      413.11438    
     22800  -102057.63      567.54595     -101490.09      197.65371      196.99153      413.29988    
     22900  -102038.78      567.80904     -101470.97      197.63053      196.97496      413.48539    
     23000  -102019.82      566.92481     -101452.89      197.60636      196.95814      413.67089    
     23100  -102004.48      565.37908     -101439.1       197.5811       196.94214      413.85639    
     23200  -101982.07      560.96836     -101421.1       197.55436      196.92665      414.04189    
     23300  -101962.38      568.06982     -101394.31      197.52832      196.90933      414.2274     
     23400  -101938.5       570.4942      -101368.01      197.50369      196.88887      414.4129     
     23500  -101914.53      565.67267     -101348.86      197.48529      196.86918      414.5984     
     23600  -101899.27      567.08165     -101332.18      197.46606      196.84852      414.7839     
     23700  -101882.11      566.73738     -101315.37      197.44457      196.82739      414.96941    
     23800  -101857.02      559.64185     -101297.38      197.42368      196.80938      415.15491    
     23900  -101841.45      563.68003     -101277.77      197.39832      196.79131      415.34041    
     24000  -101824.03      570.10883     -101253.92      197.37307      196.7719       415.52591    
     24100  -101801.82      570.60482     -101231.22      197.35284      196.75372      415.71142    
     24200  -101781.43      561.96278     -101219.46      197.33178      196.73362      415.89692    
     24300  -101768.44      563.31491     -101205.13      197.31454      196.71465      416.08242    
     24400  -101745.67      561.18739     -101184.49      197.29869      196.69763      416.26793    
     24500  -101721.32      563.81618     -101157.51      197.27417      196.68127      416.45343    
     24600  -101708.7       574.17183     -101134.53      197.25251      196.66737      416.63893    
     24700  -101687.22      569.64102     -101117.58      197.22863      196.64845      416.82443    
     24800  -101670.63      570.10364     -101100.52      197.20666      196.62791      417.00994    
     24900  -101651.47      566.49373     -101084.98      197.19135      196.60707      417.19544    
     25000  -101638.42      567.48922     -101070.93      197.17287      196.58288      417.38094    
     25100  -101618.85      567.40957     -101051.44      197.1563       196.5603       417.56644    
     25200  -101592.37      568.26795     -101024.1       197.14337      196.53962      417.75195    
     25300  -101567.66      570.20623     -100997.45      197.12367      196.51718      417.93745    
     25400  -101550.25      569.32257     -100980.93      197.10676      196.49525      418.12295    
     25500  -101534.2       568.44674     -100965.76      197.09311      196.47453      418.30845    
     25600  -101510.91      562.8026      -100948.11      197.07653      196.45279      418.49396    
     25700  -101486.89      560.62893     -100926.26      197.06261      196.43223      418.67946    
     25800  -101470.41      572.71274     -100897.7       197.04616      196.41319      418.86496    
     25900  -101445.48      570.66841     -100874.82      197.02443      196.39726      419.05046    
     26000  -101424.35      562.78418     -100861.56      197.0048       196.38517      419.23597    
     26100  -101403.38      557.6956      -100845.69      196.9803       196.37161      419.42147    
     26200  -101383.6       561.76566     -100821.84      196.9563       196.35894      419.60697    
     26300  -101359.5       562.5729      -100796.92      196.9351       196.34678      419.79248    
     26400  -101330.67      562.15596     -100768.51      196.91157      196.33256      419.97798    
     26500  -101312.25      568.47034     -100743.78      196.8928       196.31843      420.16348    
     26600  -101289.9       563.34624     -100726.56      196.87922      196.3049       420.34898    
     26700  -101274.31      565.86445     -100708.45      196.86071      196.28698      420.53449    
     26800  -101259.55      566.99421     -100692.56      196.8461       196.27014      420.71999    
     26900  -101235.68      560.02162     -100675.66      196.83146      196.25391      420.90549    
     27000  -101208.82      562.14262     -100646.68      196.81276      196.23585      421.09099    
     27100  -101185.93      566.27275     -100619.66      196.79925      196.21903      421.2765     
     27200  -101165.86      568.6769      -100597.18      196.78493      196.19964      421.462      
     27300  -101144.77      566.7658      -100578.01      196.77072      196.1781       421.6475     
     27400  -101128.4       563.94136     -100564.46      196.76173      196.15692      421.833      
     27500  -101101.71      555.59277     -100546.11      196.74575      196.13429      422.01851    
     27600  -101082.67      565.36208     -100517.31      196.72977      196.11621      422.20401    
     27700  -101052.76      560.739       -100492.02      196.71119      196.10111      422.38951    
     27800  -101037.4       566.7423      -100470.66      196.68932      196.086        422.57502    
     27900  -101021.74      568.16331     -100453.58      196.6744       196.07401      422.76052    
     28000  -100999.14      561.42367     -100437.72      196.65891      196.06012      422.94602    
     28100  -100971.71      558.5424      -100413.17      196.64608      196.0474       423.13152    
     28200  -100944.19      564.41504     -100379.77      196.62816      196.03572      423.31703    
     28300  -100926.18      569.2355      -100356.94      196.60175      196.02221      423.50253    
     28400  -100898.45      563.08496     -100335.37      196.58285      196.01269      423.68803    
     28500  -100877.83      564.5628      -100313.27      196.56273      196.00221      423.87353    
     28600  -100847.74      557.98019     -100289.76      196.53864      195.98999      424.05904    
     28700  -100833.2       572.18626     -100261.01      196.52293      195.98215      424.24454    
     28800  -100808.64      571.65375     -100236.98      196.50476      195.97206      424.43004    
     28900  -100787.46      563.19797     -100224.26      196.48647      195.95855      424.61554    
     29000  -100773.68      567.86257     -100205.81      196.4792       195.9473       424.80105    
     29100  -100742.72      561.75455     -100180.96      196.4657       195.93085      424.98655    
     29200  -100720.05      565.31717     -100154.73      196.45102      195.91386      425.17205    
     29300  -100689.36      565.47739     -100123.88      196.43888      195.90043      425.35755    
     29400  -100668.3       571.15388     -100097.15      196.41852      195.8867       425.54306    
     29500  -100644.25      566.01723     -100078.23      196.3984       195.87486      425.72856    
     29600  -100626.94      567.88017     -100059.06      196.37802      195.86312      425.91406    
     29700  -100600.72      560.20408     -100040.52      196.35624      195.85103      426.09957    
     29800  -100580.14      559.49164     -100020.65      196.34232      195.83996      426.28507    
     29900  -100556.49      568.2159      -99988.275      196.32793      195.82648      426.47057    
     30000  -100529.27      569.06259     -99960.212      196.31305      195.81441      426.65607    
     30100  -100512.77      568.65509     -99944.12       196.30219      195.80636      426.84158    
     30200  -100489.78      562.29527     -99927.48       196.28451      195.7968       427.02708    
     30300  -100468.1       562.73646     -99905.367      196.26378      195.78832      427.21258    
     30400  -100444.57      566.65362     -99877.912      196.2429       195.77854      427.39808    
     30500  -100415.95      569.81492     -99846.135      196.22043      195.76514      427.58359    
     30600  -100390.2       565.8743      -99824.329      196.20289      195.75003      427.76909    
     30700  -100372.25      567.71797     -99804.53       196.18879      195.73473      427.95459    
     30800  -100351.29      566.4002      -99784.888      196.17559      195.71964      428.14009    
     30900  -100330.97      567.64738     -99763.325      196.16191      195.70645      428.3256     
     31000  -100301.42      561.61276     -99739.806      196.14626      195.69597      428.5111     
     31100  -100275.5       567.11385     -99708.382      196.12861      195.68738      428.6966     
     31200  -100251.3       570.53452     -99680.765      196.10887      195.67822      428.8821     
     31300  -100227.93      569.92353     -99658.009      196.0917       195.66941      429.06761    
     31400  -100203.94      565.07042     -99638.871      196.07668      195.66051      429.25311    
     31500  -100182.77      560.36173     -99622.408      196.06355      195.64931      429.43861    
     31600  -100154.07      557.99387     -99596.076      196.05165      195.63719      429.62412    
     31700  -100134.8       571.32004     -99563.478      196.03719      195.62523      429.80962    
     31800  -100102.25      562.37368     -99539.88       196.01952      195.61213      429.99512    
     31900  -100080.47      561.52606     -99518.946      196.00403      195.6001       430.18062    
     32000  -100060.24      560.05179     -99500.187      195.98929      195.58777      430.36613    
     32100  -100035.65      559.5791      -99476.072      195.97245      195.57384      430.55163    
     32200  -100007.62      565.22315     -99442.4        195.95912      195.5612       430.73713    
     32300  -99990.798      575.99225     -99414.805      195.94056      195.54577      430.92263    
     32400  -99962.69       566.18035     -99396.509      195.92347      195.53142      431.10814    
     32500  -99939.982      561.98125     -99378.001      195.91062      195.51959      431.29364    
     32600  -99915.789      561.92264     -99353.866      195.89037      195.50819      431.47914    
     32700  -99895.06       566.97635     -99328.084      195.87173      195.50029      431.66464    
     32800  -99865.758      565.11919     -99300.639      195.85683      195.49443      431.85015    
     32900  -99836.747      572.14118     -99264.606      195.83817      195.48494      432.03565    
     33000  -99810.446      570.0337      -99240.412      195.82545      195.47645      432.22115    
     33100  -99792.278      568.92165     -99223.356      195.81404      195.46607      432.40666    
     33200  -99769.405      566.28523     -99203.12       195.7968       195.45168      432.59216    
     33300  -99740.553      563.77636     -99176.776      195.78415      195.43951      432.77766    
     33400  -99709.747      564.25536     -99145.492      195.76845      195.42692      432.96316    
     33500  -99684.314      567.0942      -99117.219      195.74472      195.41243      433.14867    
     33600  -99665.337      564.40798     -99100.929      195.72691      195.40281      433.33417    
     33700  -99648.59       564.08212     -99084.508      195.70474      195.39161      433.51967    
     33800  -99617.685      562.62733     -99055.058      195.68432      195.37854      433.70517    
     33900  -99590.262      567.29736     -99022.964      195.67447      195.36851      433.89068    
     34000  -99565.136      569.02989     -98996.106      195.65868      195.35483      434.07618    
     34100  -99542.291      569.13996     -98973.151      195.6471       195.34261      434.26168    
     34200  -99523.912      565.54568     -98958.367      195.63789      195.33244      434.44718    
     34300  -99497.952      560.80322     -98937.149      195.6194       195.31967      434.63269    
     34400  -99471.226      562.16266     -98909.063      195.6047       195.31016      434.81819    
     34500  -99448.412      570.35497     -98878.057      195.58859      195.29954      435.00369    
     34600  -99417.993      566.36204     -98851.631      195.56557      195.28413      435.18919    
     34700  -99395.092      567.36249     -98827.729      195.55224      195.27061      435.3747     
     34800  -99368.564      564.67601     -98803.888      195.53593      195.25569      435.5602     
     34900  -99345.098      566.91652     -98778.181      195.51515      195.24022      435.7457     
     35000  -99309.468      565.85265     -98743.615      195.50459      195.22961      435.93121    
     35100  -99284.227      570.42746     -98713.8        195.48756      195.21864      436.11671    
     35200  -99265.708      572.58282     -98693.125      195.46649      195.20913      436.30221    
     35300  -99238.819      563.92899     -98674.89       195.45008      195.20203      436.48771    
     35400  -99208.497      558.84834     -98649.648      195.42904      195.19094      436.67322    
     35500  -99192.999      571.18218     -98621.817      195.41004      195.18057      436.85872    
     35600  -99162.204      570.43337     -98591.771      195.39357      195.17192      437.04422    
     35700  -99125.856      569.39889     -98556.457      195.37309      195.1609       437.22972    
     35800  -99105.438      572.99848     -98532.439      195.35751      195.15074      437.41523    
     35900  -99084.485      568.76699     -98515.718      195.34174      195.13808      437.60073    
     36000  -99064.663      569.84074     -98494.822      195.32266      195.12109      437.78623    
     36100  -99035.402      561.23402     -98474.168      195.30965      195.10422      437.97173    
     36200  -99008.991      559.31426     -98449.677      195.2929       195.08505      438.15724    
     36300  -98985.974      568.31159     -98417.662      195.27611      195.06757      438.34274    
     36400  -98957.043      571.27158     -98385.771      195.2618       195.05414      438.52824    
     36500  -98935.432      570.40116     -98365.031      195.24251      195.04083      438.71374    
     36600  -98909.698      565.66575     -98344.032      195.22663      195.02986      438.89925    
     36700  -98886.976      566.82142     -98320.154      195.21198      195.01965      439.08475    
     36800  -98863.171      568.95182     -98294.219      195.19273      195.00746      439.27025    
     36900  -98833.903      568.55787     -98265.345      195.17821      194.99754      439.45576    
     37000  -98806.856      576.52373     -98230.332      195.16105      194.98586      439.64126    
     37100  -98771.111      567.18016     -98203.931      195.13984      194.97344      439.82676    
     37200  -98748.938      563.48795     -98185.45       195.122        194.96272      440.01226    
     37300  -98730.782      567.24366     -98163.538      195.10078      194.94975      440.19777    
     37400  -98703.111      566.67179     -98136.439      195.08033      194.93619      440.38327    
     37500  -98676.402      568.24058     -98108.161      195.06423      194.92322      440.56877    
     37600  -98646.146      564.66094     -98081.485      195.04751      194.90702      440.75427    
     37700  -98623.436      561.99352     -98061.443      195.03408      194.88978      440.93978    
     37800  -98606.641      561.97267     -98044.668      195.02089      194.87251      441.12528    
     37900  -98573.431      560.51657     -98012.914      195.00382      194.85699      441.31078    
     38000  -98548.127      568.01557     -97980.111      194.9836       194.84389      441.49628    
     38100  -98519.108      568.89159     -97950.217      194.96124      194.83271      441.68179    
     38200  -98487.537      564.67212     -97922.865      194.93794      194.82247      441.86729    
     38300  -98466.744      567.23582     -97899.508      194.91676      194.81268      442.05279    
     38400  -98440.898      560.06626     -97880.831      194.89721      194.80236      442.23829    
     38500  -98419.144      562.08062     -97857.063      194.88077      194.78994      442.4238     
     38600  -98389.313      567.06429     -97822.249      194.86878      194.77626      442.6093     
     38700  -98354.478      562.57454     -97791.903      194.85325      194.7605       442.7948     
     38800  -98331.936      565.06879     -97766.868      194.83455      194.74256      442.98031    
     38900  -98309.022      563.39552     -97745.626      194.81854      194.72563      443.16581    
     39000  -98287.496      562.43608     -97725.06       194.79537      194.70722      443.35131    
     39100  -98256.208      555.91278     -97700.295      194.77156      194.69127      443.53681    
     39200  -98235.742      570.95963     -97664.782      194.75109      194.6775       443.72232    
     39300  -98193.868      560.48799     -97633.38       194.72907      194.66381      443.90782    
     39400  -98171.981      563.14728     -97608.834      194.71034      194.65263      444.09332    
     39500  -98151.851      564.18607     -97587.665      194.69185      194.64149      444.27882    
     39600  -98125.011      559.9526      -97565.058      194.6723       194.6296       444.46433    
     39700  -98104.46       570.11145     -97534.348      194.65565      194.61767      444.64983    
     39800  -98064.77       565.33929     -97499.431      194.63678      194.60412      444.83533    
     39900  -98037.758      566.28975     -97471.469      194.61767      194.59053      445.02083    
     40000  -98012.53       564.91141     -97447.619      194.60005      194.57718      445.20634    
     40100  -97996.045      566.11035     -97429.935      194.57656      194.55961      445.39184    
     40200  -97968.193      560.49423     -97407.699      194.55486      194.54182      445.57734    
     40300  -97944.261      564.27003     -97379.991      194.53817      194.52539      445.76285    
     40400  -97915.008      564.89215     -97350.116      194.51551      194.50604      445.94835    
     40500  -97879.575      558.41932     -97321.156      194.49571      194.48896      446.13385    
     40600  -97858.701      568.64055     -97290.061      194.47603      194.47217      446.31935    
     40700  -97827.414      566.8695      -97260.544      194.45489      194.45562      446.50486    
     40800  -97798.588      562.53204     -97236.056      194.43803      194.44166      446.69036    
     40900  -97784.062      564.21153     -97219.851      194.41881      194.42804      446.87586    
     41000  -97753.211      561.03604     -97192.175      194.3975       194.41583      447.06136    
     41100  -97724.535      566.18728     -97158.347      194.37853      194.40468      447.24687    
     41200  -97693.36       564.77687     -97128.583      194.35861      194.39121      447.43237    
     41300  -97670.647      569.24364     -97101.403      194.33927      194.37613      447.61787    
     41400  -97639.565      562.37818     -97077.187      194.32094      194.35974      447.80337    
     41500  -97620.575      561.32098     -97059.254      194.30102      194.34145      447.98888    
     41600  -97594.604      558.42437     -97036.18       194.2814       194.32391      448.17438    
     41700  -97558.097      556.42231     -97001.674      194.26016      194.30659      448.35988    
     41800  -97534.99       564.45173     -96970.538      194.23831      194.28902      448.54538    
     41900  -97506.215      564.83625     -96941.379      194.21691      194.27255      448.73089    
     42000  -97479.625      566.68006     -96912.945      194.19427      194.25675      448.91639    
     42100  -97450.502      564.0817      -96886.421      194.17222      194.24225      449.10189    
     42200  -97429.646      565.03771     -96864.608      194.15019      194.22764      449.2874     
     42300  -97402.172      559.67533     -96842.497      194.12875      194.21357      449.4729     
     42400  -97373.368      562.24191     -96811.126      194.11102      194.20124      449.6584     
     42500  -97340.181      565.16293     -96775.018      194.09212      194.18717      449.8439     
     42600  -97314.982      567.24268     -96747.74       194.07348      194.17251      450.02941    
     42700  -97292.183      566.93874     -96725.244      194.05504      194.15733      450.21491    
     42800  -97274.808      571.24816     -96703.56       194.03354      194.13854      450.40041    
     42900  -97238.508      560.01713     -96678.491      194.01239      194.11877      450.58591    
     43000  -97207.053      563.64151     -96643.411      193.99092      194.09964      450.77142    
     43100  -97179.806      569.96143     -96609.844      193.96594      194.07969      450.95692    
     43200  -97151.883      565.45895     -96586.424      193.94175      194.06264      451.14242    
     43300  -97134.104      567.84405     -96566.26       193.91784      194.04812      451.32792    
     43400  -97107.065      566.09114     -96540.973      193.89497      194.03369      451.51343    
     43500  -97075.622      565.17761     -96510.444      193.87553      194.02107      451.69893    
     43600  -97038.191      566.17349     -96472.018      193.85574      194.00891      451.88443    
     43700  -97017.393      573.17545     -96444.217      193.83479      193.99503      452.06993    
     43800  -96983.678      562.23473     -96421.443      193.81615      193.981        452.25544    
     43900  -96964.988      565.53964     -96399.448      193.79506      193.96588      452.44094    
     44000  -96937.069      561.76706     -96375.302      193.77143      193.94835      452.62644    
     44100  -96917.218      569.06485     -96348.153      193.75068      193.93084      452.81195    
     44200  -96879.235      564.41619     -96314.819      193.72767      193.91158      452.99745    
     44300  -96846.696      565.38735     -96281.308      193.7037       193.89088      453.18295    
     44400  -96825.556      566.53822     -96259.018      193.68428      193.87114      453.36845    
     44500  -96803.603      564.61046     -96238.992      193.66126      193.85024      453.55396    
     44600  -96771.725      558.70041     -96213.025      193.63921      193.83179      453.73946    
     44700  -96748.201      565.52892     -96182.672      193.62021      193.81616      453.92496    
     44800  -96715.235      567.58904     -96147.646      193.59555      193.7998       454.11046    
     44900  -96687.169      574.35584     -96112.813      193.57344      193.78582      454.29597    
     45000  -96658.174      566.31415     -96091.86       193.55322      193.77175      454.48147    
     45100  -96635.884      563.4983      -96072.386      193.52908      193.75497      454.66697    
     45200  -96607.445      562.58016     -96044.865      193.50921      193.7408       454.85247    
     45300  -96579.208      562.45223     -96016.756      193.4866       193.72566      455.03798    
     45400  -96553.392      564.43342     -95988.959      193.46058      193.7079       455.22348    
     45500  -96525.798      564.47014     -95961.328      193.43953      193.69152      455.40898    
     45600  -96498.681      562.97286     -95935.708      193.41783      193.674        455.59449    
     45700  -96476.445      564.96795     -95911.477      193.39251      193.65343      455.77999    
     45800  -96445.088      560.8437      -95884.245      193.37175      193.63539      455.96549    
     45900  -96419.344      568.05259     -95851.291      193.34996      193.61714      456.15099    
     46000  -96382.753      566.01277     -95816.74       193.3259       193.59802      456.3365     
     46100  -96356.179      566.63666     -95789.543      193.30698      193.58228      456.522      
     46200  -96332.533      561.90376     -95770.629      193.28561      193.5665       456.7075     
     46300  -96306.245      558.85349     -95747.392      193.26286      193.55124      456.893      
     46400  -96280.939      564.16405     -95716.775      193.24192      193.53743      457.07851    
     46500  -96250.007      566.83008     -95683.177      193.21958      193.5221       457.26401    
     46600  -96217.16       564.58531     -95652.574      193.19799      193.50659      457.44951    
     46700  -96193.384      567.05185     -95626.332      193.17499      193.48879      457.63501    
     46800  -96173.184      563.60031     -95609.583      193.15218      193.47071      457.82052    
     46900  -96140.333      557.10995     -95583.223      193.12836      193.45159      458.00602    
     47000  -96115.285      564.20957     -95551.075      193.10369      193.43253      458.19152    
     47100  -96085.165      568.08407     -95517.081      193.08182      193.41537      458.37702    
     47200  -96052.651      569.68373     -95482.967      193.05845      193.39774      458.56253    
     47300  -96018.884      569.00266     -95449.882      193.03522      193.38132      458.74803    
     47400  -95996.965      570.28207     -95426.683      193.01245      193.36579      458.93353    
     47500  -95970.488      562.45827     -95408.03       192.98825      193.34968      459.11904    
     47600  -95948.018      564.09071     -95383.928      192.96536      193.33429      459.30454    
     47700  -95916.886      560.27915     -95356.607      192.94443      193.31934      459.49004    
     47800  -95888.976      564.93906     -95324.037      192.92388      193.30252      459.67554    
     47900  -95857.281      568.93075     -95288.35       192.9054       193.2857       459.86105    
     48000  -95831.802      571.31516     -95260.487      192.88478      193.26865      460.04655    
     48100  -95807.881      564.59637     -95243.284      192.86131      193.25094      460.23205    
     48200  -95778.022      561.28352     -95216.738      192.83905      193.23328      460.41755    
     48300  -95748.957      562.00747     -95186.95       192.81571      193.21507      460.60306    
     48400  -95722.739      567.84694     -95154.892      192.79274      193.19616      460.78856    
     48500  -95693.714      570.16042     -95123.554      192.7732       193.17774      460.97406    
     48600  -95662.349      560.14002     -95102.209      192.75072      193.15814      461.15956    
     48700  -95645.262      565.21625     -95080.046      192.72883      193.13907      461.34507    
     48800  -95614.198      563.96588     -95050.232      192.70946      193.12067      461.53057    
     48900  -95589.531      571.65538     -95017.875      192.68765      193.10235      461.71607    
     49000  -95556.518      574.4743      -94982.043      192.66623      193.08615      461.90157    
     49100  -95524.389      573.94437     -94950.444      192.64608      193.07098      462.08708    
     49200  -95500.134      567.69895     -94932.436      192.62259      193.05531      462.27258    
     49300  -95472.012      563.51791     -94908.494      192.60076      193.04085      462.45808    
     49400  -95449.528      566.34681     -94883.181      192.57994      193.02518      462.64359    
     49500  -95421.048      564.04625     -94857.002      192.55733      193.00745      462.82909    
     49600  -95390.096      564.97957     -94825.117      192.53572      192.9911       463.01459    
     49700  -95357.493      569.46171     -94788.032      192.51273      192.97457      463.20009    
     49800  -95329.069      569.37694     -94759.693      192.48902      192.9575       463.3856     
     49900  -95306.156      566.8695      -94739.287      192.46765      192.94201      463.5711     
     50000  -95275.059      562.06782     -94712.991      192.44524      192.92433      463.7566     
     50100  -95250.362      566.95645     -94683.406      192.42326      192.90572      463.9421     
     50200  -95217.48       564.24276     -94653.238      192.40155      192.88774      464.12761    
     50300  -95185.059      564.96085     -94620.098      192.37653      192.86857      464.31311    
     50400  -95159.594      570.33523     -94589.259      192.35235      192.85043      464.49861    
     50500  -95135.356      565.06451     -94570.292      192.33089      192.83439      464.68411    
     50600  -95112.602      565.73788     -94546.864      192.30846      192.81747      464.86962    
     50700  -95081.235      562.19134     -94519.043      192.28658      192.80066      465.05512    
     50800  -95051.407      565.76254     -94485.644      192.26632      192.78643      465.24062    
     50900  -95022.863      572.08185     -94450.781      192.24341      192.7708       465.42613    
     51000  -94998.894      570.7596      -94428.135      192.22129      192.75328      465.61163    
     51100  -94972.983      565.26417     -94407.718      192.20276      192.73588      465.79713    
     51200  -94942.154      563.23015     -94378.924      192.18339      192.7163       465.98263    
     51300  -94913.968      565.30172     -94348.666      192.16199      192.69679      466.16814    
     51400  -94881.218      566.23584     -94314.982      192.13905      192.67933      466.35364    
     51500  -94855.563      575.68117     -94279.881      192.1137       192.66132      466.53914    
     51600  -94823.585      570.04179     -94253.543      192.0899       192.64394      466.72464    
     51700  -94798.783      563.81899     -94234.964      192.0674       192.62846      466.91015    
     51800  -94768.376      560.58249     -94207.794      192.04231      192.61269      467.09565    
     51900  -94741.877      564.57828     -94177.299      192.0198       192.59826      467.28115    
     52000  -94710.902      566.90362     -94143.998      191.998        192.58405      467.46665    
     52100  -94682.568      572.43566     -94110.132      191.97714      192.56808      467.65216    
     52200  -94657.226      571.01515     -94086.211      191.9614       192.551        467.83766    
     52300  -94631.142      565.50191     -94065.64       191.94526      192.53181      468.02316    
     52400  -94598.84       560.92949     -94037.91       191.9268       192.51147      468.20866    
     52500  -94571.673      562.64564     -94009.028      191.90817      192.49126      468.39417    
     52600  -94548.024      567.14903     -93980.875      191.88635      192.47185      468.57967    
     52700  -94523.138      566.24795     -93956.89       191.85968      192.45254      468.76517    
     52800  -94498.138      566.43363     -93931.704      191.83633      192.43715      468.95068    
     52900  -94465.07       566.34203     -93898.728      191.80973      192.42143      469.13618    
     53000  -94430.658      570.44867     -93860.209      191.78315      192.40527      469.32168    
     53100  -94397.885      566.93089     -93830.954      191.76174      192.39031      469.50718    
     53200  -94372.263      565.00851     -93807.254      191.74056      192.37299      469.69269    
     53300  -94345.954      564.98066     -93780.974      191.72358      192.35545      469.87819    
     53400  -94322.516      567.32549     -93755.19       191.70786      192.33722      470.06369    
     53500  -94290.276      560.69902     -93729.577      191.68952      192.31853      470.24919    
     53600  -94265.898      564.00836     -93701.89       191.67078      192.30246      470.4347     
     53700  -94233.149      561.5345      -93671.615      191.64834      192.28667      470.6202     
     53800  -94204.755      568.41962     -93636.335      191.62359      192.2705       470.8057     
     53900  -94179.607      575.70695     -93603.9        191.60118      192.25589      470.9912     
     54000  -94149.908      567.65731     -93582.251      191.57565      192.2394       471.17671    
     54100  -94124.163      566.7321      -93557.431      191.5519       192.22102      471.36221    
     54200  -94095.202      566.72367     -93528.478      191.53355      192.20311      471.54771    
     54300  -94070.354      570.59389     -93499.76       191.51272      192.18379      471.73321    
     54400  -94038.015      565.48788     -93472.527      191.49409      192.16573      471.91872    
     54500  -94008.843      561.71128     -93447.132      191.47637      192.14953      472.10422    
     54600  -93983.669      565.19573     -93418.473      191.45435      192.1343       472.28972    
     54700  -93946.944      558.7057      -93388.238      191.43166      192.11964      472.47523    
     54800  -93918.792      564.15539     -93354.636      191.4098       192.10436      472.66073    
     54900  -93893.275      572.13358     -93321.142      191.38694      192.08669      472.84623    
     55000  -93867.581      570.18461     -93297.397      191.36532      192.06863      473.03173    
     55100  -93843.579      569.34429     -93274.234      191.34353      192.04928      473.21724    
     55200  -93810.626      565.4578      -93245.169      191.32162      192.0294       473.40274    
     55300  -93782.254      566.92103     -93215.333      191.30107      192.01105      473.58824    
     55400  -93751.784      565.12847     -93186.656      191.27994      191.99383      473.77374    
     55500  -93722.635      562.19798     -93160.437      191.26024      191.97866      473.95925    
     55600  -93700.231      566.73172     -93133.499      191.23834      191.96377      474.14475    
     55700  -93662.14       560.49938     -93101.64       191.21542      191.94918      474.33025    
     55800  -93631.928      569.53242     -93062.396      191.19303      191.93439      474.51575    
     55900  -93601.412      570.96644     -93030.446      191.16885      191.91823      474.70126    
     56000  -93579.098      572.42086     -93006.677      191.14728      191.9011       474.88676    
     56100  -93542.589      562.43535     -92980.154      191.12693      191.88238      475.07226    
     56200  -93523.528      569.92296     -92953.605      191.10428      191.86277      475.25776    
     56300  -93491.858      563.34844     -92928.509      191.08373      191.84447      475.44327    
     56400  -93467.57       565.47792     -92902.092      191.06252      191.82616      475.62877    
     56500  -93431.115      559.50551     -92871.61       191.03968      191.80828      475.81427    
     56600  -93406.842      567.69685     -92839.145      191.01921      191.79227      475.99978    
     56700  -93378.279      571.12777     -92807.151      190.99663      191.77444      476.18528    
     56800  -93346.016      564.61769     -92781.398      190.97615      191.75787      476.37078    
     56900  -93323.116      566.49698     -92756.619      190.95702      191.74133      476.55628    
     57000  -93289.481      560.61232     -92728.869      190.936        191.72334      476.74179    
     57100  -93266.295      567.18483     -92699.11       190.91746      191.70666      476.92729    
     57200  -93235.736      568.25193     -92667.484      190.89706      191.68997      477.11279    
     57300  -93203.254      567.45829     -92635.796      190.87493      191.67252      477.29829    
     57400  -93168.242      563.67243     -92604.569      190.85455      191.65722      477.4838     
     57500  -93145.57       566.69429     -92578.876      190.83039      191.64182      477.6693     
     57600  -93118.847      565.40146     -92553.446      190.80576      191.62645      477.8548     
     57700  -93088.311      565.83995     -92522.471      190.7829       191.61144      478.0403     
     57800  -93054.67       566.40344     -92488.267      190.759        191.5944       478.22581    
     57900  -93023.009      575.71902     -92447.29       190.73861      191.57708      478.41131    
     58000  -92994.519      576.48159     -92418.037      190.71766      191.55829      478.59681    
     58100  -92967.711      571.91199     -92395.799      190.69659      191.54053      478.78232    
     58200  -92940.091      569.49313     -92370.598      190.67603      191.5233       478.96782    
     58300  -92913.934      567.17833     -92346.756      190.65576      191.50636      479.15332    
     58400  -92887.481      568.38612     -92319.095      190.6343       191.48969      479.33882    
     58500  -92854.907      565.95892     -92288.948      190.61262      191.47235      479.52433    
     58600  -92817.408      557.79511     -92259.613      190.59311      191.45486      479.70983    
     58700  -92794.968      560.24414     -92234.724      190.56984      191.43636      479.89533    
     58800  -92765.941      558.3853      -92207.556      190.54782      191.41952      480.08083    
     58900  -92737.457      562.43767     -92175.019      190.5257       191.40267      480.26634    
     59000  -92699.815      565.90027     -92133.914      190.50096      191.38561      480.45184    
     59100  -92672.282      575.24631     -92097.036      190.47871      191.37119      480.63734    
     59200  -92643.419      572.24245     -92071.177      190.45634      191.35589      480.82284    
     59300  -92608.177      563.18629     -92044.991      190.43419      191.34068      481.00835    
     59400  -92586.067      569.04585     -92017.021      190.412        191.32516      481.19385    
     59500  -92552.895      563.95534     -91988.939      190.3901       191.30794      481.37935    
     59600  -92530.553      570.34573     -91960.207      190.368        191.28872      481.56485    
     59700  -92496.159      565.06889     -91931.09       190.34863      191.27026      481.75036    
     59800  -92468.507      558.65055     -91909.857      190.32777      191.25045      481.93586    
     59900  -92437.63       560.8688      -91876.761      190.30508      191.23043      482.12136    
     60000  -92396.807      559.13534     -91837.672      190.28441      191.21296      482.30687    
     60100  -92370.069      568.37786     -91801.691      190.26183      191.19487      482.49237    
     60200  -92342.49       568.08422     -91774.405      190.23836      191.17666      482.67787    
     60300  -92309.83       561.1941      -91748.636      190.21833      191.16113      482.86337    
     60400  -92283.252      564.17455     -91719.078      190.19576      191.1441       483.04888    
     60500  -92250.259      561.08241     -91689.177      190.17391      191.12739      483.23438    
     60600  -92229.193      569.16852     -91660.025      190.15547      191.11106      483.41988    
     60700  -92193.603      561.57752     -91632.025      190.13494      191.0919       483.60538    
     60800  -92166.331      563.99306     -91602.338      190.11667      191.0737       483.79089    
     60900  -92144.216      566.87652     -91577.339      190.09631      191.05538      483.97639    
     61000  -92107.001      560.55348     -91546.447      190.0727       191.03671      484.16189    
     61100  -92071.807      565.76173     -91506.045      190.0504       191.02058      484.34739    
     61200  -92042.578      574.18075     -91468.397      190.02485      191.00331      484.5329     
     61300  -92008.115      571.07094     -91437.044      190.00159      190.98564      484.7184     
     61400  -91975.921      567.88101     -91408.04       189.98055      190.96762      484.9039     
     61500  -91949.574      570.67356     -91378.9        189.95706      190.94788      485.0894     
     61600  -91915.695      566.86361     -91348.831      189.93644      190.92963      485.27491    
     61700  -91885.426      566.5411      -91318.885      189.91665      190.9118       485.46041    
     61800  -91850.021      562.23225     -91287.788      189.8958       190.89394      485.64591    
     61900  -91824.865      570.55034     -91254.315      189.87729      190.87925      485.83142    
     62000  -91794.172      570.58465     -91223.587      189.85457      190.86327      486.01692    
     62100  -91759.89       565.66201     -91194.228      189.83203      190.84768      486.20242    
     62200  -91729.574      565.95525     -91163.619      189.81071      190.8318       486.38792    
     62300  -91696.541      565.33709     -91131.203      189.7848       190.81254      486.57343    
     62400  -91665.912      567.61736     -91098.294      189.76177      190.79361      486.75893    
     62500  -91635.011      569.73612     -91065.275      189.73799      190.77257      486.94443    
     62600  -91596.306      563.87456     -91032.432      189.71406      190.75123      487.12993    
     62700  -91566.735      567.01525     -90999.72       189.69187      190.73221      487.31544    
     62800  -91535.812      566.45556     -90969.357      189.66922      190.71421      487.50094    
     62900  -91507.879      569.22231     -90938.656      189.64931      190.69842      487.68644    
     63000  -91470.686      565.45179     -90905.234      189.62835      190.6814       487.87194    
     63100  -91436.858      564.49822     -90872.36       189.60837      190.66512      488.05745    
     63200  -91406.46       564.74559     -90841.714      189.58859      190.64849      488.24295    
     63300  -91377.506      566.83129     -90810.675      189.5667       190.62961      488.42845    
     63400  -91346.298      570.20004     -90776.097      189.54577      190.61273      488.61396    
     63500  -91312.984      572.03518     -90740.949      189.52095      190.59499      488.79946    
     63600  -91275.898      569.00973     -90706.888      189.49755      190.57908      488.98496    
     63700  -91242.126      567.57105     -90674.555      189.4742       190.56381      489.17046    
     63800  -91217.119      575.02438     -90642.095      189.44909      190.54711      489.35597    
     63900  -91176.396      568.50284     -90607.893      189.42682      190.53116      489.54147    
     64000  -91142.067      566.2133      -90575.854      189.40366      190.51221      489.72697    
     64100  -91107.695      563.48982     -90544.205      189.38332      190.49204      489.91247    
     64200  -91074.056      564.53235     -90509.524      189.36457      190.47078      490.09798    
     64300  -91039.552      563.56936     -90475.982      189.34376      190.44846      490.28348    
     64400  -91010.411      569.01577     -90441.395      189.325        190.4298       490.46898    
     64500  -90969.28       561.47493     -90407.805      189.30127      190.41178      490.65448    
     64600  -90942.416      568.4165      -90374          189.27673      190.39652      490.83999    
     64700  -90905.374      565.26436     -90340.11       189.25279      190.38306      491.02549    
     64800  -90870.38       562.60264     -90307.777      189.22748      190.36781      491.21099    
     64900  -90838.226      564.38097     -90273.845      189.20668      190.35417      491.39649    
     65000  -90804.516      566.29022     -90238.226      189.18404      190.33768      491.582      
     65100  -90768.172      565.28829     -90202.884      189.16306      190.32028      491.7675     
     65200  -90737.231      569.81924     -90167.411      189.14289      190.30192      491.953      
     65300  -90696.489      564.12143     -90132.368      189.11846      190.28171      492.13851    
     65400  -90668.935      570.62968     -90098.306      189.0943       190.26256      492.32401    
     65500  -90639.916      575.98471     -90063.932      189.07005      190.24466      492.50951    
     65600  -90602.566      575.49761     -90027.069      189.04438      190.22631      492.69501    
     65700  -90557.783      567.24438     -89990.539      189.0216       190.20973      492.88052    
     65800  -90525.261      570.38368     -89954.877      188.99932      190.19325      493.06602    
     65900  -90491.682      572.21955     -89919.462      188.97665      190.17658      493.25152    
     66000  -90448.594      564.6052      -89883.989      188.95545      190.15997      493.43702    
     66100  -90419.096      570.60617     -89848.489      188.93475      190.14316      493.62253    
     66200  -90380.62       567.45871     -89813.161      188.91276      190.12582      493.80803    
     66300  -90345.471      569.56409     -89775.907      188.8928       190.1111       493.99353    
     66400  -90307.157      568.18941     -89738.967      188.87009      190.09587      494.17903    
     66500  -90270.277      568.77836     -89701.499      188.84733      190.08104      494.36454    
     66600  -90232.778      568.07556     -89664.702      188.82483      190.06585      494.55004    
     66700  -90198.47       568.60463     -89629.865      188.79983      190.04758      494.73554    
     66800  -90160.827      568.19805     -89592.629      188.77811      190.02996      494.92104    
     66900  -90124.005      567.65826     -89556.347      188.75362      190.01112      495.10655    
     67000  -90086.509      567.7582      -89518.751      188.72928      189.99284      495.29205    
     67100  -90053.052      571.60649     -89481.446      188.70681      189.97634      495.47755    
     67200  -90009.022      566.46352     -89442.559      188.68315      189.95998      495.66306    
     67300  -89969.774      565.1074      -89404.667      188.66312      189.94508      495.84856    
     67400  -89938.478      571.83285     -89366.645      188.64249      189.9276       496.03406    
     67500  -89890.386      562.00639     -89328.38       188.62176      189.90912      496.21956    
     67600  -89857.838      568.82557     -89289.013      188.60271      189.89236      496.40507    
     67700  -89821.162      570.49178     -89250.671      188.5795       189.87466      496.59057    
     67800  -89786.981      576.1118      -89210.869      188.55767      189.85887      496.77607    
     67900  -89741.711      568.59104     -89173.12       188.53556      189.84432      496.96157    
     68000  -89704.38       570.67849     -89133.702      188.51034      189.82873      497.14708    
     68100  -89664.403      569.24384     -89095.159      188.48799      189.8141       497.33258    
     68200  -89623.466      567.82027     -89055.646      188.46409      189.79623      497.51808    
     68300  -89587.266      571.53897     -89015.727      188.4422       189.77809      497.70358    
     68400  -89545.594      570.7054      -88974.888      188.42068      189.75875      497.88909    
     68500  -89504.339      568.5528      -88935.786      188.39975      189.73942      498.07459    
     68600  -89465.845      569.01642     -88896.829      188.38123      189.72225      498.26009    
     68700  -89426.721      569.44914     -88857.272      188.36006      189.70523      498.4456     
     68800  -89386.076      569.27301     -88816.803      188.33805      189.69015      498.6311     
     68900  -89343.462      568.29954     -88775.163      188.31429      189.67453      498.8166     
     69000  -89306.929      572.2292      -88734.7        188.29044      189.65817      499.0021     
     69100  -89263.286      570.1628      -88693.123      188.2688       189.6422       499.18761    
     69200  -89222.506      571.64129     -88650.864      188.24875      189.62652      499.37311    
     69300  -89180.325      572.26803     -88608.057      188.22882      189.61067      499.55861    
     69400  -89136.141      571.08111     -88565.06       188.2089       189.59443      499.74411    
     69500  -89091.511      567.04183     -88524.469      188.18721      189.57731      499.92962    
     69600  -89058.717      574.35684     -88484.361      188.16375      189.55879      500.11512    
     69700  -89016.482      574.23659     -88442.246      188.14193      189.54027      500.30062    
     69800  -88968.782      567.79317     -88400.989      188.1202       189.5216       500.48612    
     69900  -88931.522      571.8461      -88359.676      188.10005      189.50437      500.67163    
     70000  -88894.694      575.42203     -88319.272      188.08066      189.48813      500.85713    
     70100  -88848.963      571.95837     -88277.005      188.05931      189.47091      501.04263    
     70200  -88806.017      572.48898     -88233.528      188.03988      189.45553      501.22813    
     70300  -88758.347      569.87363     -88188.473      188.01829      189.43874      501.41364    
     70400  -88714.554      568.28498     -88146.269      187.99726      189.42187      501.59914    
     70500  -88674.593      573.07768     -88101.515      187.97728      189.4053       501.78464    
     70600  -88628.294      571.06228     -88057.232      187.95612      189.38893      501.97015    
     70700  -88592.118      577.28495     -88014.833      187.9344       189.37362      502.15565    
     70800  -88542.124      571.93393     -87970.19       187.91175      189.3579       502.34115    
     70900  -88506.698      580.50538     -87926.193      187.89006      189.34223      502.52665    
     71000  -88457.988      577.36516     -87880.623      187.86825      189.32551      502.71216    
     71100  -88406.873      571.71329     -87835.16       187.84794      189.30873      502.89766    
     71200  -88368.14       577.04956     -87791.09       187.82925      189.29134      503.08316    
     71300  -88322.622      574.84642     -87747.775      187.81042      189.27296      503.26866    
     71400  -88282.478      579.263       -87703.215      187.791        189.2549       503.45417    
     71500  -88234.02       577.55436     -87656.465      187.76985      189.23779      503.63967    
     71600  -88185.944      576.14014     -87609.804      187.7474       189.22061      503.82517    
     71700  -88144.101      579.77147     -87564.33       187.72585      189.20507      504.01067    
     71800  -88100.193      580.2248      -87519.968      187.70383      189.18984      504.19618    
     71900  -88053.536      582.29483     -87471.242      187.68279      189.17505      504.38168    
     72000  -88001.574      581.08354     -87420.49       187.66267      189.15933      504.56718    
     72100  -87956.415      582.15289     -87374.262      187.6429       189.14301      504.75268    
     72200  -87907.612      580.30397     -87327.308      187.6223       189.12678      504.93819    
     72300  -87865.171      585.50407     -87279.667      187.60162      189.11097      505.12369    
     72400  -87809.228      577.26679     -87231.961      187.58195      189.09483      505.30919    
     72500  -87771.388      584.76096     -87186.627      187.56233      189.07769      505.4947     
     72600  -87721.725      584.58946     -87137.136      187.54275      189.06058      505.6802     
     72700  -87675.325      587.09842     -87088.227      187.52222      189.04384      505.8657     
     72800  -87627.398      587.21665     -87040.182      187.49923      189.02627      506.0512     
     72900  -87583.731      590.22087     -86993.511      187.47768      189.01039      506.23671    
     73000  -87529.112      583.1491      -86945.963      187.45604      188.99485      506.42221    
     73100  -87477.433      578.73251     -86898.7        187.43469      188.97933      506.60771    
     73200  -87439.729      592.21968     -86847.509      187.41656      188.96544      506.79321    
     73300  -87382.084      586.38621     -86795.698      187.3972       188.95043      506.97872    
     73400  -87341.28       594.1749      -86747.105      187.3776       188.93519      507.16422    
     73500  -87293.777      596.9961      -86696.781      187.35807      188.91925      507.34972    
     73600  -87239.129      594.01549     -86645.114      187.33703      188.90152      507.53522    
     73700  -87192          595.61938     -86596.38       187.31723      188.8858       507.72073    
     73800  -87140.832      596.02459     -86544.807      187.29567      188.86963      507.90623    
     73900  -87086.054      591.74242     -86494.311      187.27433      188.85275      508.09173    
     74000  -87042.546      599.19337     -86443.352      187.25414      188.83549      508.27723    
     74100  -86997.43       607.37807     -86390.052      187.23338      188.81727      508.46274    
     74200  -86932.982      601.05668     -86331.926      187.21391      188.79996      508.64824    
     74300  -86895.056      612.47565     -86282.581      187.19525      188.78388      508.83374    
     74400  -86835.843      604.6377      -86231.205      187.17616      188.76787      509.01925    
     74500  -86786.767      608.22682     -86178.54       187.15644      188.75146      509.20475    
     74600  -86734.527      608.05746     -86126.469      187.13623      188.73486      509.39025    
     74700  -86688.758      619.04875     -86069.709      187.11741      188.71889      509.57575    
     74800  -86624.425      609.70854     -86014.717      187.09889      188.70235      509.76126    
     74900  -86572.852      611.85747     -85960.995      187.07998      188.68564      509.94676    
     75000  -86527.89       617.61326     -85910.277      187.06131      188.66931      510.13226    
     75100  -86471.937      612.67709     -85859.26       187.04095      188.65173      510.31776    
     75200  -86418.722      615.24732     -85803.474      187.01966      188.63418      510.50327    
     75300  -86363.94       620.13983     -85743.801      186.99908      188.61783      510.68877    
     75400  -86311.467      623.69003     -85687.777      186.97754      188.59994      510.87427    
     75500  -86260.875      630.64822     -85630.227      186.95927      188.58322      511.05977    
     75600  -86193.252      621.63633     -85571.615      186.94045      188.5659       511.24528    
     75700  -86147.13       626.63707     -85520.493      186.92193      188.54944      511.43078    
     75800  -86092.421      628.73748     -85463.683      186.90448      188.53459      511.61628    
     75900  -86027.935      629.21574     -85398.719      186.88422      188.51788      511.80179    
     76000  -85971.182      636.92555     -85334.257      186.86594      188.50235      511.98729    
     76100  -85923.694      648.90535     -85274.788      186.8456       188.48474      512.17279    
     76200  -85873.026      660.17792     -85212.848      186.82501      188.46682      512.35829    
     76300  -85931.085      761.25513     -85169.83       186.80613      188.45002      512.5438     
     76400  -86321.099      1105.6584     -85215.44       186.78628      188.43344      512.7293     
     76500  -87092.784      1627.0031     -85465.781      186.77335      188.42052      512.9148     
     76600  -88370.493      2179.4067     -86191.086      186.77619      188.41564      513.1003     
     76700  -89963.982      2496.0425     -87467.939      186.8013       188.42671      513.28581    
     76800  -91337.744      2344.2382     -88993.505      186.8387       188.44154      513.47131    
     76900  -92569.476      2121.8657     -90447.61       186.8697       188.45116      513.65681    
     77000  -93676.641      1911.8836     -91764.757      186.90318      188.46136      513.84231    
     77100  -94643.535      1716.075      -92927.46       186.94251      188.47488      514.02782    
     77200  -95506.84       1553.6337     -93953.206      186.9881       188.49132      514.21332    
     77300  -96270.899      1415.178      -94855.721      187.03524      188.50756      514.39882    
     77400  -96953.078      1300.3081     -95652.77       187.08318      188.52372      514.58432    
     77500  -97565.755      1205.6311     -96360.124      187.13392      188.54014      514.76983    
     77600  -98130.117      1132.2127     -96997.904      187.18149      188.55372      514.95533    
     77700  -98659.637      1077.281      -97582.356      187.22687      188.56487      515.14083    
     77800  -99156.149      1031.3673     -98124.781      187.27378      188.57602      515.32634    
     77900  -99623.853      992.01393     -98631.839      187.32042      188.58672      515.51184    
     78000  -100067.43      958.91726     -99108.512      187.3675       188.59831      515.69734    
     78100  -100490.32      930.26459     -99560.052      187.41392      188.61036      515.88284    
     78200  -100894.19      904.94766     -99989.238      187.45792      188.62207      516.06835    
     78300  -101282.7       883.35033     -100399.35      187.50119      188.63459      516.25385    
     78400  -101657.65      864.74652     -100792.9       187.54409      188.64762      516.43935    
     78500  -102018.56      847.17757     -101171.38      187.58613      188.66049      516.62485    
     78600  -102370.24      833.20008     -101537.04      187.62808      188.67393      516.81036    
     78700  -102714.17      821.73819     -101892.43      187.669        188.68655      516.99586    
     78800  -103045.58      806.8568      -102238.73      187.70895      188.69852      517.18136    
     78900  -103332.8       770.13148     -102562.67      187.74918      188.71106      517.36686    
     79000  -103584.63      731.36037     -102853.27      187.78944      188.7237       517.55237    
     79100  -103803.78      693.61087     -103110.17      187.83044      188.73637      517.73787    
     79200  -103996.06      661.34011     -103334.72      187.87243      188.74991      517.92337    
     79300  -104161.2       632.20532     -103529         187.91375      188.76386      518.10887    
     79400  -104300.12      605.62323     -103694.5       187.95586      188.77914      518.29438    
     79500  -104412.96      582.16119     -103830.79      187.99909      188.79496      518.47988    
     79600  -104502.45      565.21529     -103937.23      188.04235      188.81083      518.66538    
     79700  -104563.63      550.79135     -104012.84      188.08795      188.82774      518.85089    
     79800  -104593.99      541.79289     -104052.2       188.13659      188.84567      519.03639    
     79900  -104591.46      543.23827     -104048.22      188.18705      188.86379      519.22189    
     80000  -104567.13      560.62522     -104006.5       188.23562      188.88111      519.40739    
     80100  -104513.4       557.13085     -103956.27      188.27989      188.8969       519.5929     
     80200  -104423.85      528.17009     -103895.68      188.32044      188.91159      519.7784     
     80300  -104309.81      512.02415     -103797.79      188.35616      188.92506      519.9639     
     80400  -104190.04      514.42251     -103675.62      188.38048      188.93257      520.1494     
     80500  -104089.37      538.12159     -103551.25      188.39789      188.93603      520.33491    
     80600  -103999.04      558.02919     -103441.01      188.41089      188.94576      520.52041    
     80700  -103955.5       597.62215     -103357.87      188.39895      188.95223      520.70591    
     80800  -103938.13      595.51863     -103342.61      188.38506      188.96663      520.89141    
     80900  -103894.19      524.48302     -103369.71      188.37369      188.98485      521.07692    
     81000  -103894.36      555.18831     -103339.17      188.38609      189.01805      521.26242    
     81100  -103860.75      575.5572      -103285.19      188.40931      189.06107      521.44792    
     81200  -103814.27      571.73094     -103242.54      188.42687      189.09097      521.63343    
     81300  -103782.07      569.24955     -103212.82      188.44077      189.10722      521.81893    
     81400  -103744.73      556.00738     -103188.73      188.46494      189.12946      522.00443    
     81500  -103722.37      570.48456     -103151.88      188.49803      189.14586      522.18993    
     81600  -103702.28      574.92653     -103127.36      188.52901      189.15151      522.37544    
     81700  -103667.07      554.22877     -103112.84      188.56436      189.16201      522.56094    
     81800  -103657.57      573.40441     -103084.17      188.59385      189.16378      522.74644    
     81900  -103645         581.97013     -103063.03      188.62752      189.17098      522.93194    
     82000  -103640.96      572.23864     -103068.72      188.65824      189.17217      523.11745    
     82100  -103653.4       567.27262     -103086.13      188.68294      189.17336      523.30295    
     82200  -103663.54      560.52161     -103103.02      188.71495      189.17741      523.48845    
     82300  -103672.8       558.98333     -103113.82      188.7389       189.18385      523.67395    
     82400  -103679.49      566.18383     -103113.31      188.76517      189.19366      523.85946    
     82500  -103686.64      577.38695     -103109.25      188.79373      189.20406      524.04496    
     82600  -103703.75      577.37095     -103126.38      188.81783      189.20358      524.23046    
     82700  -103731.58      569.02722     -103162.55      188.86163      189.20738      524.41596    
     82800  -103734.5       540.73066     -103193.77      188.90341      189.20748      524.60147    
     82900  -103747.21      559.97468     -103187.24      188.945        189.20915      524.78697    
     83000  -103733.62      573.69426     -103159.92      188.97458      189.20803      524.97247    
     83100  -103737.87      587.41615     -103150.45      188.99588      189.21045      525.15798    
     83200  -103752.85      569.94066     -103182.91      189.0288       189.22087      525.34348    
     83300  -103783.41      556.65908     -103226.75      189.0573       189.23238      525.52898    
     83400  -103788.43      540.50581     -103247.93      189.08518      189.23896      525.71448    
     83500  -103796.69      564.11364     -103232.58      189.11786      189.24765      525.89999    
     83600  -103787.43      578.17096     -103209.26      189.15257      189.26301      526.08549    
     83700  -103776.83      571.17735     -103205.65      189.19071      189.28007      526.27099    
     83800  -103800.67      581.15636     -103219.51      189.22279      189.29876      526.45649    
     83900  -103818.06      563.49462     -103254.56      189.24919      189.31345      526.642      
     84000  -103839.49      553.43647     -103286.05      189.26862      189.32534      526.8275     
     84100  -103854.03      558.12804     -103295.9       189.29113      189.33757      527.013      
     84200  -103862.79      569.78317     -103293.01      189.3097       189.34272      527.1985     
     84300  -103868.12      568.54971     -103299.57      189.32296      189.34134      527.38401    
     84400  -103875.78      563.93441     -103311.85      189.3463       189.34851      527.56951    
     84500  -103890.63      566.64208     -103323.99      189.37147      189.35389      527.75501    
     84600  -103909.1       573.9626      -103335.14      189.3967       189.35718      527.94051    
     84700  -103929.27      572.90728     -103356.37      189.41767      189.35559      528.12602    
     84800  -103936.89      554.71566     -103382.18      189.42954      189.35314      528.31152    
     84900  -103950.98      556.58144     -103394.4       189.44628      189.35449      528.49702    
     85000  -103946.93      558.71746     -103388.21      189.46347      189.35651      528.68253    
     85100  -103949.55      574.81577     -103374.74      189.47182      189.35519      528.86803    
     85200  -103948.06      570.76511     -103377.29      189.4838       189.35457      529.05353    
     85300  -103961.31      565.42907     -103395.88      189.49648      189.36205      529.23903    
     85400  -103969.21      554.11337     -103415.09      189.50453      189.36361      529.42454    
     85500  -103979.12      563.75901     -103415.36      189.50932      189.37129      529.61004    
     85600  -103979.73      569.46887     -103410.26      189.50904      189.37587      529.79554    
     85700  -103986.96      571.5327      -103415.43      189.50726      189.37642      529.98104    
     85800  -104002.24      569.44418     -103432.8       189.50831      189.38153      530.16655    
     85900  -104018.61      560.3246      -103458.29      189.50532      189.38437      530.35205    
     86000  -104036.92      559.6983      -103477.22      189.50906      189.38589      530.53755    
     86100  -104043.1       557.17346     -103485.93      189.51389      189.38658      530.72305    
     86200  -104047.58      564.20473     -103483.38      189.51331      189.38244      530.90856    
     86300  -104053.7       574.97709     -103478.72      189.5106       189.38226      531.09406    
     86400  -104060.56      572.48488     -103488.08      189.50798      189.38616      531.27956    
     86500  -104067.15      559.8318      -103507.32      189.50368      189.38396      531.46507    
     86600  -104075.77      560.00117     -103515.77      189.4995       189.38153      531.65057    
     86700  -104073.63      562.66243     -103510.97      189.49433      189.38396      531.83607    
     86800  -104082.4       577.49287     -103504.91      189.4891       189.39007      532.02157    
     86900  -104097.67      574.09725     -103523.58      189.49368      189.39846      532.20708    
     87000  -104120.47      560.2267      -103560.24      189.49706      189.39483      532.39258    
     87100  -104140.59      553.78236     -103586.8       189.50102      189.3871       532.57808    
     87200  -104146.66      555.94925     -103590.71      189.50352      189.3793       532.76358    
     87300  -104139.9       564.78215     -103575.12      189.50733      189.37384      532.94909    
     87400  -104138.59      581.02064     -103557.57      189.51747      189.37155      533.13459    
     87500  -104134.86      573.17772     -103561.68      189.52594      189.36725      533.32009    
     87600  -104134.33      557.63331     -103576.7       189.53079      189.35491      533.50559    
     87700  -104106.82      537.66458     -103569.16      189.53603      189.34508      533.6911     
     87800  -104085.81      567.43533     -103518.37      189.54282      189.34096      533.8766     
     87900  -104073.22      597.01692     -103476.2       189.55536      189.33874      534.0621     
     88000  -104081.03      586.85659     -103494.18      189.55706      189.32882      534.2476     
     88100  -104098.68      554.05869     -103544.62      189.55819      189.31353      534.43311    
     88200  -104120.09      549.68461     -103570.41      189.5616       189.30433      534.61861    
     88300  -104121.97      559.16857     -103562.81      189.5661       189.30199      534.80411    
     88400  -104115.24      573.91036     -103541.33      189.57055      189.29953      534.98962    
     88500  -104113.3       577.03112     -103536.27      189.5784       189.30191      535.17512    
     88600  -104116.69      561.493       -103555.2       189.58472      189.30501      535.36062    
     88700  -104119.38      553.20874     -103566.18      189.58816      189.30315      535.54612    
     88800  -104104.8       552.8671      -103551.93      189.59852      189.30473      535.73163    
     88900  -104105.25      581.52022     -103523.73      189.61822      189.30938      535.91713    
     89000  -104105.14      586.38406     -103518.76      189.63865      189.31191      536.10263    
     89100  -104115.35      567.0499      -103548.3       189.66036      189.31429      536.28813    
     89200  -104124.49      546.27514     -103578.22      189.68795      189.32133      536.47364    
     89300  -104126.93      549.33681     -103577.59      189.7165       189.32661      536.65914    
     89400  -104106.11      560.48234     -103545.63      189.74109      189.32757      536.84464    
     89500  -104081.28      576.2233      -103505.05      189.76728      189.32681      537.03014    
     89600  -104060.85      576.89961     -103483.95      189.78578      189.32245      537.21565    
     89700  -104060.37      570.46089     -103489.91      189.80248      189.32515      537.40115    
     89800  -104058.8       551.78283     -103507.02      189.82154      189.33637      537.58665    
     89900  -104070.27      560.00176     -103510.27      189.83464      189.34918      537.77215    
     90000  -104060.71      563.09611     -103497.61      189.84843      189.36661      537.95766    
     90100  -104052.02      570.2538      -103481.76      189.86617      189.38779      538.14316    
     90200  -104046.23      572.17707     -103474.05      189.88095      189.40917      538.32866    
     90300  -104044.63      566.82318     -103477.81      189.89704      189.43582      538.51417    
     90400  -104043.3       560.6294      -103482.67      189.91111      189.45718      538.69967    
     90500  -104046.68      562.99791     -103483.68      189.92245      189.4796       538.88517    
     90600  -104044.8       562.82868     -103481.97      189.93506      189.50412      539.07067    
     90700  -104050.95      572.01279     -103478.94      189.94727      189.5244       539.25618    
     90800  -104048.87      565.43458     -103483.44      189.96212      189.549        539.44168    
     90900  -104051.46      561.72012     -103489.74      189.98002      189.5722       539.62718    
     91000  -104061.46      570.8491      -103490.61      189.99805      189.597        539.81268    
     91100  -104064.81      567.42953     -103497.38      190.0169       189.62224      539.99819    
     91200  -104068.19      561.32192     -103506.87      190.03126      189.64192      540.18369    
     91300  -104069.1       561.98817     -103507.11      190.04621      189.66089      540.36919    
     91400  -104056.24      561.74996     -103494.49      190.06474      189.68159      540.55469    
     91500  -104057.08      579.29677     -103477.79      190.08632      189.70454      540.7402     
     91600  -104054.01      571.45981     -103482.55      190.1034       189.72873      540.9257     
     91700  -104062.22      560.05161     -103502.17      190.11698      189.75117      541.1112     
     91800  -104076.61      561.3827      -103515.23      190.12523      189.77445      541.2967     
     91900  -104073.38      561.31344     -103512.07      190.1351       189.79849      541.48221    
     92000  -104059.67      568.00186     -103491.67      190.14615      189.8231       541.66771    
     92100  -104061.55      584.35402     -103477.2       190.16188      189.85657      541.85321    
     92200  -104063.16      569.72677     -103493.43      190.17386      189.88761      542.03872    
     92300  -104071.16      550.70267     -103520.46      190.18146      189.91382      542.22422    
     92400  -104074.9       551.39911     -103523.51      190.19439      189.94069      542.40972    
     92500  -104069.37      569.68836     -103499.68      190.20967      189.96402      542.59522    
     92600  -104056.42      578.05526     -103478.37      190.21781      189.98392      542.78073    
     92700  -104061.14      576.45234     -103484.69      190.23011      190.01161      542.96623    
     92800  -104064.46      554.47699     -103509.98      190.24682      190.04131      543.15173    
     92900  -104075.8       552.71876     -103523.08      190.25794      190.06591      543.33723    
     93000  -104077.67      561.60653     -103516.06      190.27025      190.09812      543.52274    
     93100  -104071.81      572.18533     -103499.63      190.28342      190.12818      543.70824    
     93200  -104065.42      573.43091     -103491.99      190.29228      190.15397      543.89374    
     93300  -104070.96      569.19124     -103501.77      190.30685      190.18477      544.07924    
     93400  -104074.22      560.53139     -103513.69      190.32134      190.21042      544.26475    
     93500  -104074.19      561.30906     -103512.88      190.33523      190.23707      544.45025    
     93600  -104055.76      556.77777     -103498.98      190.35144      190.2624       544.63575    
     93700  -104041.5       565.47311     -103476.03      190.36323      190.28503      544.82126    
     93800  -104040.91      581.24566     -103459.66      190.37672      190.31262      545.00676    
     93900  -104041.21      574.26582     -103466.94      190.39257      190.34064      545.19226    
     94000  -104045.52      558.1335      -103487.39      190.40263      190.36279      545.37776    
     94100  -104051.47      553.00391     -103498.47      190.41902      190.38914      545.56327    
     94200  -104046.49      559.96213     -103486.52      190.43925      190.41432      545.74877    
     94300  -104038.13      575.75775     -103462.37      190.45114      190.43251      545.93427    
     94400  -104032.03      576.81788     -103455.21      190.46797      190.45757      546.11977    
     94500  -104047.97      575.00345     -103472.97      190.48647      190.48628      546.30528    
     94600  -104058.19      557.46468     -103500.72      190.49924      190.51221      546.49078    
     94700  -104061.88      548.57805     -103513.3       190.51677      190.54172      546.67628    
     94800  -104061.07      560.89145     -103500.18      190.53062      190.56826      546.86178    
     94900  -104060.16      579.0225      -103481.13      190.54036      190.5939       547.04729    
     95000  -104051.43      573.17385     -103478.25      190.55439      190.62108      547.23279    
     95100  -104060.09      568.00728     -103492.09      190.56653      190.64522      547.41829    
     95200  -104065.43      557.07856     -103508.35      190.58013      190.66793      547.60379    
     95300  -104067.24      554.71114     -103512.53      190.59953      190.69404      547.7893     
     95400  -104056.63      560.85625     -103495.77      190.61435      190.71651      547.9748     
     95500  -104047.76      573.55684     -103474.2       190.634        190.74447      548.1603     
     95600  -104043.1       575.2647      -103467.84      190.65129      190.7736       548.34581    
     95700  -104048.04      570.81183     -103477.23      190.66617      190.80132      548.53131    
     95800  -104052.18      559.43988     -103492.74      190.68465      190.83287      548.71681    
     95900  -104055.44      554.22785     -103501.21      190.69922      190.8598       548.90231    
     96000  -104056.77      559.90331     -103496.87      190.71776      190.88158      549.08782    
     96100  -104053.99      567.70481     -103486.29      190.74727      190.90701      549.27332    
     96200  -104062.3       578.82139     -103483.47      190.7705       190.92668      549.45882    
     96300  -104065.45      569.14604     -103496.3       190.79218      190.94781      549.64432    
     96400  -104064.09      553.67825     -103510.42      190.8172       190.97448      549.82983    
     96500  -104082.4       566.09118     -103516.31      190.83875      191.00108      550.01533    
     96600  -104077.18      562.83547     -103514.35      190.86085      191.02851      550.20083    
     96700  -104077.79      568.58856     -103509.2       190.88512      191.05972      550.38633    
     96800  -104073.49      564.11498     -103509.37      190.90964      191.0898       550.57184    
     96900  -104073.22      558.46261     -103514.76      190.93474      191.11586      550.75734    
     97000  -104081.83      564.33432     -103517.49      190.96134      191.13988      550.94284    
     97100  -104081.75      566.04753     -103515.71      190.99052      191.16431      551.12834    
     97200  -104073.49      567.97197     -103505.52      191.01301      191.18128      551.31385    
     97300  -104058.13      562.84757     -103495.28      191.04036      191.20112      551.49935    
     97400  -104059.64      569.57895     -103490.06      191.07051      191.22545      551.68485    
     97500  -104057.28      564.8115      -103492.47      191.09554      191.24669      551.87036    
     97600  -104055.75      560.74027     -103495.01      191.12253      191.27163      552.05586    
     97700  -104055.98      563.45596     -103492.52      191.15003      191.29896      552.24136    
     97800  -104057.74      568.13964     -103489.6       191.17582      191.32149      552.42686    
     97900  -104061.63      568.44654     -103493.19      191.20606      191.34913      552.61237    
     98000  -104059.3       560.30599     -103499         191.23572      191.37813      552.79787    
     98100  -104058.22      559.34792     -103498.87      191.25893      191.40424      552.98337    
     98200  -104059.97      567.36149     -103492.61      191.28003      191.43573      553.16887    
     98300  -104053.25      566.85416     -103486.39      191.29319      191.46749      553.35438    
     98400  -104058.23      565.78578     -103492.45      191.30401      191.50087      553.53988    
     98500  -104058.39      560.86724     -103497.52      191.31158      191.53368      553.72538    
     98600  -104063.72      567.15103     -103496.57      191.32128      191.56632      553.91088    
     98700  -104056.04      562.61154     -103493.43      191.33344      191.59934      554.09639    
     98800  -104063.56      570.21164     -103493.34      191.34364      191.63125      554.28189    
     98900  -104058.39      562.66607     -103495.72      191.35723      191.66658      554.46739    
     99000  -104060.59      562.65001     -103497.94      191.37354      191.70612      554.6529     
     99100  -104060.45      559.47008     -103500.98      191.38148      191.74388      554.8384     
     99200  -104064.27      565.62868     -103498.64      191.38599      191.78257      555.0239     
     99300  -104053.93      563.09536     -103490.84      191.39182      191.82144      555.2094     
     99400  -104057.77      574.0979      -103483.67      191.39104      191.85598      555.39491    
     99500  -104057.87      574.26746     -103483.6       191.39328      191.89281      555.58041    
     99600  -104063.3       564.25389     -103499.04      191.39907      191.93007      555.76591    
     99700  -104070.69      556.79913     -103513.89      191.40387      191.9649       555.95141    
     99800  -104076.88      558.85773     -103518.03      191.41143      191.99985      556.13692    
     99900  -104077.69      568.72801     -103508.97      191.41959      192.03766      556.32242    
    100000  -104066.03      568.1069      -103497.93      191.4263       192.07707      556.50792    
Loop time of 34044 on 12 procs for 100000 steps with 14580 atoms

Performance: 0.254 ns/day, 94.567 hours/ns, 2.937 timesteps/s, 42.827 katom-step/s
40.5% CPU use with 12 MPI tasks x 1 OpenMP threads

MPI task timing breakdown:
Section |  min time  |  avg time  |  max time  |%varavg| %total
---------------------------------------------------------------
Pair    | 3279.1     | 4177.4     | 5278.5     | 996.5 | 12.27
Neigh   | 38.203     | 52.539     | 70.602     | 133.5 |  0.15
Comm    | 4805.2     | 6049.6     | 7119.4     | 911.5 | 17.77
Output  | 90.253     | 93.085     | 95.823     |  17.6 |  0.27
Modify  | 20793      | 21024      | 21244      | 104.6 | 61.76
Other   |            | 2647       |            |       |  7.78

Nlocal:           1215 ave        2242 max         500 min
Histogram: 2 1 2 2 0 2 1 1 0 1
Nghost:           3984 ave        6031 max        1680 min
Histogram: 3 1 0 0 0 0 4 1 2 1
Neighs:              0 ave           0 max           0 min
Histogram: 12 0 0 0 0 0 0 0 0 0

Total # of neighbors = 0
Ave neighs/atom = 0
Neighbor list builds = 903
Dangerous builds = 0
Total wall time: 9:27:28
