LAMMPS (2 Aug 2023 - Update 3)
OMP_NUM_THREADS environment is not set. Defaulting to 1 thread. (src/comm.cpp:98)
  using 1 OpenMP thread(s) per MPI task

# 1------general---------------
units                             metal      #单位为lammps 中的metel 类型
dimension                    3          #模拟的维度 三维
boundary                    p p p      #周期边界条件
atom_style                  atomic   #原子类型自动
atom_modify              map array sort 100 2.0
neighbor                    3.0 bin
neigh_modify            every 1 delay 0 check yes
#2 -----global variable-------定义全局变量，方便统一修改；
variable temperature equal 300
variable tstep equal 0.001
variable pressure equal 0
variable thermalstep equal 100
variable dumpstep equal 1000
variable relaxtime equal 0
variable totaltime equal 100000
variable deformrate equal 5e-3
#3 -------model------------
#box tilt large
read_data     1.lmp
Reading data file ...
  orthogonal box = (-100 -100 -2.3312512) to (100 100 41.316429)
  4 by 4 by 1 MPI processor grid
  reading atoms ...
  1824 atoms
  read_data CPU = 0.524 seconds
replicate 1 1 15
Replication is creating a 1x1x15 = 15 times larger system...
  orthogonal box = (-100 -100 -2.3312512) to (100 100 652.38395)
  2 by 2 by 4 MPI processor grid
  27360 atoms
  replicate CPU = 0.496 seconds
group SR type 2 3
9000 atoms in group SR
delete_atoms group SR
Deleted 9000 atoms, new total = 18360
write_data h.data
System init for write_data ...
WARNING: Communication cutoff is 0.0. No ghost atoms will be generated. Atoms may get lost. (src/comm_brick.cpp:210)
pair_style hybrid airebo 3.0 airebo 3.0 airebo 3.0 lj/cut 10
pair_coeff * * airebo 1 CH.airebo C NULL NULL
Reading airebo potential file CH.airebo with DATE: 2011-10-25
pair_coeff * * airebo 2 CH.airebo NULL C NULL
Reading airebo potential file CH.airebo with DATE: 2011-10-25
pair_coeff * * airebo 3 CH.airebo NULL NULL C
Reading airebo potential file CH.airebo with DATE: 2011-10-25
pair_coeff 1 2 lj/cut 0.00456 3.431
pair_coeff 1 3 lj/cut 0.00456 3.431
pair_coeff 2 3 lj/cut 0.00456 3.431

# 5------minimize -----------
min_style      sd
minimize       1.0e-4 1.0e-6 100 1000
Neighbor list info ...
  update: every = 1 steps, delay = 0 steps, check = yes
  max neighbors/atom: 2000, page size: 100000
  master list distance cutoff = 13.2
  ghost atom cutoff = 13.2
  binsize = 6.6, bins = 31 31 100
  6 neighbor lists, perpetual/occasional/extra = 6 0 0
  (1) pair airebo, perpetual, skip from (5)
      attributes: full, newton on, ghost
      pair build: skip/ghost
      stencil: none
      bin: none
  (2) pair airebo, perpetual, skip from (5)
      attributes: full, newton on, ghost
      pair build: skip/ghost
      stencil: none
      bin: none
  (3) pair airebo, perpetual, skip from (5)
      attributes: full, newton on, ghost
      pair build: skip/ghost
      stencil: none
      bin: none
  (4) pair lj/cut, perpetual, skip from (6)
      attributes: half, newton on, cut 13
      pair build: skip
      stencil: none
      bin: none
  (5) neighbor class addition, perpetual
      attributes: full, newton on, ghost
      pair build: full/bin/ghost
      stencil: full/ghost/bin/3d
      bin: standard
  (6) neighbor class addition, perpetual
      attributes: half, newton on, cut 13
      pair build: half/bin/atomonly/newton
      stencil: half/bin/3d
      bin: standard
Per MPI rank memory allocation (min/avg/max) = 13.09 | 13.1 | 13.1 Mbytes
   Step          Temp          E_pair         E_mol          TotEng         Press     
         0   0             -136175.41      0             -136175.41     -77.843168    
         1   0             -136175.51      0             -136175.51     -77.708063    
Loop time of 0.846249 on 16 procs for 1 steps with 18360 atoms

45.3% CPU use with 16 MPI tasks x 1 OpenMP threads

Minimization stats:
  Stopping criterion = energy tolerance
  Energy initial, next-to-last, final = 
     -136175.412621849  -136175.412621849  -136175.512692029
  Force two-norm initial, final = 4.9774894 1.2832097
  Force max component initial, final = 0.036762983 0.0094736875
  Final line search alpha, max atom move = 1 0.0094736875
  Iterations, force evaluations = 1 2

MPI task timing breakdown:
Section |  min time  |  avg time  |  max time  |%varavg| %total
---------------------------------------------------------------
Pair    | 0.056744   | 0.077277   | 0.10029    |   3.8 |  9.13
Neigh   | 0          | 0          | 0          |   0.0 |  0.00
Comm    | 0.14278    | 0.19697    | 0.26036    |   7.5 | 23.28
Output  | 0          | 0          | 0          |   0.0 |  0.00
Modify  | 0          | 0          | 0          |   0.0 |  0.00
Other   |            | 0.572      |            |       | 67.59

Nlocal:         1147.5 ave        1215 max        1080 min
Histogram: 4 0 0 0 4 4 0 0 0 4
Nghost:         4156.5 ave        4224 max        4089 min
Histogram: 4 0 0 0 4 4 0 0 0 4
Neighs:              0 ave           0 max           0 min
Histogram: 16 0 0 0 0 0 0 0 0 0

Total # of neighbors = 0
Ave neighs/atom = 0
Neighbor list builds = 0
Dangerous builds = 0
#6----define computes------
variable nums equal count(all) #计算原子数目
variable toval equal 22.7273*22.7165*lz #计算系统总体积，单层石墨烯厚度为0.335nm
variable vol equal ${toval} #体系的初始体积
variable vol equal 338019.450175904 
variable vatom equal v_vol/v_nums #单个原子体积
compute 1 all stress/atom NULL #计算体系中单原子应力
compute xalls all reduce sum c_1[1]
variable xstress equal (c_xalls)/(v_toval*10000)
compute yalls all reduce sum c_1[2]
variable ystress equal (c_yalls)/(v_toval*10000)
compute zalls all reduce sum c_1[3]
variable zstress equal (c_zalls)/(v_toval*10000)
#7---------relaxation-------------------------
timestep ${tstep}
timestep 0.001
velocity all create ${temperature} 231743 units box dist gaussian
velocity all create 300 231743 units box dist gaussian
dump   1 all atom 100 all-cy.lammpstrj
#fix    1 all npt temp 300 300  0.1 aniso 0 0 10 drag 1  #三个方向独立控压
fix  1 all npt temp ${temperature} ${temperature} 0.1 x ${pressure} ${pressure} 10 y ${pressure} ${pressure} 10
fix  1 all npt temp 300 ${temperature} 0.1 x ${pressure} ${pressure} 10 y ${pressure} ${pressure} 10
fix  1 all npt temp 300 300 0.1 x ${pressure} ${pressure} 10 y ${pressure} ${pressure} 10
fix  1 all npt temp 300 300 0.1 x 0 ${pressure} 10 y ${pressure} ${pressure} 10
fix  1 all npt temp 300 300 0.1 x 0 0 10 y ${pressure} ${pressure} 10
fix  1 all npt temp 300 300 0.1 x 0 0 10 y 0 ${pressure} 10
fix  1 all npt temp 300 300 0.1 x 0 0 10 y 0 0 10
compute  2 all pe/atom
compute  pe all reduce sum c_2
variable PE equal "c_pe"
fix    pe all print 100 "${PE} " file PE.txt screen no
thermo  ${thermalstep}
thermo  100
#thermo_style  custom step pe ke etotal lx ly lz
run   ${relaxtime}
run   0
Per MPI rank memory allocation (min/avg/max) = 13.72 | 13.72 | 13.72 Mbytes
   Step          Temp          E_pair         E_mol          TotEng         Press          Volume    
         1   300           -136175.51      0             -135463.59     -48.671742      26188608     
Loop time of 0.0269943 on 16 procs for 0 steps with 18360 atoms

34.2% CPU use with 16 MPI tasks x 1 OpenMP threads

MPI task timing breakdown:
Section |  min time  |  avg time  |  max time  |%varavg| %total
---------------------------------------------------------------
Pair    | 0          | 0          | 0          |   0.0 |  0.00
Neigh   | 0          | 0          | 0          |   0.0 |  0.00
Comm    | 0          | 0          | 0          |   0.0 |  0.00
Output  | 0          | 0          | 0          |   0.0 |  0.00
Modify  | 0          | 0          | 0          |   0.0 |  0.00
Other   |            | 0.02699    |            |       |100.00

Nlocal:         1147.5 ave        1215 max        1080 min
Histogram: 8 0 0 0 0 0 0 0 0 8
Nghost:         4156.5 ave        4224 max        4089 min
Histogram: 8 0 0 0 0 0 0 0 0 8
Neighs:              0 ave           0 max           0 min
Histogram: 16 0 0 0 0 0 0 0 0 0

Total # of neighbors = 0
Ave neighs/atom = 0
Neighbor list builds = 0
Dangerous builds = 0
#8 -------tension-----------------------------
unfix  1
undump  1
unfix  pe
reset_timestep 0
fix avestress all ave/atom 1 ${dumpstep} ${dumpstep} c_1[1] c_1[2] c_1[3] c_1[4] c_1[5] c_1[6]
fix avestress all ave/atom 1 1000 ${dumpstep} c_1[1] c_1[2] c_1[3] c_1[4] c_1[5] c_1[6]
fix avestress all ave/atom 1 1000 1000 c_1[1] c_1[2] c_1[3] c_1[4] c_1[5] c_1[6]

#-----calculation of strain and Cumulative compression--------
variable                tmp equal "lz"
variable                L0 equal ${tmp}
variable                L0 equal 654.715205262
variable                strain equal "(lz - v_L0)/v_L0"
variable                Cumulativels equal "(lz - v_L0)/10"
fix Step all print 100 "${strain} ${Cumulativels} ${zstress}" file grapoten.txt screen no

dump 2 all custom ${dumpstep} tension.xyz type x y z f_avestress[1] f_avestress[2] f_avestress[3] f_avestress[4] f_avestress[5] f_avestress[6]
dump 2 all custom 1000 tension.xyz type x y z f_avestress[1] f_avestress[2] f_avestress[3] f_avestress[4] f_avestress[5] f_avestress[6]

fix  1 all npt temp ${temperature} ${temperature} 0.1 y ${pressure} ${pressure} 10 x ${pressure} ${pressure} 10
fix  1 all npt temp 300 ${temperature} 0.1 y ${pressure} ${pressure} 10 x ${pressure} ${pressure} 10
fix  1 all npt temp 300 300 0.1 y ${pressure} ${pressure} 10 x ${pressure} ${pressure} 10
fix  1 all npt temp 300 300 0.1 y 0 ${pressure} 10 x ${pressure} ${pressure} 10
fix  1 all npt temp 300 300 0.1 y 0 0 10 x ${pressure} ${pressure} 10
fix  1 all npt temp 300 300 0.1 y 0 0 10 x 0 ${pressure} 10
fix  1 all npt temp 300 300 0.1 y 0 0 10 x 0 0 10

thermo_style custom step pe ke etotal lx ly lz
fix   2 all deform 1 z erate ${deformrate} remap x units box
fix   2 all deform 1 z erate 0.005 remap x units box
fix   3 all ave/time 2 500 1000 v_xstress v_ystress v_zstress file pressure.out
run   ${totaltime}
run   100000
WARNING: Dump 2 includes no atom IDs and is not sorted by ID. This may complicate post-processing tasks or visualization (src/dump.cpp:221)
Per MPI rank memory allocation (min/avg/max) = 15.22 | 15.22 | 15.22 Mbytes
   Step         PotEng         KinEng         TotEng           Lx             Ly             Lz      
         0  -136175.51      711.9261      -135463.59      200            200            654.71521    
       100  -135766.61      350.85953     -135415.75      199.98827      199.98773      655.04256    
       200  -135780.49      428.83212     -135351.66      199.9762       199.9754       655.36992    
       300  -135732.28      457.37248     -135274.91      199.98973      199.98789      655.69728    
       400  -135686.04      495.42061     -135190.62      199.98867      199.98682      656.02464    
       500  -135654.52      553.4469      -135101.07      199.9699       199.96762      656.35199    
       600  -135596.35      586.86106     -135009.49      199.97643      199.97368      656.67935    
       700  -135554.45      635.18168     -134919.27      199.98557      199.98286      657.00671    
       800  -135502.2       666.49922     -134835.7       199.96725      199.96454      657.33407    
       900  -135467.9       701.91065     -134765.99      199.96182      199.95929      657.66142    
      1000  -135437.08      719.83231     -134717.25      199.97346      199.97115      657.98878    
      1100  -135436.3       734.26173     -134702.04      199.96395      199.96199      658.31614    
      1200  -135451.01      723.84175     -134727.17      199.9512       199.94987      658.6435     
      1300  -135451.88      693.52358     -134758.36      199.95807      199.95801      658.97085    
      1400  -135463.71      698.45503     -134765.26      199.95406      199.95456      659.29821    
      1500  -135441.99      700.12994     -134741.86      199.93692      199.93893      659.62557    
      1600  -135428.62      718.66165     -134709.96      199.93895      199.94269      659.95293    
      1700  -135418.8       724.42142     -134694.38      199.94305      199.94839      660.28028    
      1800  -135418.65      717.7619      -134700.89      199.9243       199.93248      660.60764    
      1900  -135435.18      714.7993      -134720.38      199.91767      199.92801      660.935      
      2000  -135426.03      696.28844     -134729.74      199.92547      199.93795      661.26236    
      2100  -135420.4       705.20764     -134715.19      199.91156      199.92727      661.58971    
      2200  -135404.98      716.80593     -134688.18      199.89593      199.91436      661.91707    
      2300  -135388.44      718.65206     -134669.79      199.9025       199.92401      662.24443    
      2400  -135394.99      726.55577     -134668.44      199.89767      199.92306      662.57179    
      2500  -135390.19      709.01265     -134681.18      199.87712      199.90602      662.89915    
      2600  -135391.2       701.31937     -134689.88      199.87333      199.90649      663.2265     
      2700  -135385.65      705.32456     -134680.33      199.8746       199.91241      663.55386    
      2800  -135370.66      715.37484     -134655.29      199.85705      199.89972      663.88122    
      2900  -135349.01      714.54028     -134634.47      199.84449      199.89235      664.20858    
      3000  -135346.63      717.27953     -134629.35      199.846        199.89896      664.53593    
      3100  -135346.58      712.96278     -134633.62      199.83424      199.89245      664.86329    
      3200  -135342.62      702.58145     -134640.04      199.8168       199.88132      665.19065    
      3300  -135342.15      705.42921     -134636.72      199.81364      199.88383      665.51801    
      3400  -135329.92      711.48686     -134618.43      199.80616      199.88265      665.84536    
      3500  -135308.92      713.97507     -134594.95      199.78792      199.87086      666.17272    
      3600  -135295.64      714.04357     -134581.6       199.77962      199.86895      666.50008    
      3700  -135296.08      714.84536     -134581.23      199.77501      199.87066      666.82744    
      3800  -135294.85      709.23711     -134585.61      199.75832      199.86023      667.15479    
      3900  -135289.48      704.91354     -134584.56      199.74384      199.85228      667.48215    
      4000  -135274.74      705.60219     -134569.14      199.73879      199.85353      667.80951    
      4100  -135264.21      719.58897     -134544.62      199.72639      199.8475       668.13687    
      4200  -135246.72      720.93029     -134525.79      199.7091       199.83623      668.46422    
      4300  -135238.81      717.02622     -134521.78      199.70085      199.83379      668.79158    
      4400  -135233.38      707.71308     -134525.67      199.69238      199.83149      669.11894    
      4500  -135229.06      705.65936     -134523.4       199.67515      199.81995      669.4463     
      4600  -135214.54      704.1553      -134510.39      199.66226      199.81222      669.77365    
      4700  -135199.66      711.97927     -134487.68      199.65472      199.81034      670.10101    
      4800  -135177.1       711.12059     -134465.98      199.64116      199.80181      670.42837    
      4900  -135175.66      720.63989     -134455.02      199.62487      199.7898       670.75573    
      5000  -135169.99      714.69074     -134455.3       199.61579      199.78526      671.08309    
      5100  -135161.99      705.88497     -134456.1       199.60596      199.77939      671.41044    
      5200  -135152.03      704.74851     -134447.28      199.58994      199.76635      671.7378     
      5300  -135133.06      706.68164     -134426.38      199.57691      199.75664      672.06516    
      5400  -135114.1       714.27184     -134399.83      199.56859      199.75072      672.39252    
      5500  -135100.25      718.50096     -134381.75      199.55556      199.73982      672.71987    
      5600  -135093.68      716.39037     -134377.29      199.53999      199.72694      673.04723    
      5700  -135089.28      710.70038     -134378.58      199.53028      199.71851      673.37459    
      5800  -135081.26      707.40452     -134373.85      199.52026      199.7096       673.70195    
      5900  -135063.49      707.07424     -134356.41      199.50427      199.6953       674.0293     
      6000  -135043.27      713.00236     -134330.27      199.49149      199.68248      674.35666    
      6100  -135024.13      716.50065     -134307.63      199.48305      199.67434      674.68402    
      6200  -135017.31      721.98126     -134295.33      199.46968      199.66085      675.01138    
      6300  -135000.01      706.33341     -134293.67      199.45382      199.64433      675.33873    
      6400  -134993.84      702.0622      -134291.77      199.44361      199.63327      675.66609    
      6500  -134988.11      709.59808     -134278.52      199.43325      199.62128      675.99345    
      6600  -134966.07      711.3668      -134254.71      199.41752      199.60427      676.32081    
      6700  -134947.28      718.06561     -134229.21      199.40427      199.5894       676.64816    
      6800  -134922.85      713.38967     -134209.46      199.3935       199.57682      676.97552    
      6900  -134918.98      718.21843     -134200.76      199.37969      199.56158      677.30288    
      7000  -134907.08      708.2983      -134198.78      199.36504      199.54458      677.63024    
      7100  -134896.61      705.83662     -134190.78      199.35166      199.5297       677.9576     
      7200  -134882.2       711.31728     -134170.89      199.3386       199.5148       678.28495    
      7300  -134852.06      711.02104     -134141.04      199.32336      199.49685      678.61231    
      7400  -134833.62      716.76076     -134116.86      199.30845      199.48109      678.93967    
      7500  -134821.84      717.61397     -134104.22      199.29539      199.46588      679.26703    
      7600  -134810.72      710.65013     -134100.07      199.27986      199.4486       679.59438    
      7700  -134795.93      703.08655     -134092.84      199.26252      199.43064      679.92174    
      7800  -134784.99      710.84168     -134074.15      199.24739      199.41425      680.2491     
      7900  -134757         709.86956     -134047.13      199.23272      199.39886      680.57646    
      8000  -134732.2       710.74171     -134021.46      199.21517      199.38109      680.90381    
      8100  -134718.73      713.65006     -134005.08      199.19717      199.36296      681.23117    
      8200  -134706.46      708.83953     -133997.62      199.18064      199.34773      681.55853    
      8300  -134694.35      705.56049     -133988.79      199.16299      199.33035      681.88589    
      8400  -134679.43      708.36973     -133971.06      199.14281      199.31142      682.21324    
      8500  -134659.9       714.59464     -133945.3       199.12472      199.29551      682.5406     
      8600  -134627.94      709.12224     -133918.82      199.10725      199.27973      682.86796    
      8700  -134610.5       712.29929     -133898.2       199.08528      199.26107      683.19532    
      8800  -134598.27      711.71663     -133886.55      199.06426      199.24313      683.52267    
      8900  -134585.52      709.1373      -133876.39      199.04509      199.22761      683.85003    
      9000  -134567.6       707.20082     -133860.4       199.02354      199.21079      684.17739    
      9100  -134547.09      710.72334     -133836.37      199.00082      199.19191      684.50475    
      9200  -134525.6       716.11953     -133809.48      198.9792       199.17562      684.8321     
      9300  -134501.34      714.27704     -133787.06      198.95761      199.16002      685.15946    
      9400  -134480.34      709.28101     -133771.06      198.93366      199.14105      685.48682    
      9500  -134467.73      708.68634     -133759.04      198.90932      199.12379      685.81418    
      9600  -134457         712.55135     -133744.44      198.88665      199.10822      686.14154    
      9700  -134433.31      709.84965     -133723.46      198.8627       199.09066      686.46889    
      9800  -134410.63      715.2056      -133695.42      198.83586      199.07284      686.79625    
      9900  -134379.91      712.37368     -133667.54      198.81122      199.05544      687.12361    
     10000  -134364.42      717.1574      -133647.27      198.78708      199.03893      687.45097    
     10100  -134353.4       718.28589     -133635.12      198.75994      199.02146      687.77832    
     10200  -134332.3       711.36292     -133620.94      198.73268      199.00154      688.10568    
     10300  -134305.22      705.63583     -133599.59      198.70722      198.98488      688.43304    
     10400  -134285.32      713.45943     -133571.86      198.68113      198.96828      688.7604     
     10500  -134255.88      713.65389     -133542.22      198.65286      198.94785      689.08775    
     10600  -134234.29      715.84327     -133518.45      198.62463      198.92955      689.41511    
     10700  -134218.13      714.6159      -133503.52      198.59971      198.91293      689.74247    
     10800  -134201.27      709.50081     -133491.77      198.57221      198.8938       690.06983    
     10900  -134180.21      707.28546     -133472.93      198.54092      198.8728       690.39718    
     11000  -134154.87      710.43554     -133444.44      198.51446      198.85381      690.72454    
     11100  -134129.99      718.54219     -133411.45      198.48874      198.83702      691.0519     
     11200  -134100.71      716.72664     -133383.98      198.45878      198.81627      691.37926    
     11300  -134083.17      716.2275      -133366.94      198.42968      198.79371      691.70661    
     11400  -134060.86      706.88898     -133353.97      198.40297      198.77536      692.03397    
     11500  -134046.17      710.10987     -133336.06      198.37584      198.75528      692.36133    
     11600  -134012.85      703.51984     -133309.33      198.3466       198.73192      692.68869    
     11700  -133992.11      716.18894     -133275.93      198.31823      198.71065      693.01604    
     11800  -133967.23      721.77731     -133245.46      198.29324      198.6904       693.3434     
     11900  -133931.64      709.35519     -133222.28      198.26472      198.6667       693.67076    
     12000  -133915.15      709.09354     -133206.06      198.23606      198.64283      693.99812    
     12100  -133903.03      712.36974     -133190.66      198.21149      198.62195      694.32548    
     12200  -133876.81      709.29669     -133167.51      198.18508      198.59935      694.65283    
     12300  -133844.29      708.35255     -133135.93      198.1566       198.57329      694.98019    
     12400  -133820.88      718.93482     -133101.95      198.13122      198.54999      695.30755    
     12500  -133783.51      709.57683     -133073.93      198.10688      198.52845      695.63491    
     12600  -133769.81      716.5881      -133053.22      198.07942      198.50141      695.96226    
     12700  -133746.15      708.55993     -133037.59      198.05316      198.47606      696.28962    
     12800  -133721.43      703.42645     -133018         198.03031      198.45419      696.61698    
     12900  -133700.05      711.09295     -132988.96      198.00532      198.4287       696.94434    
     13000  -133668.06      715.25755     -132952.8       197.9778       198.40106      697.27169    
     13100  -133639.44      717.48293     -132921.96      197.95536      198.37765      697.59905    
     13200  -133607.97      707.72894     -132900.24      197.93331      198.35425      697.92641    
     13300  -133592.72      710.25259     -132882.47      197.90634      198.32611      698.25377    
     13400  -133565.19      703.96883     -132861.23      197.88152      198.29888      698.58112    
     13500  -133539.86      706.93719     -132832.92      197.86128      198.27621      698.90848    
     13600  -133514.07      715.14469     -132798.92      197.83768      198.25094      699.23584    
     13700  -133482.71      716.45451     -132766.25      197.81163      198.22178      699.5632     
     13800  -133452.15      713.52576     -132738.62      197.78984      198.19733      699.89055    
     13900  -133426.88      709.39898     -132717.48      197.76951      198.17462      700.21791    
     14000  -133404.57      708.19441     -132696.37      197.74408      198.14666      700.54527    
     14100  -133377.18      706.39261     -132670.78      197.71997      198.12037      700.87263    
     14200  -133347.54      708.82596     -132638.72      197.70093      198.09811      701.19998    
     14300  -133317.69      713.48419     -132604.21      197.67872      198.07315      701.52734    
     14400  -133287.33      714.31828     -132573.01      197.65272      198.04535      701.8547     
     14500  -133261.42      711.81617     -132549.6       197.63264      198.02231      702.18206    
     14600  -133242.77      711.8355      -132530.93      197.61349      198.00078      702.50942    
     14700  -133217.22      715.37985     -132501.84      197.58844      197.9742       702.83677    
     14800  -133175.37      705.31559     -132470.05      197.56606      197.94995      703.16413    
     14900  -133147.53      710.86682     -132436.67      197.54721      197.9302       703.49149    
     15000  -133114.55      710.32724     -132404.22      197.52492      197.90639      703.81885    
     15100  -133089.01      713.31526     -132375.7       197.50127      197.8821       704.1462     
     15200  -133061.25      713.21232     -132348.03      197.48137      197.8624       704.47356    
     15300  -133033.09      710.98763     -132322.1       197.46159      197.84237      704.80092    
     15400  -133003.28      707.71621     -132295.56      197.43782      197.81914      705.12828    
     15500  -132974.88      708.1872      -132266.69      197.41638      197.7995       705.45563    
     15600  -132948.88      717.79269     -132231.09      197.39811      197.782        705.78299    
     15700  -132914.56      721.14335     -132193.42      197.37525      197.76204      706.11035    
     15800  -132876.49      711.01521     -132165.47      197.35323      197.74246      706.43771    
     15900  -132855         711.45584     -132143.54      197.33504      197.72685      706.76506    
     16000  -132825.08      710.37727     -132114.71      197.31353      197.70967      707.09242    
     16100  -132791.34      708.89692     -132082.45      197.29083      197.69077      707.41978    
     16200  -132758.99      709.95707     -132049.03      197.27103      197.67542      707.74714    
     16300  -132726.81      715.30623     -132011.51      197.25166      197.66147      708.07449    
     16400  -132690.13      717.94659     -131972.19      197.23005      197.64469      708.40185    
     16500  -132663.69      716.44906     -131947.24      197.20831      197.62927      708.72921    
     16600  -132641.67      717.79412     -131923.88      197.18896      197.61627      709.05657    
     16700  -132605.18      710.01535     -131895.16      197.169        197.60239      709.38392    
     16800  -132573.24      708.56799     -131864.67      197.14752      197.58811      709.71128    
     16900  -132542.85      712.0856      -131830.76      197.12758      197.57546      710.03864    
     17000  -132506.97      715.6829      -131791.29      197.10932      197.5636       710.366      
     17100  -132473.17      717.16482     -131756         197.08857      197.55149      710.69336    
     17200  -132447.17      713.27178     -131733.9       197.06843      197.5386       711.02071    
     17300  -132419.82      712.16263     -131707.65      197.04977      197.52719      711.34807    
     17400  -132380.76      708.04364     -131672.72      197.0307       197.51733      711.67543    
     17500  -132347.94      713.19901     -131634.74      197.01179      197.50528      712.00279    
     17600  -132307.35      710.03559     -131597.31      196.99245      197.49413      712.33014    
     17700  -132274.47      712.84483     -131561.62      196.97468      197.48444      712.6575     
     17800  -132243.95      716.35253     -131527.59      196.95742      197.47357      712.98486    
     17900  -132217.71      714.89909     -131502.81      196.93901      197.46336      713.31222    
     18000  -132186.8       710.95113     -131475.85      196.922        197.45277      713.63957    
     18100  -132152.47      709.95127     -131442.52      196.90574      197.44272      713.96693    
     18200  -132115.78      715.39347     -131400.39      196.88872      197.43319      714.29429    
     18300  -132077.37      716.56044     -131360.81      196.87295      197.42228      714.62165    
     18400  -132045.87      715.48464     -131330.39      196.85744      197.41251      714.949      
     18500  -132015.25      714.1483      -131301.1       196.84242      197.40359      715.27636    
     18600  -131979.1       709.83622     -131269.26      196.82771      197.39203      715.60372    
     18700  -131949         713.55669     -131235.44      196.81222      197.3821       715.93108    
     18800  -131913.49      717.98795     -131195.5       196.7992       197.37232      716.25843    
     18900  -131869.6       715.87901     -131153.72      196.78624      197.36163      716.58579    
     19000  -131837.95      715.4774      -131122.48      196.77185      197.35139      716.91315    
     19100  -131807.85      711.43237     -131096.42      196.75994      197.33951      717.24051    
     19200  -131774.25      709.74965     -131064.5       196.74805      197.32947      717.56786    
     19300  -131728.69      700.58834     -131028.11      196.73608      197.31865      717.89522    
     19400  -131699.33      710.34239     -130988.99      196.72494      197.30532      718.22258    
     19500  -131664.38      712.16704     -130952.21      196.71389      197.29491      718.54994    
     19600  -131633.07      717.01067     -130916.06      196.70486      197.28344      718.8773     
     19700  -131591.4       711.29172     -130880.11      196.69495      197.2703       719.20465    
     19800  -131553.6       709.73305     -130843.87      196.68468      197.25893      719.53201    
     19900  -131516.85      710.81998     -130806.03      196.67748      197.24668      719.85937    
     20000  -131485.96      718.16942     -130767.8       196.66774      197.23424      720.18673    
     20100  -131443.65      711.80486     -130731.85      196.65887      197.22143      720.51408    
     20200  -131408.48      705.35236     -130703.13      196.65239      197.20865      720.84144    
     20300  -131384.85      712.11734     -130672.73      196.64373      197.19632      721.1688     
     20400  -131344.14      710.05575     -130634.09      196.63637      197.18249      721.49616    
     20500  -131299.04      714.141       -130584.9       196.63016      197.16982      721.82351    
     20600  -131263.44      715.63549     -130547.8       196.62303      197.15727      722.15087    
     20700  -131228.35      712.32993     -130516.02      196.61598      197.14182      722.47823    
     20800  -131190.97      705.73209     -130485.24      196.6093       197.12923      722.80559    
     20900  -131157.34      707.12737     -130450.22      196.60379      197.11661      723.13294    
     21000  -131122.86      718.88852     -130403.97      196.5972       197.1018       723.4603     
     21100  -131072.08      712.42634     -130359.66      196.58958      197.08873      723.78766    
     21200  -131037.56      713.03675     -130324.53      196.58534      197.07669      724.11502    
     21300  -131007.81      712.49314     -130295.32      196.57905      197.06336      724.44237    
     21400  -130973.37      711.68378     -130261.69      196.57076      197.04887      724.76973    
     21500  -130931.8       709.33765     -130222.46      196.5658       197.03618      725.09709    
     21600  -130889.47      708.78128     -130180.69      196.55979      197.02432      725.42445    
     21700  -130853         711.62281     -130141.38      196.55219      197.01035      725.75181    
     21800  -130816.2       713.92668     -130102.28      196.54595      196.99693      726.07916    
     21900  -130780.48      718.8547      -130061.63      196.53958      196.98584      726.40652    
     22000  -130733.99      716.57165     -130017.42      196.53221      196.97216      726.73388    
     22100  -130691.27      716.95928     -129974.31      196.52453      196.95924      727.06124    
     22200  -130655.85      715.04987     -129940.8       196.51759      196.9483       727.38859    
     22300  -130621.41      708.83394     -129912.58      196.51086      196.93626      727.71595    
     22400  -130587.77      713.99224     -129873.78      196.50193      196.9247       728.04331    
     22500  -130540.42      711.03942     -129829.38      196.4937       196.91322      728.37067    
     22600  -130504.01      719.32099     -129784.69      196.4865       196.90254      728.69802    
     22700  -130464.26      721.7223      -129742.54      196.47731      196.89222      729.02538    
     22800  -130422.85      715.40782     -129707.44      196.46898      196.88152      729.35274    
     22900  -130382.79      706.29857     -129676.49      196.45916      196.87053      729.6801     
     23000  -130349.89      710.78332     -129639.11      196.44866      196.86058      730.00745    
     23100  -130307.13      712.88467     -129594.24      196.44003      196.85129      730.33481    
     23200  -130255.26      708.74054     -129546.52      196.42951      196.84238      730.66217    
     23300  -130214.01      708.54054     -129505.47      196.41745      196.83217      730.98953    
     23400  -130181.36      712.33321     -129469.03      196.40703      196.82301      731.31688    
     23500  -130142.01      709.64864     -129432.36      196.39649      196.81634      731.64424    
     23600  -130105.27      713.1344      -129392.13      196.38409      196.80683      731.9716     
     23700  -130060.87      710.28709     -129350.59      196.37128      196.79812      732.29896    
     23800  -130018.85      711.76634     -129307.09      196.35948      196.79193      732.62631    
     23900  -129975.65      714.09985     -129261.55      196.34768      196.78454      732.95367    
     24000  -129927.16      711.86694     -129215.3       196.33324      196.77666      733.28103    
     24100  -129896.11      719.09318     -129177.02      196.31984      196.76938      733.60839    
     24200  -129858.5       710.90372     -129147.6       196.30711      196.7627       733.93575    
     24300  -129815.46      707.06082     -129108.4       196.29222      196.75601      734.2631     
     24400  -129776.2       712.73058     -129063.47      196.27855      196.74917      734.59046    
     24500  -129729.07      714.58919     -129014.48      196.2646       196.74332      734.91782    
     24600  -129689.64      719.66729     -128969.97      196.24953      196.73666      735.24518    
     24700  -129648.64      709.51831     -128939.13      196.23469      196.72967      735.57253    
     24800  -129618.03      712.17433     -128905.85      196.22019      196.72462      735.89989    
     24900  -129566.34      707.16723     -128859.17      196.20529      196.71851      736.22725    
     25000  -129521.62      712.41118     -128809.21      196.18975      196.71167      736.55461    
     25100  -129480.06      715.74266     -128764.32      196.17436      196.70559      736.88196    
     25200  -129437.45      713.20733     -128724.24      196.15951      196.69973      737.20932    
     25300  -129399.46      707.74347     -128691.72      196.14416      196.69311      737.53668    
     25400  -129357.81      702.19016     -128655.62      196.12805      196.68631      737.86404    
     25500  -129316.45      708.70586     -128607.74      196.11282      196.67941      738.19139    
     25600  -129270.24      709.86192     -128560.38      196.09765      196.67296      738.51875    
     25700  -129221.34      706.49687     -128514.85      196.0824       196.66548      738.84611    
     25800  -129180.93      711.64172     -128469.29      196.06715      196.65788      739.17347    
     25900  -129143.17      716.58843     -128426.58      196.05238      196.65092      739.50082    
     26000  -129095.29      707.3456      -128387.94      196.03737      196.64176      739.82818    
     26100  -129058.17      708.37995     -128349.79      196.02107      196.63255      740.15554    
     26200  -129013.84      709.04231     -128304.79      196.00724      196.62443      740.4829     
     26300  -128961.07      709.00261     -128252.07      195.9935       196.6157       740.81025    
     26400  -128925.51      719.3407      -128206.17      195.9782       196.60582      741.13761    
     26500  -128872.09      707.19122     -128164.9       195.96447      196.59507      741.46497    
     26600  -128834.18      707.87651     -128126.3       195.95101      196.58538      741.79233    
     26700  -128799.73      705.25259     -128094.48      195.9376       196.5748       742.11969    
     26800  -128758.09      705.47467     -128052.62      195.92414      196.56275      742.44704    
     26900  -128710.1       709.9462      -128000.15      195.91002      196.55076      742.7744     
     27000  -128660.74      709.46208     -127951.28      195.89857      196.53953      743.10176    
     27100  -128611.25      708.99987     -127902.25      195.88705      196.52781      743.42912    
     27200  -128573.81      718.4003      -127855.41      195.87306      196.5142       743.75647    
     27300  -128532.97      722.09341     -127810.87      195.86116      196.49952      744.08383    
     27400  -128486.52      714.12325     -127772.4       195.85085      196.488        744.41119    
     27500  -128442.97      708.19482     -127734.77      195.83898      196.47404      744.73855    
     27600  -128389.88      703.43256     -127686.45      195.82657      196.45692      745.0659     
     27700  -128341.86      708.24341     -127633.62      195.81648      196.44372      745.39326    
     27800  -128306.34      718.44276     -127587.9       195.80755      196.42962      745.72062    
     27900  -128257.1       711.26949     -127545.83      195.79584      196.41265      746.04798    
     28000  -128221.05      715.30417     -127505.75      195.78489      196.39596      746.37533    
     28100  -128177.01      708.01141     -127469         195.77587      196.38042      746.70269    
     28200  -128139.25      706.7894      -127432.46      195.76606      196.36429      747.03005    
     28300  -128085.48      706.17206     -127379.31      195.75543      196.34606      747.35741    
     28400  -128034.38      707.43987     -127326.94      195.74556      196.32882      747.68476    
     28500  -127994.18      718.51817     -127275.66      195.73623      196.31226      748.01212    
     28600  -127938.61      712.98307     -127225.63      195.72661      196.29391      748.33948    
     28700  -127892.13      712.37903     -127179.75      195.71647      196.27597      748.66684    
     28800  -127853.91      712.25015     -127141.66      195.70695      196.25804      748.99419    
     28900  -127802.48      698.53242     -127103.95      195.69699      196.23942      749.32155    
     29000  -127765.09      710.66718     -127054.42      195.68651      196.22116      749.64891    
     29100  -127712.59      709.80335     -127002.78      195.6776       196.20314      749.97627    
     29200  -127665.18      709.51921     -126955.66      195.66734      196.18497      750.30363    
     29300  -127621.96      712.61158     -126909.35      195.65629      196.16611      750.63098    
     29400  -127570.56      707.89935     -126862.66      195.64627      196.14753      750.95834    
     29500  -127525.12      714.69849     -126810.42      195.63519      196.12936      751.2857     
     29600  -127478.32      718.82768     -126759.49      195.62424      196.11044      751.61306    
     29700  -127435.02      716.05608     -126718.96      195.61341      196.09257      751.94041    
     29800  -127390.2       707.42458     -126682.78      195.60195      196.07472      752.26777    
     29900  -127351.78      716.40005     -126635.38      195.58908      196.05528      752.59513    
     30000  -127295.31      711.38179     -126583.93      195.57652      196.03745      752.92249    
     30100  -127247.86      714.71949     -126533.14      195.56552      196.02118      753.24984    
     30200  -127197.13      712.11071     -126485.02      195.55231      196.00341      753.5772     
     30300  -127153.85      710.20021     -126443.65      195.53782      195.98501      753.90456    
     30400  -127111.45      705.18361     -126406.27      195.52442      195.96784      754.23192    
     30500  -127061.24      704.63318     -126356.6       195.51105      195.95208      754.55927    
     30600  -127015.18      714.58354     -126300.6       195.49628      195.93573      754.88663    
     30700  -126962.82      712.9465      -126249.88      195.48042      195.91847      755.21399    
     30800  -126909.49      706.28077     -126203.21      195.46484      195.90255      755.54135    
     30900  -126868.5       709.5895      -126158.91      195.44929      195.88706      755.8687     
     31000  -126826.64      705.98656     -126120.65      195.43246      195.8717       756.19606    
     31100  -126780.99      706.25374     -126074.74      195.41519      195.85594      756.52342    
     31200  -126723.83      706.84326     -126016.98      195.39848      195.84172      756.85078    
     31300  -126679.59      713.85778     -125965.73      195.38115      195.82795      757.17813    
     31400  -126630.81      713.60777     -125917.2       195.36182      195.8125       757.50549    
     31500  -126577.64      708.9428      -125868.7       195.34272      195.79796      757.83285    
     31600  -126526.32      707.82681     -125818.49      195.32504      195.78568      758.16021    
     31700  -126479.95      714.07131     -125765.88      195.30609      195.77218      758.48757    
     31800  -126431.01      712.88409     -125718.12      195.28526      195.7581       758.81492    
     31900  -126386.08      705.87017     -125680.21      195.26566      195.74556      759.14228    
     32000  -126342.02      705.14143     -125636.88      195.246        195.73271      759.46964    
     32100  -126297.86      710.79726     -125587.06      195.22456      195.71996      759.797      
     32200  -126249.81      716.50697     -125533.3       195.20342      195.70676      760.12435    
     32300  -126198.11      715.76222     -125482.35      195.18277      195.69481      760.45171    
     32400  -126142.65      707.8315      -125434.82      195.16135      195.68294      760.77907    
     32500  -126103         714.81406     -125388.19      195.13963      195.67025      761.10643    
     32600  -126050.07      708.15073     -125341.91      195.11728      195.65784      761.43378    
     32700  -126000.06      707.34349     -125292.71      195.0952       195.64524      761.76114    
     32800  -125946.3       710.52762     -125235.77      195.07354      195.63315      762.0885     
     32900  -125895.57      711.87666     -125183.69      195.05166      195.62147      762.41586    
     33000  -125854.37      716.17303     -125138.2       195.0287       195.60797      762.74321    
     33100  -125809.96      708.26966     -125101.69      195.0058       195.59506      763.07057    
     33200  -125756.95      701.78536     -125055.16      194.98448      195.58319      763.39793    
     33300  -125709.14      708.55778     -125000.58      194.96242      195.57047      763.72529    
     33400  -125659.13      712.97347     -124946.16      194.93956      195.55749      764.05264    
     33500  -125610.26      716.05103     -124894.21      194.91808      195.54373      764.38       
     33600  -125556.19      712.74637     -124843.45      194.89574      195.5305       764.70736    
     33700  -125507.52      715.45462     -124792.06      194.87387      195.51613      765.03472    
     33800  -125451.41      714.37156     -124737.04      194.85254      195.5021       765.36207    
     33900  -125399.67      711.37855     -124688.29      194.83132      195.48834      765.68943    
     34000  -125362.21      714.6767      -124647.53      194.81059      195.47312      766.01679    
     34100  -125309.76      706.12566     -124603.63      194.78871      195.45787      766.34415    
     34200  -125263.78      712.19495     -124551.58      194.76868      195.44261      766.67151    
     34300  -125204.02      708.15964     -124495.86      194.74933      195.42789      766.99886    
     34400  -125158.68      712.86328     -124445.82      194.72956      195.41234      767.32622    
     34500  -125113.01      715.39647     -124397.62      194.70954      195.39506      767.65358    
     34600  -125054.33      706.64089     -124347.69      194.68957      195.37774      767.98094    
     34700  -125007.4       712.92282     -124294.47      194.67202      195.36165      768.30829    
     34800  -124954.12      716.64879     -124237.47      194.65419      195.34453      768.63565    
     34900  -124908.59      722.2009      -124186.39      194.63505      195.32582      768.96301    
     35000  -124854.19      706.61884     -124147.57      194.61751      195.30725      769.29037    
     35100  -124810.24      707.77486     -124102.47      194.60041      195.28911      769.61772    
     35200  -124760.55      711.93767     -124048.61      194.5835       195.26975      769.94508    
     35300  -124700.51      708.02407     -123992.49      194.56743      195.25055      770.27244    
     35400  -124647.26      707.92628     -123939.33      194.55116      195.23078      770.5998     
     35500  -124605.13      715.57351     -123889.55      194.53519      195.20957      770.92715    
     35600  -124556.55      715.74811     -123840.8       194.51948      195.18959      771.25451    
     35700  -124503.18      712.18089     -123791         194.50533      195.16888      771.58187    
     35800  -124446.67      706.82323     -123739.85      194.48989      195.14769      771.90923    
     35900  -124399.26      713.48947     -123685.78      194.47496      195.1258       772.23658    
     36000  -124341.51      715.41781     -123626.1       194.46127      195.10414      772.56394    
     36100  -124291.32      716.3013      -123575.02      194.44756      195.08309      772.8913     
     36200  -124251.77      716.63987     -123535.13      194.43395      195.06084      773.21866    
     36300  -124199.19      711.02614     -123488.16      194.41979      195.03811      773.54602    
     36400  -124144.03      708.67946     -123435.35      194.40579      195.01516      773.87337    
     36500  -124091.62      712.92066     -123378.7       194.39284      194.99267      774.20073    
     36600  -124039.63      716.41485     -123323.22      194.38031      194.97136      774.52809    
     36700  -123986.26      712.07949     -123274.18      194.36715      194.94808      774.85545    
     36800  -123944.68      709.09988     -123235.58      194.35266      194.9242       775.1828     
     36900  -123891.08      705.18326     -123185.89      194.33998      194.90211      775.51016    
     37000  -123836.88      710.65602     -123126.23      194.32771      194.88022      775.83752    
     37100  -123782.08      711.07582     -123071         194.31411      194.85766      776.16488    
     37200  -123733.56      713.20506     -123020.35      194.30084      194.83502      776.49223    
     37300  -123682.86      709.8622      -122973         194.28749      194.81292      776.81959    
     37400  -123638.94      708.31826     -122930.62      194.27388      194.79059      777.14695    
     37500  -123587.03      706.54735     -122880.48      194.26034      194.76834      777.47431    
     37600  -123526.28      709.1092      -122817.17      194.24679      194.74713      777.80166    
     37700  -123473.45      711.49972     -122761.95      194.23342      194.7262       778.12902    
     37800  -123415.48      707.86508     -122707.62      194.21874      194.7043       778.45638    
     37900  -123369.02      716.52052     -122652.49      194.20301      194.68253      778.78374    
     38000  -123310.83      713.73101     -122597.1       194.18938      194.66252      779.11109    
     38100  -123261.51      716.86756     -122544.65      194.17591      194.6444       779.43845    
     38200  -123210.43      708.50758     -122501.92      194.16066      194.62357      779.76581    
     38300  -123167.6       711.08196     -122456.52      194.1436       194.60277      780.09317    
     38400  -123110.16      707.65761     -122402.5       194.1289       194.58449      780.42052    
     38500  -123055.62      712.69598     -122342.92      194.11445      194.56706      780.74788    
     38600  -122999.07      712.22623     -122286.84      194.09674      194.54796      781.07524    
     38700  -122944.73      707.91727     -122236.81      194.07968      194.5294       781.4026     
     38800  -122904.37      716.08583     -122188.28      194.06409      194.51343      781.72996    
     38900  -122847.21      708.54509     -122138.67      194.04718      194.49609      782.05731    
     39000  -122795.65      711.89742     -122083.75      194.02805      194.47861      782.38467    
     39100  -122734.62      712.36653     -122022.25      194.01114      194.46333      782.71203    
     39200  -122682.97      713.7602      -121969.21      193.99471      194.4491       783.03939    
     39300  -122634.75      710.96932     -121923.78      193.97478      194.43293      783.36674    
     39400  -122587.8       707.24022     -121880.56      193.95518      194.41685      783.6941     
     39500  -122539.39      711.81366     -121827.58      193.9377       194.40423      784.02146    
     39600  -122480.67      710.19775     -121770.47      193.91943      194.39111      784.34882    
     39700  -122422.64      709.69176     -121712.95      193.89858      194.37561      784.67617    
     39800  -122370.71      712.46909     -121658.24      193.87758      194.36236      785.00353    
     39900  -122323.02      716.81791     -121606.2       193.85949      194.35055      785.33089    
     40000  -122274.23      713.23236     -121561         193.83895      194.33855      785.65825    
     40100  -122217.75      703.77455     -121513.98      193.81712      194.32443      785.9856     
     40200  -122165.67      710.27415     -121455.39      193.79716      194.31343      786.31296    
     40300  -122110.48      716.01757     -121394.47      193.77814      194.3039       786.64032    
     40400  -122055.19      715.23862     -121339.95      193.75747      194.29184      786.96768    
     40500  -121993.26      704.4721      -121288.78      193.73442      194.27921      787.29503    
     40600  -121945.54      704.9326      -121240.61      193.71402      194.2688       787.62239    
     40700  -121897.09      702.45232     -121194.64      193.69539      194.25987      787.94975    
     40800  -121847.44      709.1757      -121138.26      193.67336      194.24888      788.27711    
     40900  -121785.29      709.72719     -121075.57      193.65135      194.23643      788.60446    
     41000  -121726.4       705.78821     -121020.61      193.63059      194.22758      788.93182    
     41100  -121678.18      711.32239     -120966.86      193.61179      194.21767      789.25918    
     41200  -121631.65      712.96822     -120918.69      193.59062      194.20745      789.58654    
     41300  -121584.61      708.6024      -120876.01      193.56935      194.19626      789.9139     
     41400  -121528.14      706.43429     -120821.71      193.54972      194.1863       790.24125    
     41500  -121469.91      708.73728     -120761.17      193.52926      194.17623      790.56861    
     41600  -121413.41      708.98394     -120704.42      193.50883      194.16459      790.89597    
     41700  -121362.85      713.95023     -120648.9       193.48925      194.15468      791.22333    
     41800  -121310.79      716.31392     -120594.48      193.47023      194.14497      791.55068    
     41900  -121250.57      709.52678     -120541.04      193.45082      194.13286      791.87804    
     42000  -121203.6       712.98752     -120490.61      193.43075      194.12163      792.2054     
     42100  -121146.56      707.32129     -120439.24      193.41307      194.1104       792.53276    
     42200  -121096.13      711.10691     -120385.02      193.39509      194.09981      792.86011    
     42300  -121035.26      710.97317     -120324.29      193.37637      194.08716      793.18747    
     42400  -120987.48      721.72118     -120265.76      193.3583       194.07401      793.51483    
     42500  -120931.48      715.19588     -120216.28      193.342        194.06301      793.84219    
     42600  -120882.88      708.29679     -120174.58      193.32623      194.05059      794.16954    
     42700  -120824.66      705.51561     -120119.15      193.30784      194.03604      794.4969     
     42800  -120767.07      709.02477     -120058.04      193.29159      194.02197      794.82426    
     42900  -120708.34      708.68501     -119999.65      193.27798      194.01038      795.15162    
     43000  -120664.68      718.4033      -119946.28      193.26312      193.9971       795.47897    
     43100  -120607.23      708.16268     -119899.07      193.24709      193.98133      795.80633    
     43200  -120563.86      707.97308     -119855.89      193.23256      193.9668       796.13369    
     43300  -120500.54      702.44207     -119798.09      193.22056      193.95323      796.46105    
     43400  -120448.09      711.67814     -119736.41      193.2072       193.9385       796.7884     
     43500  -120389.15      710.84943     -119678.3       193.19286      193.92137      797.11576    
     43600  -120336.09      711.58981     -119624.5       193.18084      193.90584      797.44312    
     43700  -120288.91      712.09225     -119576.82      193.16984      193.89146      797.77048    
     43800  -120233.48      702.00947     -119531.47      193.15792      193.87448      798.09784    
     43900  -120179.21      706.66177     -119472.55      193.14514      193.85677      798.42519    
     44000  -120120.3       708.25206     -119412.05      193.13504      193.84027      798.75255    
     44100  -120073.33      719.02139     -119354.31      193.12613      193.82488      799.07991    
     44200  -120010.2       712.50387     -119297.69      193.11545      193.80685      799.40727    
     44300  -119952.2       711.50643     -119240.69      193.10465      193.78752      799.73462    
     44400  -119900.95      714.42285     -119186.53      193.09605      193.771        800.06198    
     44500  -119848.16      708.37064     -119139.79      193.08827      193.75423      800.38934    
     44600  -119806         714.6348      -119091.36      193.07827      193.73489      800.7167     
     44700  -119744.02      708.99        -119035.03      193.06853      193.71555      801.04405    
     44800  -119686.55      715.40647     -118971.14      193.06129      193.69812      801.37141    
     44900  -119623.77      713.19808     -118910.57      193.05327      193.68044      801.69877    
     45000  -119572.69      714.05262     -118858.64      193.04406      193.66007      802.02613    
     45100  -119521.57      712.60131     -118808.97      193.03575      193.64133      802.35348    
     45200  -119471.3       712.31547     -118758.99      193.02916      193.62421      802.68084    
     45300  -119413.64      708.26322     -118705.38      193.02104      193.60534      803.0082     
     45400  -119360.82      714.65621     -118646.17      193.01119      193.58548      803.33556    
     45500  -119301.25      721.46488     -118579.79      193.00421      193.56772      803.66291    
     45600  -119246.58      718.01249     -118528.56      192.99789      193.55096      803.99027    
     45700  -119193.89      711.39163     -118482.5       192.98867      193.53135      804.31763    
     45800  -119145.4       714.70644     -118430.7       192.97952      193.51231      804.64499    
     45900  -119088.22      711.55463     -118376.67      192.97239      193.49573      804.97234    
     46000  -119028.03      710.26907     -118317.76      192.96484      193.47824      805.2997     
     46100  -118969.3       716.36653     -118252.94      192.95464      193.45952      805.62706    
     46200  -118919.31      719.58544     -118199.72      192.9462       193.44163      805.95442    
     46300  -118866.34      712.47225     -118153.87      192.93867      193.42654      806.28178    
     46400  -118815.66      715.26609     -118100.39      192.9292       193.4087       806.60913    
     46500  -118759.53      713.47825     -118046.06      192.91839      193.39016      806.93649    
     46600  -118698.13      710.10754     -117988.02      192.90901      193.37432      807.26385    
     46700  -118642.52      718.14301     -117924.37      192.90029      193.35926      807.59121    
     46800  -118585.96      719.1992      -117866.76      192.88922      193.34327      807.91856    
     46900  -118535.04      712.09744     -117822.95      192.87771      193.32656      808.24592    
     47000  -118477.17      705.98164     -117771.18      192.86657      193.31164      808.57328    
     47100  -118420.73      706.14505     -117714.59      192.85711      193.29863      808.90064    
     47200  -118365.76      710.44449     -117655.32      192.84576      193.28455      809.22799    
     47300  -118308.19      714.82541     -117593.37      192.83258      193.26888      809.55535    
     47400  -118253.08      716.69759     -117536.38      192.8201       193.25522      809.88271    
     47500  -118202.87      710.32431     -117492.55      192.80902      193.24357      810.21007    
     47600  -118147.96      706.55787     -117441.4       192.79622      193.23052      810.53742    
     47700  -118094.63      709.94763     -117384.69      192.78157      193.21689      810.86478    
     47800  -118037.51      713.5857      -117323.92      192.7686       193.20527      811.19214    
     47900  -117977.88      717.23592     -117260.65      192.75589      193.1947       811.5195     
     48000  -117922.46      716.63661     -117205.83      192.74109      193.18257      811.84685    
     48100  -117873.22      711.08853     -117162.14      192.72575      193.17063      812.17421    
     48200  -117813.38      705.03598     -117108.35      192.71202      193.1612       812.50157    
     48300  -117761.57      709.39243     -117052.18      192.69757      193.15091      812.82893    
     48400  -117711.79      717.12667     -116994.66      192.68053      193.1401       813.15628    
     48500  -117649.07      710.18862     -116938.88      192.6655       193.13076      813.48364    
     48600  -117599.02      711.93076     -116887.09      192.65028      193.12277      813.811      
     48700  -117543.25      708.14807     -116835.1       192.63285      193.11261      814.13836    
     48800  -117487.2       707.66025     -116779.54      192.61551      193.10337      814.46572    
     48900  -117431.43      714.03766     -116717.39      192.59966      193.09579      814.79307    
     49000  -117374.36      721.8181      -116652.54      192.58229      193.08709      815.12043    
     49100  -117314.53      716.63892     -116597.89      192.56353      193.0782       815.44779    
     49200  -117261.48      710.51973     -116550.96      192.54734      193.0706       815.77515    
     49300  -117208.95      712.82227     -116496.12      192.53024      193.06408      816.1025     
     49400  -117152.35      712.0347      -116440.31      192.51132      193.05546      816.42986    
     49500  -117098.03      714.15434     -116383.87      192.49294      193.04729      816.75722    
     49600  -117042.98      713.97652     -116329         192.47628      193.0415       817.08458    
     49700  -116992.9       715.31003     -116277.59      192.45861      193.0341       817.41193    
     49800  -116932.18      707.9839      -116224.19      192.438        193.02493      817.73929    
     49900  -116868.81      705.97311     -116162.84      192.41979      193.01709      818.06665    
     50000  -116810.41      714.53552     -116095.87      192.40314      193.01167      818.39401    
     50100  -116753.16      713.92844     -116039.23      192.38495      193.00454      818.72136    
     50200  -116699.35      710.0402      -115989.31      192.36532      192.99511      819.04872    
     50300  -116648.88      713.81137     -115935.07      192.34675      192.98771      819.37608    
     50400  -116593.14      710.76204     -115882.38      192.33014      192.98136      819.70344    
     50500  -116535.27      704.30106     -115830.97      192.31153      192.97355      820.03079    
     50600  -116486.32      710.35177     -115775.97      192.29245      192.96378      820.35815    
     50700  -116426.39      714.20836     -115712.18      192.27533      192.95684      820.68551    
     50800  -116367.76      721.34487     -115646.42      192.25963      192.95028      821.01287    
     50900  -116310.3       715.38921     -115594.91      192.24121      192.94063      821.34023    
     51000  -116256.67      711.53834     -115545.14      192.2218       192.92989      821.66758    
     51100  -116199.61      709.8352      -115489.77      192.20588      192.92117      821.99494    
     51200  -116143.91      708.99529     -115434.91      192.19092      192.9142       822.3223     
     51300  -116090.65      706.67108     -115383.98      192.17403      192.90315      822.64966    
     51400  -116042.21      708.40888     -115333.8       192.15513      192.89115      822.97701    
     51500  -115984.85      710.3986      -115274.45      192.14031      192.88134      823.30437    
     51600  -115917.15      713.64152     -115203.51      192.12623      192.87227      823.63173    
     51700  -115859.49      713.9446      -115145.55      192.10991      192.85999      823.95909    
     51800  -115806.6       712.34158     -115094.26      192.0937       192.84649      824.28644    
     51900  -115754.28      712.25747     -115042.02      192.07974      192.83499      824.6138     
     52000  -115699.25      713.5871      -114985.66      192.06685      192.82474      824.94116    
     52100  -115640.46      712.99659     -114927.46      192.05288      192.81098      825.26852    
     52200  -115581.33      712.07864     -114869.25      192.0378       192.79666      825.59587    
     52300  -115523.85      713.12997     -114810.72      192.02578      192.78396      825.92323    
     52400  -115470.64      714.28631     -114756.36      192.01404      192.77189      826.25059    
     52500  -115416.3       711.05339     -114705.24      192.00043      192.75613      826.57795    
     52600  -115359.48      708.58955     -114650.89      191.98687      192.73973      826.9053     
     52700  -115302.12      710.43824     -114591.68      191.97547      192.72565      827.23266    
     52800  -115247.07      720.40906     -114526.66      191.96559      192.71107      827.56002    
     52900  -115180.76      716.84931     -114463.91      191.95363      192.69523      827.88738    
     53000  -115130.45      716.11461     -114414.34      191.94158      192.67692      828.21473    
     53100  -115068.24      706.27251     -114361.97      191.92973      192.66014      828.54209    
     53200  -115012.4       706.13126     -114306.27      191.9215       192.64503      828.86945    
     53300  -114961.76      711.03724     -114250.72      191.91164      192.62836      829.19681    
     53400  -114910.78      711.74238     -114199.03      191.90001      192.60997      829.52417    
     53500  -114853.88      708.00438     -114145.88      191.89034      192.59135      829.85152    
     53600  -114793.73      713.19942     -114080.53      191.88059      192.57399      830.17888    
     53700  -114731.93      720.95063     -114010.98      191.87253      192.55605      830.50624    
     53800  -114676.49      719.67967     -113956.81      191.86249      192.5375       830.8336     
     53900  -114619.64      714.76123     -113904.87      191.85191      192.51681      831.16095    
     54000  -114558.71      709.4126      -113849.3       191.84406      192.49885      831.48831    
     54100  -114504.7       711.56924     -113793.13      191.83603      192.48218      831.81567    
     54200  -114450.21      710.77551     -113739.44      191.8263       192.46058      832.14303    
     54300  -114389.68      701.0858      -113688.59      191.81563      192.44107      832.47038    
     54400  -114341.36      713.19528     -113628.16      191.80949      192.42332      832.79774    
     54500  -114277.95      711.71347     -113566.24      191.80128      192.40546      833.1251     
     54600  -114217.98      711.62623     -113506.35      191.79014      192.38344      833.45246    
     54700  -114165.24      712.55923     -113452.68      191.78042      192.36256      833.77981    
     54800  -114112.68      711.37126     -113401.31      191.77407      192.34678      834.10717    
     54900  -114053.56      712.93699     -113340.62      191.76626      192.32689      834.43453    
     55000  -113989.31      711.08329     -113278.23      191.75261      192.3043       834.76189    
     55100  -113929.31      712.32706     -113216.98      191.74325      192.28383      835.08924    
     55200  -113877.09      710.63224     -113166.45      191.73759      192.26897      835.4166     
     55300  -113819.12      705.83645     -113113.28      191.72891      192.24976      835.74396    
     55400  -113764.15      710.90566     -113053.24      191.7142       192.22625      836.07132    
     55500  -113704.62      711.33554     -112993.29      191.70459      192.20745      836.39867    
     55600  -113643.52      709.50273     -112934.02      191.6999       192.19386      836.72603    
     55700  -113593.57      711.64886     -112881.92      191.68833      192.17454      837.05339    
     55800  -113537.23      711.50681     -112825.72      191.67175      192.15045      837.38075    
     55900  -113474.24      710.97431     -112763.26      191.66171      192.13393      837.70811    
     56000  -113424.2       723.4619      -112700.74      191.65573      192.12114      838.03546    
     56100  -113363.05      712.51824     -112650.53      191.64122      192.10106      838.36282    
     56200  -113302.22      708.50964     -112593.71      191.62416      192.07856      838.69018    
     56300  -113250.31      718.46309     -112531.85      191.61515      192.06472      839.01754    
     56400  -113188.16      714.62313     -112473.53      191.60652      192.05115      839.34489    
     56500  -113129.78      707.60361     -112422.18      191.58818      192.02982      839.67225    
     56600  -113071.54      709.61563     -112361.92      191.57209      192.01097      839.99961    
     56700  -113013.75      715.70325     -112298.04      191.56363      191.9996       840.32697    
     56800  -112952.59      711.65925     -112240.93      191.55051      191.98551      840.65432    
     56900  -112898.72      708.36568     -112190.35      191.53109      191.96514      840.98168    
     57000  -112837.11      708.4454      -112128.67      191.51452      191.9486       841.30904    
     57100  -112774.8       711.06839     -112063.73      191.50377      191.93834      841.6364     
     57200  -112722.12      714.23919     -112007.88      191.48969      191.92457      841.96375    
     57300  -112669.36      715.10244     -111954.26      191.46773      191.9058       842.29111    
     57400  -112606.87      712.56088     -111894.31      191.45166      191.89098      842.61847    
     57500  -112552.01      716.65007     -111835.36      191.43965      191.88251      842.94583    
     57600  -112493.5       712.34242     -111781.16      191.42024      191.8665       843.27318    
     57700  -112429.08      706.77478     -111722.3       191.39834      191.84941      843.60054    
     57800  -112372.21      713.9344      -111658.28      191.38314      191.83891      843.9279     
     57900  -112317.66      718.17153     -111599.49      191.36819      191.82882      844.25526    
     58000  -112261.21      715.63457     -111545.57      191.34647      191.8136       844.58261    
     58100  -112194.01      710.05288     -111483.95      191.32592      191.79876      844.90997    
     58200  -112134.32      711.30565     -111423.02      191.30996      191.78971      845.23733    
     58300  -112076.23      708.43259     -111367.8       191.2922       191.77913      845.56469    
     58400  -112020.63      711.12418     -111309.5       191.26996      191.76379      845.89205    
     58500  -111959.53      711.5647      -111247.97      191.24878      191.75157      846.2194     
     58600  -111904.82      714.12326     -111190.7       191.23305      191.74291      846.54676    
     58700  -111846.23      713.0325      -111133.19      191.21245      191.73159      846.87412    
     58800  -111783.61      711.86601     -111071.74      191.18906      191.71678      847.20148    
     58900  -111723.12      711.97297     -111011.15      191.17002      191.70642      847.52883    
     59000  -111665.26      710.33004     -110954.93      191.1521       191.69822      847.85619    
     59100  -111609.78      714.79991     -110894.98      191.12951      191.68466      848.18355    
     59200  -111544.67      711.65029     -110833.02      191.10641      191.67136      848.51091    
     59300  -111488.37      714.09974     -110774.28      191.08811      191.66314      848.83826    
     59400  -111435.28      718.54328     -110716.73      191.06888      191.65298      849.16562    
     59500  -111366.73      710.62168     -110656.11      191.04599      191.64072      849.49298    
     59600  -111308.14      712.50469     -110595.64      191.02449      191.62807      849.82034    
     59700  -111247.71      711.52487     -110536.19      191.00376      191.61767      850.14769    
     59800  -111186.73      710.54652     -110476.18      190.98361      191.60705      850.47505    
     59900  -111130.68      715.44941     -110415.23      190.96245      191.59469      850.80241    
     60000  -111071.38      716.66166     -110354.72      190.94025      191.58247      851.12977    
     60100  -111005.63      711.54293     -110294.09      190.92027      191.56987      851.45712    
     60200  -110949.84      716.80062     -110233.04      190.8994       191.55853      851.78448    
     60300  -110889.55      716.23208     -110173.32      190.87945      191.54652      852.11184    
     60400  -110835.82      723.1296      -110112.69      190.85919      191.53361      852.4392     
     60500  -110771.5       718.04401     -110053.46      190.83844      191.52114      852.76655    
     60600  -110705.88      713.32941     -109992.55      190.81943      191.50842      853.09391    
     60700  -110648.81      717.29301     -109931.52      190.79922      191.49527      853.42127    
     60800  -110583.73      713.85059     -109869.88      190.77894      191.4811       853.74863    
     60900  -110526.68      718.52072     -109808.16      190.76026      191.46782      854.07599    
     61000  -110463.81      717.05891     -109746.75      190.7413       191.45444      854.40334    
     61100  -110397.57      713.33171     -109684.24      190.72176      191.4395       854.7307     
     61200  -110337.53      714.0764      -109623.45      190.70267      191.42453      855.05806    
     61300  -110281.02      718.92666     -109562.09      190.6848       191.41035      855.38542    
     61400  -110213.6       712.53692     -109501.07      190.66702      191.39567      855.71277    
     61500  -110153.39      713.79393     -109439.6       190.64854      191.37954      856.04013    
     61600  -110090.01      712.04876     -109377.96      190.63122      191.36415      856.36749    
     61700  -110032.12      715.14973     -109316.97      190.61428      191.34856      856.69485    
     61800  -109972.43      717.96997     -109254.46      190.59597      191.33086      857.0222     
     61900  -109905.75      714.99958     -109190.75      190.57868      191.31384      857.34956    
     62000  -109845.49      718.06179     -109127.43      190.56335      191.29814      857.67692    
     62100  -109774.82      709.99386     -109064.83      190.54683      191.28072      858.00428    
     62200  -109719.61      718.5512      -109001.06      190.52955      191.26182      858.33163    
     62300  -109647.11      708.0667      -108939.05      190.51436      191.24421      858.65899    
     62400  -109595.29      719.27981     -108876.01      190.49934      191.22715      858.98635    
     62500  -109527.08      714.14915     -108812.93      190.48353      191.20766      859.31371    
     62600  -109462.5       714.20684     -108748.29      190.46731      191.18775      859.64106    
     62700  -109399.38      714.694       -108684.69      190.45312      191.16998      859.96842    
     62800  -109339.24      718.52419     -108620.72      190.43941      191.15099      860.29578    
     62900  -109271.42      715.70927     -108555.71      190.42317      191.13034      860.62314    
     63000  -109212.2       721.12362     -108491.08      190.40821      191.10929      860.95049    
     63100  -109146.57      719.87929     -108426.69      190.39594      191.09127      861.27785    
     63200  -109082.13      719.60451     -108362.52      190.38168      191.07094      861.60521    
     63300  -109010.22      711.57103     -108298.65      190.36632      191.04841      861.93257    
     63400  -108953.78      719.18493     -108234.6       190.35336      191.02857      862.25993    
     63500  -108884.72      715.54606     -108169.17      190.34052      191.00902      862.58728    
     63600  -108822.12      718.51064     -108103.61      190.32633      190.9863       862.91464    
     63700  -108754.34      718.25636     -108036.08      190.31131      190.96427      863.242      
     63800  -108689.26      719.78522     -107969.47      190.29944      190.94378      863.56936    
     63900  -108618.43      716.58749     -107901.84      190.28707      190.92305      863.89671    
     64000  -108559.99      724.59524     -107835.39      190.27268      190.90101      864.22407    
     64100  -108484.48      714.80213     -107769.68      190.25918      190.87793      864.55143    
     64200  -108419.86      716.55272     -107703.31      190.24641      190.85736      864.87879    
     64300  -108348.97      711.18537     -107637.78      190.2338       190.83661      865.20614    
     64400  -108281.85      711.30388     -107570.54      190.22003      190.81357      865.5335     
     64500  -108219.03      716.11915     -107502.91      190.20562      190.79126      865.86086    
     64600  -108147.1       711.45631     -107435.65      190.19304      190.77054      866.18822    
     64700  -108078.88      712.63768     -107366.24      190.1797       190.7484       866.51557    
     64800  -108012.77      716.196       -107296.57      190.16526      190.72597      866.84293    
     64900  -107941.58      714.6927      -107226.89      190.15142      190.70456      867.17029    
     65000  -107875.39      718.01762     -107157.37      190.1387       190.68351      867.49765    
     65100  -107803.32      714.59545     -107088.72      190.12404      190.66241      867.825      
     65200  -107733.66      714.72539     -107018.93      190.11016      190.63999      868.15236    
     65300  -107667.72      718.01686     -106949.7       190.09601      190.61926      868.47972    
     65400  -107601.31      721.31936     -106879.99      190.08144      190.59878      868.80708    
     65500  -107523.17      713.1665      -106810.01      190.06726      190.57684      869.13443    
     65600  -107460.09      719.79291     -106740.29      190.05179      190.5563       869.46179    
     65700  -107391.41      721.33574     -106670.08      190.03745      190.53635      869.78915    
     65800  -107314.16      715.56385     -106598.59      190.02179      190.51494      870.11651    
     65900  -107241.16      713.5339      -106527.63      190.00572      190.49467      870.44387    
     66000  -107171.11      716.13539     -106454.98      189.99145      190.47544      870.77122    
     66100  -107097.94      716.31304     -106381.63      189.97611      190.45562      871.09858    
     66200  -107027.06      717.42447     -106309.63      189.95855      190.43476      871.42594    
     66300  -106950.61      713.26575     -106237.34      189.94297      190.41488      871.7533     
     66400  -106885.24      719.72433     -106165.51      189.92781      190.39677      872.08065    
     66500  -106803.76      712.15691     -106091.6       189.91013      190.37723      872.40801    
     66600  -106731.15      713.4274      -106017.72      189.89235      190.35633      872.73537    
     66700  -106660.58      717.30546     -105943.27      189.87595      190.33927      873.06273    
     66800  -106586.8       718.05013     -105868.75      189.85972      190.32189      873.39008    
     66900  -106509.27      714.97381     -105794.3       189.84038      190.30157      873.71744    
     67000  -106436.71      717.6473      -105719.06      189.82075      190.28291      874.0448     
     67100  -106363.21      719.48431     -105643.73      189.80445      190.26652      874.37216    
     67200  -106287.85      720.04687     -105567.8       189.78584      190.24891      874.69951    
     67300  -106207.99      715.11478     -105492.88      189.76473      190.23039      875.02687    
     67400  -106133.55      716.34153     -105417.21      189.74728      190.21381      875.35423    
     67500  -106056.04      715.52402     -105340.52      189.72853      190.19796      875.68159    
     67600  -105980.82      717.62295     -105263.2       189.70725      190.17999      876.00894    
     67700  -105903.12      717.21096     -105185.91      189.68851      190.16352      876.3363     
     67800  -105828.23      719.00271     -105109.23      189.66887      190.14833      876.66366    
     67900  -105757.26      725.55806     -105031.71      189.64747      190.13048      876.99102    
     68000  -105665.74      713.31161     -104952.43      189.6275       190.11449      877.31838    
     68100  -105598.67      726.07551     -104872.59      189.60742      190.09964      877.64573    
     68200  -105515.65      721.44632     -104794.2       189.58649      190.08313      877.97309    
     68300  -105432.88      717.6857      -104715.2       189.56515      190.06683      878.30045    
     68400  -105363.55      725.92859     -104637.62      189.54475      190.05248      878.62781    
     68500  -105277.47      718.88643     -104558.58      189.52477      190.0368       878.95516    
     68600  -105195.6       718.70079     -104476.9       189.50221      190.02059      879.28252    
     68700  -105116.39      720.13807     -104396.25      189.48037      190.00496      879.60988    
     68800  -105032.2       715.02412     -104317.17      189.46078      189.99045      879.93724    
     68900  -104949.25      714.13292     -104235.12      189.43893      189.97604      880.26459    
     69000  -104873.98      721.76404     -104152.22      189.41565      189.95854      880.59195    
     69100  -104790.69      719.99714     -104070.69      189.39421      189.94354      880.91931    
     69200  -104707.87      720.59898     -103987.27      189.37412      189.93087      881.24667    
     69300  -104622.31      718.78236     -103903.53      189.35173      189.91386      881.57402    
     69400  -104544.06      723.26939     -103820.79      189.32808      189.89769      881.90138    
     69500  -104462.72      726.51633     -103736.21      189.30821      189.88464      882.22874    
     69600  -104373.45      721.49791     -103651.95      189.28741      189.86943      882.5561     
     69700  -104302.52      732.31277     -103570.2       189.26272      189.85245      882.88345    
     69800  -104214.34      727.04667     -103487.3       189.24197      189.83738      883.21081    
     69900  -104125.11      723.50573     -103401.6       189.22248      189.8242       883.53817    
     70000  -104038.21      720.74585     -103317.47      189.19909      189.80807      883.86553    
     70100  -103961.93      728.00636     -103233.92      189.17658      189.79028      884.19288    
     70200  -103867.62      722.38505     -103145.23      189.15658      189.77707      884.52024    
     70300  -103789.84      730.49299     -103059.34      189.1352       189.76196      884.8476     
     70400  -103698.58      728.08966     -102970.49      189.11221      189.74381      885.17496    
     70500  -103616.37      730.91034     -102885.46      189.09054      189.72875      885.50232    
     70600  -103526.44      727.10992     -102799.33      189.07106      189.71413      885.82967    
     70700  -103439.8       728.05881     -102711.74      189.04843      189.69677      886.15703    
     70800  -103352.56      729.63847     -102622.92      189.02591      189.67971      886.48439    
     70900  -103257.98      724.19282     -102533.79      189.00723      189.6647       886.81175    
     71000  -103177.03      731.33224     -102445.69      188.98597      189.64845      887.1391     
     71100  -103084.21      727.8763      -102356.33      188.96358      189.63016      887.46646    
     71200  -102997.25      731.03707     -102266.21      188.9441       189.61366      887.79382    
     71300  -102902.31      730.16485     -102172.15      188.92385      189.59822      888.12118    
     71400  -102816.8       734.36901     -102082.43      188.90235      189.57895      888.44853    
     71500  -102719.39      729.08086     -101990.31      188.88158      189.56133      888.77589    
     71600  -102630.79      734.90365     -101895.89      188.86268      189.54573      889.10325    
     71700  -102547.05      740.80259     -101806.24      188.84278      189.52746      889.43061    
     71800  -102453.26      737.73742     -101715.52      188.82101      189.50835      889.75796    
     71900  -102366.48      741.62759     -101624.85      188.80184      189.4909       890.08532    
     72000  -102272.41      741.12593     -101531.29      188.78354      189.47398      890.41268    
     72100  -102184.01      747.71175     -101436.29      188.76273      189.45487      890.74004    
     72200  -102079.86      735.33722     -101344.52      188.74211      189.43501      891.06739    
     72300  -101990.8       741.74367     -101249.05      188.72401      189.41771      891.39475    
     72400  -101897.25      742.73182     -101154.51      188.70532      189.39971      891.72211    
     72500  -101800.61      741.0839      -101059.52      188.68481      189.37903      892.04947    
     72600  -101710.55      748.76487     -100961.79      188.66533      189.35969      892.37682    
     72700  -101618.11      750.80846     -100867.3       188.64777      189.34176      892.70418    
     72800  -101522.48      750.92826     -100771.55      188.62879      189.32206      893.03154    
     72900  -101422.98      752.988       -100669.99      188.60841      189.30095      893.3589     
     73000  -101327.86      754.55669     -100573.3       188.59036      189.28158      893.68626    
     73100  -101228.79      747.56323     -100481.23      188.57287      189.26295      894.01361    
     73200  -101135         749.37574     -100385.62      188.55352      189.24223      894.34097    
     73300  -101037.37      749.99531     -100287.38      188.53432      189.22117      894.66833    
     73400  -100945.54      760.2834      -100185.25      188.5166       189.20197      894.99569    
     73500  -100841.52      756.35532     -100085.16      188.49849      189.18172      895.32304    
     73600  -100742.21      756.16283     -99986.05       188.47911      189.16025      895.6504     
     73700  -100652.1       768.94303     -99883.153      188.46082      189.13969      895.97776    
     73800  -100543.25      765.65501     -99777.59       188.44349      189.1199       896.30512    
     73900  -100444.75      766.05987     -99678.69       188.42482      189.09888      896.63247    
     74000  -100343.48      767.3548      -99576.122      188.40561      189.07689      896.95983    
     74100  -100247.66      769.97396     -99477.688      188.38793      189.05643      897.28719    
     74200  -100150.77      776.75294     -99374.022      188.37034      189.03622      897.61455    
     74300  -100043.11      773.91435     -99269.197      188.35148      189.01393      897.9419     
     74400  -99940.622      782.92539     -99157.697      188.33267      188.9924       898.26926    
     74500  -99835.603      779.78653     -99055.816      188.31548      188.97188      898.59662    
     74600  -99738.786      794.29717     -98944.488      188.29739      188.95051      898.92398    
     74700  -99634.457      800.8225      -98833.634      188.2781       188.92815      899.25133    
     74800  -99531.897      800.34608     -98731.551      188.25998      188.90653      899.57869    
     74900  -99417.098      798.59925     -98618.499      188.24278      188.88618      899.90605    
     75000  -99307.732      799.32886     -98508.403      188.22397      188.86407      900.23341    
     75100  -99203.715      809.23065     -98394.484      188.20472      188.84109      900.56076    
     75200  -99090.517      804.77067     -98285.746      188.18669      188.81995      900.88812    
     75300  -98992.336      820.21977     -98172.116      188.16916      188.79875      901.21548    
     75400  -98886.439      830.47221     -98055.967      188.14976      188.77594      901.54284    
     75500  -98773.337      834.78407     -97938.553      188.13066      188.75344      901.8702     
     75600  -98656.771      828.49095     -97828.28       188.11317      188.73225      902.19755    
     75700  -98559.594      837.94822     -97721.645      188.09457      188.71047      902.52491    
     75800  -98436.096      825.42296     -97610.673      188.07503      188.68727      902.85227    
     75900  -98344.554      848.99562     -97495.559      188.05642      188.66536      903.17963    
     76000  -98236.506      848.55341     -97387.953      188.03849      188.64392      903.50698    
     76100  -98126.901      850.04677     -97276.854      188.01922      188.62133      903.83434    
     76200  -98018.699      850.11586     -97168.583      187.99941      188.59847      904.1617     
     76300  -97898.245      849.99106     -97048.254      187.9812       188.57662      904.48906    
     76400  -97791.697      858.91424     -96932.783      187.96231      188.55479      904.81641    
     76500  -97722.315      907.9106      -96814.404      187.94269      188.53164      905.14377    
     76600  -97840.452      1104.4823     -96735.97       187.92253      188.5086       905.47113    
     76700  -98346.042      1543.331      -96802.711      187.9051       188.48598      905.79849    
     76800  -99213.593      2111.0561     -97102.537      187.89078      188.46695      906.12584    
     76900  -100513.13      2659.4289     -97853.699      187.88109      188.45443      906.4532     
     77000  -102224.36      2990.4386     -99233.917      187.88443      188.45552      906.78056    
     77100  -103847.19      2913.8967     -100933.3       187.90508      188.47599      907.10792    
     77200  -105203.89      2623.4134     -102580.47      187.92943      188.49522      907.43527    
     77300  -106459.83      2391.6441     -104068.18      187.93951      188.49604      907.76263    
     77400  -107593.31      2184.4842     -105408.82      187.95058      188.49701      908.08999    
     77500  -108622.07      2011.9764     -106610.1       187.97721      188.51172      908.41735    
     77600  -109587.78      1883.5529     -107704.23      188.00528      188.52712      908.7447     
     77700  -110489.09      1774.3873     -108714.7       188.03208      188.5414       909.07206    
     77800  -111339.89      1685.8254     -109654.07      188.06302      188.55931      909.39942    
     77900  -112147.52      1610.6429     -110536.88      188.09777      188.58044      909.72678    
     78000  -112912.52      1543.9481     -111368.58      188.13271      188.60166      910.05414    
     78100  -113641.92      1485.0474     -112156.87      188.17026      188.6253       910.38149    
     78200  -114333.37      1431.9605     -112901.41      188.2119       188.65295      910.70885    
     78300  -114993.62      1383.796      -113609.82      188.25428      188.68132      911.03621    
     78400  -115623.2       1338.3402     -114284.86      188.29789      188.71091      911.36357    
     78500  -116224.59      1297.334      -114927.26      188.3442       188.74321      911.69092    
     78600  -116799.37      1260.0163     -115539.36      188.3914       188.77608      912.01828    
     78700  -117349.91      1225.9254     -116123.98      188.4382       188.80866      912.34564    
     78800  -117878.07      1194.5403     -116683.53      188.48595      188.84221      912.673      
     78900  -118386.2       1167.411      -117218.79      188.5342       188.87611      913.00035    
     79000  -118875.38      1141.7519     -117733.63      188.58171      188.90939      913.32771    
     79100  -119348.47      1118.2788     -118230.19      188.62871      188.94213      913.65507    
     79200  -119806.89      1097.8793     -118709.01      188.67547      188.97468      913.98243    
     79300  -120251.79      1079.2635     -119172.53      188.72108      189.00627      914.30978    
     79400  -120684.79      1062.54       -119622.25      188.76533      189.03652      914.63714    
     79500  -121106.75      1047.54       -120059.21      188.80847      189.06588      914.9645     
     79600  -121518.41      1033.9118     -120484.5       188.85023      189.09396      915.29186    
     79700  -121920.02      1020.7445     -120899.27      188.89019      189.12038      915.61921    
     79800  -122312.59      1008.6309     -121303.96      188.92864      189.14544      915.94657    
     79900  -122697.39      998.16946     -121699.22      188.96592      189.16948      916.27393    
     80000  -123072.92      987.29336     -122085.63      189.00193      189.19247      916.60129    
     80100  -123442.04      978.09524     -122463.95      189.03678      189.2145       916.92864    
     80200  -123803.24      968.83819     -122834.4       189.07076      189.23588      917.256      
     80300  -124158.37      960.58051     -123197.79      189.10369      189.25646      917.58336    
     80400  -124506.84      952.44361     -123554.39      189.13547      189.27613      917.91072    
     80500  -124850.14      945.4139      -123904.72      189.16636      189.29514      918.23808    
     80600  -125187.48      938.57275     -124248.91      189.19644      189.31357      918.56543    
     80700  -125520.08      932.16871     -124587.91      189.22547      189.33123      918.89279    
     80800  -125848.36      926.3709      -124921.99      189.25357      189.34817      919.22015    
     80900  -126171.56      920.28018     -125251.28      189.2809       189.3646       919.54751    
     81000  -126491.75      915.62553     -125576.13      189.30739      189.38048      919.87486    
     81100  -126807.85      910.92213     -125896.93      189.333        189.3957       920.20222    
     81200  -127120.16      906.32434     -126213.83      189.35779      189.41036      920.52958    
     81300  -127429.08      901.97892     -126527.1       189.38185      189.42452      920.85694    
     81400  -127734.99      898.06061     -126836.93      189.40503      189.43804      921.18429    
     81500  -128037.86      894.28751     -127143.58      189.42747      189.45102      921.51165    
     81600  -128338.31      891.05348     -127447.26      189.44953      189.46378      921.83901    
     81700  -128636.09      887.87999     -127748.21      189.47116      189.47631      922.16637    
     81800  -128931.3       884.76105     -128046.54      189.49213      189.48836      922.49372    
     81900  -129223.91      881.62988     -128342.28      189.51249      189.49995      922.82108    
     82000  -129513.87      878.49311     -128635.38      189.53219      189.51106      923.14844    
     82100  -129801.29      875.4005      -128925.89      189.55134      189.52179      923.4758     
     82200  -130086.38      872.50811     -129213.87      189.57006      189.53227      923.80315    
     82300  -130369.43      869.93414     -129499.5       189.58835      189.54249      924.13051    
     82400  -130650.37      867.44375     -129782.92      189.60615      189.55239      924.45787    
     82500  -130929.11      864.90728     -130064.2       189.62344      189.56193      924.78523    
     82600  -131198.53      856.77968     -130341.75      189.64044      189.57133      925.11259    
     82700  -131459.93      848.3039      -130611.63      189.65754      189.58102      925.43994    
     82800  -131713.1       839.90192     -130873.2       189.67457      189.59081      925.7673     
     82900  -131958.8       832.14859     -131126.65      189.69118      189.60034      926.09466    
     83000  -132196.29      824.07635     -131372.21      189.70768      189.60992      926.42202    
     83100  -132425.98      816.02976     -131609.95      189.72434      189.61978      926.74937    
     83200  -132648.51      808.63824     -131839.87      189.74083      189.62965      927.07673    
     83300  -132863.05      801.12687     -132061.92      189.75714      189.63948      927.40409    
     83400  -133069.79      793.75438     -132276.04      189.77359      189.6496       927.73145    
     83500  -133268.52      786.37472     -132482.15      189.79014      189.65998      928.0588     
     83600  -133459.43      779.28727     -132680.15      189.80659      189.67041      928.38616    
     83700  -133642.08      772.14864     -132869.93      189.82312      189.68107      928.71352    
     83800  -133816.63      765.25892     -133051.37      189.83989      189.69212      929.04088    
     83900  -133982.84      758.55001     -133224.29      189.85674      189.7034       929.36823    
     84000  -134140.59      752.07809     -133388.52      189.87368      189.7149       929.69559    
     84100  -134289.55      745.73221     -133543.82      189.89095      189.72686      930.02295    
     84200  -134429.65      739.6878      -133689.96      189.90853      189.73924      930.35031    
     84300  -134560.6       733.94074     -133826.66      189.92634      189.75196      930.67766    
     84400  -134682.15      728.52923     -133953.62      189.94454      189.76516      931.00502    
     84500  -134794.01      723.51288     -134070.5       189.96327      189.77893      931.33238    
     84600  -134895.96      719.11824     -134176.84      189.98231      189.7931       931.65974    
     84700  -134988.38      715.87565     -134272.5       190.00106      189.80725      931.98709    
     84800  -135071.5       713.47276     -134358.02      190.01979      189.82153      932.31445    
     84900  -135145.15      711.23471     -134433.91      190.03858      189.83609      932.64181    
     85000  -135209.2       709.25404     -134499.94      190.05746      189.85089      932.96917    
     85100  -135263.63      707.94585     -134555.68      190.07659      189.86616      933.29653    
     85200  -135308.38      707.28511     -134601.1       190.0958       189.88174      933.62388    
     85300  -135343.37      706.88954     -134636.49      190.11501      189.89757      933.95124    
     85400  -135368.54      706.52122     -134662.02      190.13436      189.91373      934.2786     
     85500  -135383.83      706.32626     -134677.51      190.1538       189.93023      934.60596    
     85600  -135389.24      706.45796     -134682.78      190.17325      189.94695      934.93331    
     85700  -135384.57      706.49056     -134678.08      190.19248      189.96371      935.26067    
     85800  -135368.86      705.45148     -134663.41      190.21025      189.97925      935.58803    
     85900  -135340.99      703.8563      -134637.14      190.22618      189.99311      935.91539    
     86000  -135300.15      702.92368     -134597.23      190.24218      190.00731      936.24274    
     86100  -135245.66      702.10861     -134543.56      190.2578       190.02132      936.5701     
     86200  -135177.55      700.04804     -134477.5       190.27166      190.03369      936.89746    
     86300  -135095.47      695.88642     -134399.58      190.28549      190.04629      937.22482    
     86400  -134998.3       689.55635     -134308.75      190.29925      190.05902      937.55217    
     86500  -134888.65      684.05047     -134204.6       190.31113      190.06999      937.87953    
     86600  -134761.75      673.66333     -134088.09      190.32342      190.08139      938.20689    
     86700  -134622.51      663.28755     -133959.22      190.33645      190.09333      938.53425    
     86800  -134469.26      649.76061     -133819.5       190.347        190.10295      938.8616     
     86900  -134313.05      642.28297     -133670.77      190.3575       190.11266      939.18896    
     87000  -134246.33      725.72042     -133520.61      190.36678      190.1213       939.51632    
     87100  -134228.82      794.60975     -133434.21      190.34614      190.10108      939.84368    
     87200  -134208.3       727.37609     -133480.92      190.31351      190.06869      940.17103    
     87300  -134277.6       715.4811      -133562.12      190.30422      190.06107      940.49839    
     87400  -134338.25      700.48587     -133637.77      190.31969      190.07447      940.82575    
     87500  -134368.39      682.07902     -133686.31      190.314        190.06857      941.15311    
     87600  -134408.88      719.60924     -133689.27      190.30287      190.05647      941.48047    
     87700  -134410.57      718.53508     -133692.04      190.29116      190.0471       941.80782    
     87800  -134406.92      703.08296     -133703.84      190.29037      190.04387      942.13518    
     87900  -134393.1       699.38719     -133693.71      190.29896      190.05581      942.46254    
     88000  -134366.78      711.30743     -133655.48      190.30679      190.06893      942.7899     
     88100  -134349.59      733.63139     -133615.95      190.31786      190.07398      943.11725    
     88200  -134339.42      718.84015     -133620.58      190.32104      190.08226      943.44461    
     88300  -134373.19      712.15013     -133661.04      190.328        190.09756      943.77197    
     88400  -134402.75      705.08093     -133697.67      190.33812      190.12068      944.09933    
     88500  -134402.1       688.76877     -133713.33      190.3539       190.14936      944.42668    
     88600  -134436.54      731.62183     -133704.91      190.36366      190.17259      944.75404    
     88700  -134453.32      723.02455     -133730.29      190.36408      190.19182      945.0814     
     88800  -134471.49      697.46003     -133774.03      190.36615      190.21162      945.40876    
     88900  -134486.72      694.82584     -133791.89      190.3693       190.23549      945.73611    
     89000  -134482.79      702.98868     -133779.81      190.37882      190.26626      946.06347    
     89100  -134477.91      721.53304     -133756.38      190.3789       190.29162      946.39083    
     89200  -134445         705.4138      -133739.58      190.37912      190.30964      946.71819    
     89300  -134439.79      720.38799     -133719.4       190.38519      190.3317       947.04554    
     89400  -134446.83      724.49194     -133722.34      190.38232      190.3546       947.3729     
     89500  -134435.49      692.07765     -133743.41      190.38071      190.37973      947.70026    
     89600  -134447.13      703.5848      -133743.55      190.39091      190.40624      948.02762    
     89700  -134431.95      707.03956     -133724.91      190.40456      190.43175      948.35497    
     89800  -134424.97      727.37707     -133697.59      190.41271      190.45734      948.68233    
     89900  -134410.99      720.10726     -133690.88      190.42006      190.47576      949.00969    
     90000  -134412.66      705.52501     -133707.13      190.42435      190.48192      949.33705    
     90100  -134407.81      690.96208     -133716.85      190.42711      190.48912      949.66441    
     90200  -134400.28      705.61348     -133694.67      190.43248      190.50151      949.99176    
     90300  -134392.38      730.74366     -133661.63      190.44037      190.50783      950.31912    
     90400  -134391.15      732.65421     -133658.5       190.44582      190.51247      950.64648    
     90500  -134402.47      715.24446     -133687.23      190.45636      190.52535      950.97384    
     90600  -134422.06      703.33392     -133718.73      190.4689       190.53016      951.30119    
     90700  -134438.14      704.02492     -133734.11      190.48947      190.54328      951.62855    
     90800  -134434.28      701.81638     -133732.46      190.507        190.55755      951.95591    
     90900  -134429.44      710.91607     -133718.53      190.51731      190.55368      952.28327    
     91000  -134420.16      714.28212     -133705.88      190.5368       190.55877      952.61062    
     91100  -134432.23      725.94247     -133706.29      190.55394      190.56197      952.93798    
     91200  -134432.78      705.39812     -133727.38      190.56779      190.56023      953.26534    
     91300  -134436.08      694.57688     -133741.51      190.58968      190.56502      953.5927     
     91400  -134429.04      700.87918     -133728.16      190.60581      190.56605      953.92005    
     91500  -134423.58      718.30526     -133705.28      190.62808      190.56148      954.24741    
     91600  -134431.48      729.67998     -133701.8       190.65506      190.55749      954.57477    
     91700  -134425.08      705.59859     -133719.49      190.67317      190.54946      954.90213    
     91800  -134433.5       701.39294     -133732.11      190.6882       190.5444       955.22948    
     91900  -134431.81      700.63717     -133731.17      190.70985      190.54581      955.55684    
     92000  -134427.35      712.62433     -133714.73      190.72916      190.54436      955.8842     
     92100  -134427.71      729.19156     -133698.52      190.74923      190.54235      956.21156    
     92200  -134428.42      724.60757     -133703.81      190.76316      190.53569      956.53891    
     92300  -134429.67      704.80463     -133724.86      190.77574      190.5257       956.86627    
     92400  -134447.28      708.28199     -133739         190.79234      190.52672      957.19363    
     92500  -134446.73      704.73596     -133742         190.80927      190.5264       957.52099    
     92600  -134449.27      715.62826     -133733.64      190.81836      190.5147       957.84835    
     92700  -134440.22      712.75819     -133727.47      190.82482      190.50506      958.1757     
     92800  -134449.02      718.16022     -133730.86      190.83777      190.50251      958.50306    
     92900  -134463.51      715.17991     -133748.33      190.85601      190.50428      958.83042    
     93000  -134471.14      704.37614     -133766.77      190.86605      190.50414      959.15778    
     93100  -134469.63      698.77662     -133770.86      190.87532      190.50551      959.48513    
     93200  -134473.97      712.32846     -133761.64      190.88367      190.50669      959.81249    
     93300  -134470.73      719.24504     -133751.48      190.8843       190.50921      960.13985    
     93400  -134468.08      714.59926     -133753.48      190.89255      190.51587      960.46721    
     93500  -134483.16      716.58151     -133766.58      190.90011      190.51409      960.79456    
     93600  -134494.21      707.28145     -133786.93      190.90531      190.51526      961.12192    
     93700  -134506.86      704.03333     -133802.82      190.91097      190.52093      961.44928    
     93800  -134508.85      706.36786     -133802.48      190.91504      190.52189      961.77664    
     93900  -134505.3       716.19594     -133789.1       190.92248      190.52246      962.10399    
     94000  -134503.81      724.19325     -133779.61      190.92936      190.52222      962.43135    
     94100  -134502.75      718.83065     -133783.92      190.93164      190.51809      962.75871    
     94200  -134510.07      710.32883     -133799.74      190.937        190.51854      963.08607    
     94300  -134520.32      706.09733     -133814.22      190.94451      190.51803      963.41342    
     94400  -134510.5       698.15348     -133812.35      190.9423       190.51078      963.74078    
     94500  -134514.95      713.82628     -133801.12      190.93891      190.50837      964.06814    
     94600  -134512.68      719.08064     -133793.6       190.93782      190.50866      964.3955     
     94700  -134515.3       715.94515     -133799.35      190.92888      190.50536      964.72285    
     94800  -134523.5       710.72054     -133812.78      190.92837      190.50119      965.05021    
     94900  -134536.58      707.76937     -133828.81      190.92721      190.49659      965.37757    
     95000  -134544.48      704.28285     -133840.2       190.92499      190.48774      965.70493    
     95100  -134552.6       711.36243     -133841.24      190.92042      190.47827      966.03229    
     95200  -134545.55      710.05054     -133835.5       190.91836      190.46763      966.35964    
     95300  -134554.25      719.79106     -133834.46      190.91645      190.4591       966.687      
     95400  -134565.52      717.15785     -133848.36      190.91623      190.45844      967.01436    
     95500  -134578.83      709.72746     -133869.1       190.91282      190.45501      967.34172    
     95600  -134579.59      699.94629     -133879.65      190.91032      190.44852      967.66907    
     95700  -134577.56      709.49059     -133868.07      190.91351      190.44453      967.99643    
     95800  -134568.04      719.78041     -133848.26      190.91524      190.44502      968.32379    
     95900  -134570.87      725.36618     -133845.51      190.91211      190.44344      968.65115    
     96000  -134579.73      713.74636     -133865.98      190.90955      190.43976      968.9785     
     96100  -134590.73      699.10306     -133891.62      190.90783      190.43691      969.30586    
     96200  -134603.86      704.02078     -133899.84      190.90703      190.43586      969.63322    
     96300  -134601.44      708.0668      -133893.37      190.91037      190.43997      969.96058    
     96400  -134606.86      720.37908     -133886.48      190.90941      190.44132      970.28793    
     96500  -134612.31      715.83755     -133896.48      190.90334      190.44008      970.61529    
     96600  -134620.2       701.59075     -133918.61      190.89938      190.43523      970.94265    
     96700  -134624.25      697.76687     -133926.49      190.89593      190.43174      971.27001    
     96800  -134623.1       706.44738     -133916.65      190.8959       190.43328      971.59736    
     96900  -134619.7       718.67758     -133901.02      190.89075      190.4303       971.92472    
     97000  -134622.88      723.03451     -133899.84      190.88263      190.42495      972.25208    
     97100  -134626.07      708.25649     -133917.82      190.88054      190.42369      972.57944    
     97200  -134640.93      706.35639     -133934.57      190.87696      190.41888      972.9068     
     97300  -134637.99      700.45573     -133937.53      190.87305      190.41206      973.23415    
     97400  -134636.76      711.66778     -133925.09      190.86869      190.4048       973.56151    
     97500  -134624.86      715.10736     -133909.75      190.86141      190.39634      973.88887    
     97600  -134619.66      718.13406     -133901.53      190.85505      190.3905       974.21623    
     97700  -134624.02      718.29714     -133905.73      190.85016      190.38344      974.54358    
     97800  -134624.35      708.92957     -133915.42      190.84509      190.37214      974.87094    
     97900  -134629.35      707.81774     -133921.54      190.8402       190.36119      975.1983     
     98000  -134637.23      714.17404     -133923.06      190.83493      190.3492       975.52566    
     98100  -134639.03      715.38718     -133923.64      190.82807      190.33411      975.85301    
     98200  -134639.61      711.52834     -133928.09      190.82622      190.31987      976.18037    
     98300  -134645.05      712.11931     -133932.94      190.82326      190.3032       976.50773    
     98400  -134650.8       713.61365     -133937.19      190.81972      190.29117      976.83509    
     98500  -134661.99      714.63571     -133947.35      190.81707      190.28457      977.16244    
     98600  -134667.12      705.03502     -133962.08      190.81513      190.27162      977.4898     
     98700  -134676.99      706.64335     -133970.35      190.81754      190.25877      977.81716    
     98800  -134675.98      709.33933     -133966.64      190.82261      190.24258      978.14452    
     98900  -134678.13      718.03363     -133960.09      190.82887      190.22708      978.47187    
     99000  -134672.66      710.73661     -133961.92      190.83369      190.21067      978.79923    
     99100  -134683.52      712.50544     -133971.01      190.83705      190.18827      979.12659    
     99200  -134694.67      712.31335     -133982.36      190.84557      190.17156      979.45395    
     99300  -134689.81      703.20781     -133986.61      190.85149      190.15162      979.7813     
     99400  -134695.2       713.62778     -133981.58      190.85583      190.12677      980.10866    
     99500  -134690.53      714.91378     -133975.62      190.86648      190.11083      980.43602    
     99600  -134700.38      722.63414     -133977.74      190.87454      190.09477      980.76338    
     99700  -134703.63      711.94862     -133991.68      190.88022      190.0775       981.09074    
     99800  -134711.38      706.22084     -134005.16      190.8898       190.06505      981.41809    
     99900  -134717.77      706.15482     -134011.62      190.89702      190.05651      981.74545    
    100000  -134721.32      709.94155     -134011.38      190.89948      190.04178      982.07281    
Loop time of 32122.4 on 16 procs for 100000 steps with 18360 atoms

Performance: 0.269 ns/day, 89.229 hours/ns, 3.113 timesteps/s, 57.156 katom-step/s
47.4% CPU use with 16 MPI tasks x 1 OpenMP threads

MPI task timing breakdown:
Section |  min time  |  avg time  |  max time  |%varavg| %total
---------------------------------------------------------------
Pair    | 2633.4     | 3028       | 3658.5     | 512.4 |  9.43
Neigh   | 11.946     | 16.393     | 24.912     |  99.9 |  0.05
Comm    | 3583.5     | 4346.9     | 5059.2     | 590.7 | 13.53
Output  | 101.5      | 105.1      | 109.27     |  18.8 |  0.33
Modify  | 21083      | 21618      | 22161      | 190.1 | 67.30
Other   |            | 3008       |            |       |  9.37

Nlocal:         1147.5 ave        2307 max         267 min
Histogram: 3 3 2 0 0 2 2 1 1 2
Nghost:         3472.5 ave        5380 max        1455 min
Histogram: 4 4 0 0 0 0 0 0 1 7
Neighs:              0 ave           0 max           0 min
Histogram: 16 0 0 0 0 0 0 0 0 0

Total # of neighbors = 0
Ave neighs/atom = 0
Neighbor list builds = 713
Dangerous builds = 0
Total wall time: 8:55:31
