LAMMPS (2 Aug 2023 - Update 3)
OMP_NUM_THREADS environment is not set. Defaulting to 1 thread. (src/comm.cpp:98)
  using 1 OpenMP thread(s) per MPI task

# 1------general---------------
units                             metal      #单位为lammps 中的metel 类型
dimension                    3          #模拟的维度 三维
boundary                    p p p      #周期边界条件
atom_style                  atomic   #原子类型自动
atom_modify              map array sort 100 2.0
neighbor                    3.0 bin
neigh_modify            every 1 delay 0 check yes
#2 -----global variable-------定义全局变量，方便统一修改；
variable temperature equal 300
variable tstep equal 0.001
variable pressure equal 0
variable thermalstep equal 100
variable dumpstep equal 1000
variable relaxtime equal 0
variable totaltime equal 100000
variable deformrate equal 5e-3
#3 -------model------------
#box tilt large
read_data     1.lmp
Reading data file ...
  orthogonal box = (-100 -100 -2.1416495) to (100 100 39.081159)
  4 by 4 by 1 MPI processor grid
  reading atoms ...
  1620 atoms
  read_data CPU = 0.620 seconds
group SR type 2 3
600 atoms in group SR
delete_atoms group SR
Deleted 600 atoms, new total = 1020
replicate 1 1 15
Replication is creating a 1x1x15 = 15 times larger system...
  orthogonal box = (-100 -100 -2.1416495) to (100 100 616.20049)
  2 by 2 by 4 MPI processor grid
  15300 atoms
  replicate CPU = 0.652 seconds
write_data h.data
System init for write_data ...
WARNING: Communication cutoff is 0.0. No ghost atoms will be generated. Atoms may get lost. (src/comm_brick.cpp:210)
pair_style hybrid airebo 3.0 airebo 3.0 airebo 3.0 lj/cut 10
pair_coeff * * airebo 1 CH.airebo C NULL NULL
Reading airebo potential file CH.airebo with DATE: 2011-10-25
pair_coeff * * airebo 2 CH.airebo NULL C NULL
Reading airebo potential file CH.airebo with DATE: 2011-10-25
pair_coeff * * airebo 3 CH.airebo NULL NULL C
Reading airebo potential file CH.airebo with DATE: 2011-10-25
pair_coeff 1 2 lj/cut 0.00456 3.431
pair_coeff 1 3 lj/cut 0.00456 3.431
pair_coeff 2 3 lj/cut 0.00456 3.431

# 5------minimize -----------
min_style      sd
minimize       1.0e-4 1.0e-6 100 1000
Neighbor list info ...
  update: every = 1 steps, delay = 0 steps, check = yes
  max neighbors/atom: 2000, page size: 100000
  master list distance cutoff = 13.2
  ghost atom cutoff = 13.2
  binsize = 6.6, bins = 31 31 94
  6 neighbor lists, perpetual/occasional/extra = 6 0 0
  (1) pair airebo, perpetual, skip from (5)
      attributes: full, newton on, ghost
      pair build: skip/ghost
      stencil: none
      bin: none
  (2) pair airebo, perpetual, skip from (5)
      attributes: full, newton on, ghost
      pair build: skip/ghost
      stencil: none
      bin: none
  (3) pair airebo, perpetual, skip from (5)
      attributes: full, newton on, ghost
      pair build: skip/ghost
      stencil: none
      bin: none
  (4) pair lj/cut, perpetual, skip from (6)
      attributes: half, newton on, cut 13
      pair build: skip
      stencil: none
      bin: none
  (5) neighbor class addition, perpetual
      attributes: full, newton on, ghost
      pair build: full/bin/ghost
      stencil: full/ghost/bin/3d
      bin: standard
  (6) neighbor class addition, perpetual
      attributes: half, newton on, cut 13
      pair build: half/bin/atomonly/newton
      stencil: half/bin/3d
      bin: standard
Per MPI rank memory allocation (min/avg/max) = 12.97 | 12.97 | 12.97 Mbytes
   Step          Temp          E_pair         E_mol          TotEng         Press     
         0   0             -113439.35      0             -113439.35     -58.353665    
         1   0             -113439.48      0             -113439.48     -58.244675    
Loop time of 0.63003 on 16 procs for 1 steps with 15300 atoms

43.3% CPU use with 16 MPI tasks x 1 OpenMP threads

Minimization stats:
  Stopping criterion = energy tolerance
  Energy initial, next-to-last, final = 
     -113439.354401455  -113439.354401455  -113439.482339844
  Force two-norm initial, final = 5.7178517 1.1158772
  Force max component initial, final = 0.046231127 0.0090219153
  Final line search alpha, max atom move = 1 0.0090219153
  Iterations, force evaluations = 1 2

MPI task timing breakdown:
Section |  min time  |  avg time  |  max time  |%varavg| %total
---------------------------------------------------------------
Pair    | 0.055957   | 0.063085   | 0.10637    |   4.6 | 10.01
Neigh   | 0          | 0          | 0          |   0.0 |  0.00
Comm    | 0.089725   | 0.14425    | 0.18012    |   5.8 | 22.90
Output  | 0          | 0          | 0          |   0.0 |  0.00
Modify  | 0          | 0          | 0          |   0.0 |  0.00
Other   |            | 0.4227     |            |       | 67.09

Nlocal:         956.25 ave        1024 max         889 min
Histogram: 4 0 0 0 4 4 0 0 0 4
Nghost:        3528.75 ave        3604 max        3454 min
Histogram: 2 2 0 0 4 4 0 0 2 2
Neighs:              0 ave           0 max           0 min
Histogram: 16 0 0 0 0 0 0 0 0 0

Total # of neighbors = 0
Ave neighs/atom = 0
Neighbor list builds = 0
Dangerous builds = 0
#6----define computes------
variable nums equal count(all) #计算原子数目
variable toval equal 20.535*20.0413*lz #计算系统总体积，单层石墨烯厚度为0.335nm
variable vol equal ${toval} #体系的初始体积
variable vol equal 254477.528026654 
variable vatom equal v_vol/v_nums #单个原子体积
compute 1 all stress/atom NULL #计算体系中单原子应力
compute xalls all reduce sum c_1[1]
variable xstress equal (c_xalls)/(v_toval*10000)
compute yalls all reduce sum c_1[2]
variable ystress equal (c_yalls)/(v_toval*10000)
compute zalls all reduce sum c_1[3]
variable zstress equal (c_zalls)/(v_toval*10000)
#7---------relaxation-------------------------
timestep ${tstep}
timestep 0.001
velocity all create ${temperature} 231743 units box dist gaussian
velocity all create 300 231743 units box dist gaussian
dump   1 all atom 100 all-cy.lammpstrj
#fix    1 all npt temp 300 300  0.1 aniso 0 0 10 drag 1  #三个方向独立控压
fix  1 all npt temp ${temperature} ${temperature} 0.1 x ${pressure} ${pressure} 10 y ${pressure} ${pressure} 10
fix  1 all npt temp 300 ${temperature} 0.1 x ${pressure} ${pressure} 10 y ${pressure} ${pressure} 10
fix  1 all npt temp 300 300 0.1 x ${pressure} ${pressure} 10 y ${pressure} ${pressure} 10
fix  1 all npt temp 300 300 0.1 x 0 ${pressure} 10 y ${pressure} ${pressure} 10
fix  1 all npt temp 300 300 0.1 x 0 0 10 y ${pressure} ${pressure} 10
fix  1 all npt temp 300 300 0.1 x 0 0 10 y 0 ${pressure} 10
fix  1 all npt temp 300 300 0.1 x 0 0 10 y 0 0 10
compute  2 all pe/atom
compute  pe all reduce sum c_2
variable PE equal "c_pe"
fix    pe all print 100 "${PE} " file PE.txt screen no
thermo  ${thermalstep}
thermo  100
#thermo_style  custom step pe ke etotal lx ly lz
run   ${relaxtime}
run   0
Per MPI rank memory allocation (min/avg/max) = 13.59 | 13.6 | 13.6 Mbytes
   Step          Temp          E_pair         E_mol          TotEng         Press          Volume    
         1   300           -113439.48      0             -112846.22     -32.62467       24733685     
Loop time of 0.0249958 on 16 procs for 0 steps with 15300 atoms

37.0% CPU use with 16 MPI tasks x 1 OpenMP threads

MPI task timing breakdown:
Section |  min time  |  avg time  |  max time  |%varavg| %total
---------------------------------------------------------------
Pair    | 0          | 0          | 0          |   0.0 |  0.00
Neigh   | 0          | 0          | 0          |   0.0 |  0.00
Comm    | 0          | 0          | 0          |   0.0 |  0.00
Output  | 0          | 0          | 0          |   0.0 |  0.00
Modify  | 0          | 0          | 0          |   0.0 |  0.00
Other   |            | 0.025      |            |       |100.00

Nlocal:         956.25 ave        1024 max         889 min
Histogram: 8 0 0 0 0 0 0 0 0 8
Nghost:        3528.75 ave        3604 max        3454 min
Histogram: 4 4 0 0 0 0 0 0 4 4
Neighs:              0 ave           0 max           0 min
Histogram: 16 0 0 0 0 0 0 0 0 0

Total # of neighbors = 0
Ave neighs/atom = 0
Neighbor list builds = 0
Dangerous builds = 0
#8 -------tension-----------------------------
unfix  1
undump  1
unfix  pe
reset_timestep 0
fix avestress all ave/atom 1 ${dumpstep} ${dumpstep} c_1[1] c_1[2] c_1[3] c_1[4] c_1[5] c_1[6]
fix avestress all ave/atom 1 1000 ${dumpstep} c_1[1] c_1[2] c_1[3] c_1[4] c_1[5] c_1[6]
fix avestress all ave/atom 1 1000 1000 c_1[1] c_1[2] c_1[3] c_1[4] c_1[5] c_1[6]

#-----calculation of strain and Cumulative compression--------
variable                tmp equal "lz"
variable                L0 equal ${tmp}
variable                L0 equal 618.342135
variable                strain equal "(lz - v_L0)/v_L0"
variable                Cumulativels equal "(lz - v_L0)/10"
fix Step all print 100 "${strain} ${Cumulativels} ${zstress}" file grapoten.txt screen no

dump 2 all custom ${dumpstep} tension.xyz type x y z f_avestress[1] f_avestress[2] f_avestress[3] f_avestress[4] f_avestress[5] f_avestress[6]
dump 2 all custom 1000 tension.xyz type x y z f_avestress[1] f_avestress[2] f_avestress[3] f_avestress[4] f_avestress[5] f_avestress[6]

fix  1 all npt temp ${temperature} ${temperature} 0.1 y ${pressure} ${pressure} 10 x ${pressure} ${pressure} 10
fix  1 all npt temp 300 ${temperature} 0.1 y ${pressure} ${pressure} 10 x ${pressure} ${pressure} 10
fix  1 all npt temp 300 300 0.1 y ${pressure} ${pressure} 10 x ${pressure} ${pressure} 10
fix  1 all npt temp 300 300 0.1 y 0 ${pressure} 10 x ${pressure} ${pressure} 10
fix  1 all npt temp 300 300 0.1 y 0 0 10 x ${pressure} ${pressure} 10
fix  1 all npt temp 300 300 0.1 y 0 0 10 x 0 ${pressure} 10
fix  1 all npt temp 300 300 0.1 y 0 0 10 x 0 0 10

thermo_style custom step pe ke etotal lx ly lz
fix   2 all deform 1 z erate ${deformrate} remap x units box
fix   2 all deform 1 z erate 0.005 remap x units box
fix   3 all ave/time 2 500 1000 v_xstress v_ystress v_zstress file pressure.out
run   ${totaltime}
run   100000
WARNING: Dump 2 includes no atom IDs and is not sorted by ID. This may complicate post-processing tasks or visualization (src/dump.cpp:221)
Per MPI rank memory allocation (min/avg/max) = 15.09 | 15.1 | 15.1 Mbytes
   Step         PotEng         KinEng         TotEng           Lx             Ly             Lz      
         0  -113439.48      593.26529     -112846.22      200            200            618.34213    
       100  -113096.42      291.07848     -112805.34      199.99181      199.99114      618.65131    
       200  -113111.3       361.37395     -112749.92      199.9862       199.98523      618.96048    
       300  -113059.89      376.29158     -112683.59      199.9947       199.9935       619.26965    
       400  -113028.78      417.83993     -112610.94      199.98604      199.98385      619.57882    
       500  -112988.21      454.3355      -112533.88      199.98144      199.978        619.88799    
       600  -112951.34      496.19306     -112455.15      199.99062      199.9868       620.19716    
       700  -112909.4       530.92715     -112378.47      199.98187      199.97682      620.50633    
       800  -112870.18      561.50968     -112308.67      199.97593      199.96878      620.8155     
       900  -112848.67      596.78548     -112251.88      199.98681      199.97795      621.12467    
      1000  -112821.88      603.82602     -112218.05      199.97906      199.96792      621.43385    
      1100  -112830.24      611.68567     -112218.55      199.97087      199.95679      621.74302    
      1200  -112835.1       592.28581     -112242.81      199.9791       199.96211      622.05219    
      1300  -112846.34      585.22059     -112261.12      199.97309      199.9517       622.36136    
      1400  -112846.15      585.84772     -112260.3       199.96771      199.94183      622.67053    
      1500  -112829.05      590.29627     -112238.76      199.97525      199.94431      622.9797     
      1600  -112817.59      602.77203     -112214.82      199.97132      199.93442      623.28887    
      1700  -112816.87      609.45021     -112207.42      199.96586      199.92236      623.59804    
      1800  -112814.55      596.90947     -112217.64      199.97171      199.92148      623.90721    
      1900  -112820.96      589.59765     -112231.36      199.96988      199.91171      624.21639    
      2000  -112820.69      585.74474     -112234.95      199.96618      199.89959      624.52556    
      2100  -112811.22      590.65234     -112220.57      199.96927      199.89426      624.83473    
      2200  -112797.74      600.78915     -112196.95      199.96797      199.8832       625.1439     
      2300  -112784.14      600.82569     -112183.31      199.96682      199.87141      625.45307    
      2400  -112781.34      593.59365     -112187.74      199.96967      199.86367      625.76224    
      2500  -112785.25      586.04649     -112199.21      199.96866      199.85195      626.07141    
      2600  -112791.93      588.19595     -112203.73      199.96768      199.83953      626.38058    
      2700  -112779.21      586.05269     -112193.16      199.96936      199.82963      626.68975    
      2800  -112771.15      600.01298     -112171.13      199.96771      199.81652      626.99892    
      2900  -112752.77      598.41428     -112154.35      199.96808      199.80499      627.3081     
      3000  -112747.08      595.77193     -112151.31      199.96816      199.79322      627.61727    
      3100  -112754.44      596.01767     -112158.42      199.96539      199.77879      627.92644    
      3200  -112748.75      585.23525     -112163.51      199.9652       199.76722      628.23561    
      3300  -112745.73      588.46004     -112157.27      199.96482      199.75531      628.54478    
      3400  -112728.78      590.70563     -112138.08      199.96147      199.74042      628.85395    
      3500  -112718.84      599.97063     -112118.87      199.96131      199.72976      629.16312    
      3600  -112709.84      598.63932     -112111.2       199.95917      199.71758      629.47229    
      3700  -112705.55      591.69607     -112113.86      199.95319      199.70166      629.78146    
      3800  -112703.93      585.29627     -112118.63      199.95232      199.6913       630.09064    
      3900  -112707.57      593.87095     -112113.7       199.94902      199.67937      630.39981    
      4000  -112688.35      590.71047     -112097.64      199.94111      199.66347      630.70898    
      4100  -112674.46      596.70499     -112077.76      199.93828      199.6529       631.01815    
      4200  -112661.74      596.80548     -112064.93      199.9348       199.6422       631.32732    
      4300  -112659.92      596.16018     -112063.76      199.92556      199.62657      631.63649    
      4400  -112659.33      591.04        -112068.29      199.92055      199.61568      631.94566    
      4500  -112651.42      585.09253     -112066.32      199.91576      199.60536      632.25483    
      4600  -112640.82      587.76138     -112053.06      199.90515      199.58979      632.564      
      4700  -112631.58      599.77063     -112031.81      199.89807      199.57838      632.87318    
      4800  -112611.48      597.57449     -112013.91      199.89301      199.56925      633.18235    
      4900  -112612.61      603.85384     -112008.75      199.88124      199.55381      633.49152    
      5000  -112601.58      589.98559     -112011.6       199.87138      199.54092      633.80069    
      5100  -112596.23      585.92791     -112010.3       199.86584      199.53212      634.10986    
      5200  -112586.87      588.33674     -111998.54      199.85375      199.51745      634.41903    
      5300  -112575.84      597.94219     -111977.9       199.84192      199.50278      634.7282     
      5400  -112560.39      600.9009      -111959.49      199.83577      199.49427      635.03737    
      5500  -112550.85      600.32308     -111950.53      199.82337      199.47962      635.34654    
      5600  -112541.71      592.33915     -111949.37      199.80938      199.46306      635.65571    
      5700  -112538.6       590.64707     -111947.95      199.80174      199.45352      635.96489    
      5800  -112530.24      591.83327     -111938.41      199.78951      199.4394       636.27406    
      5900  -112513.83      594.18189     -111919.65      199.77393      199.42108      636.58323    
      6000  -112496.72      598.66903     -111898.05      199.76521      199.41001      636.8924     
      6100  -112482.29      598.97335     -111883.32      199.75416      199.39662      637.20157    
      6200  -112473.44      593.7534      -111879.69      199.73766      199.37656      637.51074    
      6300  -112463.52      583.6625      -111879.85      199.72667      199.36259      637.81991    
      6400  -112457.79      585.39355     -111872.39      199.71641      199.34867      638.12908    
      6500  -112446.69      592.30754     -111854.39      199.69964      199.32775      638.43825    
      6600  -112426.68      595.02325     -111831.66      199.68747      199.31108      638.74743    
      6700  -112409.53      596.17359     -111813.35      199.6781       199.29688      639.0566     
      6800  -112402.76      596.81703     -111805.94      199.66222      199.27544      639.36577    
      6900  -112394.14      589.57584     -111804.56      199.6486       199.25509      639.67494    
      7000  -112387.19      587.57857     -111799.62      199.6393       199.23866      639.98411    
      7100  -112370.96      587.32753     -111783.63      199.62454      199.21641      640.29328    
      7200  -112357.39      595.83239     -111761.55      199.61064      199.19392      640.60245    
      7300  -112337.49      596.3699      -111741.12      199.6013       199.17499      640.91162    
      7400  -112327.91      598.37686     -111729.54      199.58743      199.15119      641.22079    
      7500  -112318.24      593.12458     -111725.11      199.57348      199.12643      641.52997    
      7600  -112311.5       592.17681     -111719.32      199.5634       199.10497      641.83914    
      7700  -112299.6       593.37626     -111706.22      199.55118      199.08059      642.14831    
      7800  -112277.83      592.59876     -111685.23      199.53667      199.05298      642.45748    
      7900  -112257.35      594.76469     -111662.58      199.5256       199.02883      642.76665    
      8000  -112250.2       605.03608     -111645.16      199.51364      199.00304      643.07582    
      8100  -112231.76      594.89423     -111636.87      199.49982      198.9746       643.38499    
      8200  -112223.1       590.79899     -111632.3       199.48799      198.94787      643.69416    
      8300  -112206.01      583.53094     -111622.48      199.47541      198.92078      644.00333    
      8400  -112193.04      589.95891     -111603.08      199.46123      198.89134      644.3125     
      8500  -112172.71      592.85498     -111579.86      199.44922      198.86358      644.62168    
      8600  -112157.05      597.79467     -111559.26      199.43541      198.8347       644.93085    
      8700  -112140.92      594.49288     -111546.43      199.42076      198.80505      645.24002    
      8800  -112133.97      593.29526     -111540.68      199.40773      198.77623      645.54919    
      8900  -112119.94      587.62759     -111532.31      199.39198      198.74522      645.85836    
      9000  -112107.22      591.97996     -111515.24      199.37661      198.71536      646.16753    
      9100  -112085.74      595.57498     -111490.17      199.36233      198.68653      646.4767     
      9200  -112063.68      598.07686     -111465.6       199.34564      198.65512      646.78587    
      9300  -112046.94      595.93218     -111451.01      199.32925      198.62515      647.09504    
      9400  -112039.37      595.33835     -111444.03      199.31304      198.59617      647.40422    
      9500  -112024.06      589.81658     -111434.24      199.29371      198.56357      647.71339    
      9600  -112005.37      589.25213     -111416.12      199.27603      198.5334       648.02256    
      9700  -111987.96      595.52178     -111392.44      199.25974      198.50552      648.33173    
      9800  -111966.82      598.15644     -111368.67      199.23797      198.47288      648.6409     
      9900  -111941.09      589.35897     -111351.73      199.21831      198.44186      648.95007    
     10000  -111934.53      592.87473     -111341.65      199.20088      198.41434      649.25924    
     10100  -111919.46      586.96324     -111332.5       199.1777       198.38273      649.56841    
     10200  -111905.85      589.39981     -111316.45      199.15463      198.35058      649.87758    
     10300  -111886.57      593.8651      -111292.71      199.1363       198.32329      650.18675    
     10400  -111860.74      593.45235     -111267.29      199.11246      198.29305      650.49593    
     10500  -111846.35      598.76263     -111247.59      199.08635      198.26037      650.8051     
     10600  -111829.87      595.37209     -111234.49      199.06594      198.23248      651.11427    
     10700  -111810.82      587.00063     -111223.82      199.04186      198.20286      651.42344    
     10800  -111795.65      587.71271     -111207.94      199.01323      198.17012      651.73261    
     10900  -111777.31      592.23505     -111185.07      198.99051      198.14213      652.04178    
     11000  -111749.97      590.86639     -111159.1       198.96644      198.11289      652.35095    
     11100  -111736.16      598.71567     -111137.44      198.93779      198.08074      652.66012    
     11200  -111716.19      592.17042     -111124.01      198.91281      198.05226      652.96929    
     11300  -111699.74      588.49078     -111111.25      198.88743      198.02208      653.27847    
     11400  -111685         589.6752      -111095.33      198.85864      197.9894       653.58764    
     11500  -111662.12      590.94667     -111071.18      198.83201      197.95972      653.89681    
     11600  -111646.96      603.07734     -111043.89      198.80771      197.9306       654.20598    
     11700  -111620.41      598.51749     -111021.89      198.78016      197.89823      654.51515    
     11800  -111599.47      591.90961     -111007.56      198.75277      197.8669       654.82432    
     11900  -111586.08      590.47493     -110995.6       198.72753      197.83644      655.13349    
     12000  -111567.74      588.6692      -110979.07      198.70086      197.80319      655.44266    
     12100  -111540.68      586.88911     -110953.79      198.67387      197.77002      655.75183    
     12200  -111518.1       593.4014      -110924.7       198.64867      197.73833      656.06101    
     12300  -111495.36      595.82015     -110899.54      198.62353      197.70504      656.37018    
     12400  -111474.39      591.91546     -110882.48      198.59809      197.67062      656.67935    
     12500  -111464.9       596.18923     -110868.71      198.57301      197.63699      656.98852    
     12600  -111439.33      585.94239     -110853.39      198.54971      197.60372      657.29769    
     12700  -111423.32      590.90423     -110832.41      198.52599      197.56837      657.60686    
     12800  -111402.68      597.82346     -110804.86      198.50089      197.53231      657.91603    
     12900  -111373.72      596.33581     -110777.38      198.47843      197.49831      658.2252     
     13000  -111349.07      594.09986     -110754.97      198.45662      197.46291      658.53437    
     13100  -111328.93      589.29652     -110739.63      198.43329      197.426        658.84354    
     13200  -111312.24      588.38573     -110723.86      198.41114      197.39072      659.15272    
     13300  -111296.66      594.24048     -110702.42      198.39074      197.35542      659.46189    
     13400  -111269.69      595.89126     -110673.8       198.36942      197.31845      659.77106    
     13500  -111244.91      600.94143     -110643.97      198.3474       197.28179      660.08023    
     13600  -111217.72      593.49118     -110624.23      198.32713      197.24645      660.3894     
     13700  -111202.23      595.1214      -110607.11      198.30691      197.21012      660.69857    
     13800  -111182.5       595.42061     -110587.08      198.28595      197.17317      661.00774    
     13900  -111156.17      591.48572     -110564.68      198.26584      197.13821      661.31691    
     14000  -111136.33      597.04254     -110539.29      198.24632      197.10337      661.62608    
     14100  -111107.68      600.72742     -110506.95      198.22652      197.06734      661.93526    
     14200  -111079.43      598.01192     -110481.41      198.20648      197.0329       662.24443    
     14300  -111057.88      590.94479     -110466.94      198.18734      196.99986      662.5536     
     14400  -111043.88      595.6752      -110448.21      198.16722      196.96499      662.86277    
     14500  -111019.26      592.22804     -110427.04      198.14726      196.93182      663.17194    
     14600  -110994.24      590.65555     -110403.59      198.12828      196.90066      663.48111    
     14700  -110969.47      596.70302     -110372.76      198.10787      196.86821      663.79028    
     14800  -110948.18      604.04679     -110344.14      198.08913      196.83781      664.09945    
     14900  -110915.28      589.24183     -110326.04      198.06963      196.80827      664.40862    
     15000  -110906.52      596.54042     -110309.98      198.04845      196.77807      664.7178     
     15100  -110880.19      594.43119     -110285.76      198.02898      196.74971      665.02697    
     15200  -110851.47      592.88934     -110258.58      198.00965      196.72264      665.33614    
     15300  -110822.91      594.43677     -110228.47      197.98834      196.69576      665.64531    
     15400  -110795.06      597.3968      -110197.66      197.96832      196.66969      665.95448    
     15500  -110773.18      602.73773     -110170.44      197.94876      196.64538      666.26365    
     15600  -110748.88      593.6067      -110155.27      197.92788      196.62172      666.57282    
     15700  -110729.27      591.10517     -110138.16      197.90729      196.59857      666.88199    
     15800  -110709.54      595.296       -110114.24      197.88667      196.57555      667.19116    
     15900  -110678.26      593.34486     -110084.92      197.86585      196.55395      667.50033    
     16000  -110644.06      590.78569     -110053.28      197.84516      196.53337      667.80951    
     16100  -110624.22      600.10225     -110024.11      197.82415      196.5119       668.11868    
     16200  -110600.44      593.05979     -110007.38      197.80471      196.49302      668.42785    
     16300  -110575.34      586.43889     -109988.9       197.78373      196.47368      668.73702    
     16400  -110557.41      597.43467     -109959.97      197.7633       196.45421      669.04619    
     16500  -110527.34      599.83844     -109927.5       197.74475      196.43704      669.35536    
     16600  -110494.48      596.26968     -109898.21      197.72456      196.41894      669.66453    
     16700  -110471.35      595.84693     -109875.5       197.70468      196.40115      669.9737     
     16800  -110452.61      592.08233     -109860.53      197.68618      196.38393      670.28287    
     16900  -110421.17      584.10149     -109837.07      197.66752      196.36709      670.59205    
     17000  -110392.66      587.94246     -109804.72      197.64943      196.35125      670.90122    
     17100  -110363.07      591.09242     -109771.98      197.63248      196.33527      671.21039    
     17200  -110338.07      596.86814     -109741.2       197.61556      196.31869      671.51956    
     17300  -110315.03      601.00299     -109714.03      197.59846      196.30292      671.82873    
     17400  -110284.54      589.27191     -109695.27      197.58274      196.28736      672.1379     
     17500  -110264.47      590.14577     -109674.33      197.56737      196.27006      672.44707    
     17600  -110231.04      587.90198     -109643.14      197.55268      196.25413      672.75624    
     17700  -110203.32      592.57873     -109610.74      197.53891      196.23893      673.06541    
     17800  -110177.44      596.54831     -109580.89      197.52556      196.22202      673.37459    
     17900  -110143.91      592.85425     -109551.06      197.51284      196.20529      673.68376    
     18000  -110110.27      589.08455     -109521.19      197.50042      196.19001      673.99293    
     18100  -110085.31      595.96644     -109489.34      197.48828      196.17317      674.3021     
     18200  -110058.33      597.40633     -109460.92      197.47734      196.15638      674.61127    
     18300  -110032.19      590.45871     -109441.74      197.46712      196.14092      674.92044    
     18400  -110005.57      587.52172     -109418.04      197.45555      196.12356      675.22961    
     18500  -109981         592.29757     -109388.7       197.44607      196.10651      675.53878    
     18600  -109943.17      590.04495     -109353.13      197.4371       196.09026      675.84795    
     18700  -109913.18      594.08281     -109319.09      197.42734      196.0733       676.15712    
     18800  -109891.53      599.13747     -109292.39      197.41911      196.05686      676.4663     
     18900  -109864.29      596.25125     -109268.04      197.41101      196.04007      676.77547    
     19000  -109836.47      592.20215     -109244.26      197.40181      196.02269      677.08464    
     19100  -109809.28      592.16655     -109217.11      197.39407      196.0062       677.39381    
     19200  -109776.88      596.70545     -109180.18      197.38705      195.98924      677.70298    
     19300  -109743.23      598.77517     -109144.46      197.37805      195.97181      678.01215    
     19400  -109716.34      599.10619     -109117.24      197.37102      195.95605      678.32132    
     19500  -109688.93      593.44099     -109095.49      197.36529      195.94027      678.63049    
     19600  -109660.13      591.41612     -109068.72      197.35638      195.9226       678.93966    
     19700  -109630.78      592.32367     -109038.46      197.34921      195.90763      679.24884    
     19800  -109597.86      591.05979     -109006.8       197.34346      195.89315      679.55801    
     19900  -109565.79      590.02874     -108975.76      197.33433      195.87541      679.86718    
     20000  -109540.53      595.03638     -108945.49      197.32624      195.86049      680.17635    
     20100  -109507.31      592.31068     -108915         197.32027      195.84774      680.48552    
     20200  -109479.25      594.58483     -108884.67      197.3116       195.83174      680.79469    
     20300  -109446.14      591.6405      -108854.5       197.30251      195.81702      681.10386    
     20400  -109413.11      588.95214     -108824.16      197.2954       195.80529      681.41303    
     20500  -109385.44      591.87634     -108793.57      197.28676      195.79133      681.7222     
     20600  -109357.09      594.36831     -108762.72      197.27639      195.77728      682.03137    
     20700  -109322.5       593.04559     -108729.46      197.2679       195.76636      682.34055    
     20800  -109289.24      592.97892     -108696.26      197.25976      195.75523      682.64972    
     20900  -109264.84      599.74343     -108665.1       197.24841      195.74149      682.95889    
     21000  -109232.64      593.27695     -108639.36      197.23832      195.73128      683.26806    
     21100  -109198.68      583.44218     -108615.23      197.22972      195.72255      683.57723    
     21200  -109168.38      585.57289     -108582.81      197.21656      195.70883      683.8864     
     21300  -109140.52      598.29245     -108542.23      197.20542      195.69934      684.19557    
     21400  -109101.42      593.60867     -108507.81      197.19633      195.69249      684.50474    
     21500  -109071.42      591.92801     -108479.49      197.1833       195.68102      684.81391    
     21600  -109046.07      593.2938      -108452.78      197.17018      195.67073      685.12309    
     21700  -109012.33      587.72939     -108424.6       197.16009      195.66455      685.43226    
     21800  -108986.23      597.87786     -108388.35      197.14707      195.65501      685.74143    
     21900  -108941.33      593.71764     -108347.61      197.13392      195.64533      686.0506     
     22000  -108910.59      594.96876     -108315.62      197.12245      195.6388       686.35977    
     22100  -108889.96      599.35425     -108290.6       197.10869      195.63014      686.66894    
     22200  -108852.81      589.37158     -108263.44      197.09493      195.62062      686.97811    
     22300  -108822.04      591.77999     -108230.26      197.0833       195.61421      687.28728    
     22400  -108786.03      590.99235     -108195.04      197.06951      195.60641      687.59645    
     22500  -108757.45      597.12612     -108160.32      197.05566      195.59771      687.90563    
     22600  -108722.98      596.65905     -108126.32      197.04428      195.591        688.2148     
     22700  -108685.87      594.05858     -108091.81      197.02983      195.5824       688.52397    
     22800  -108647.46      593.71857     -108053.74      197.01593      195.5737       688.83314    
     22900  -108619.76      599.39069     -108020.37      197.005        195.56694      689.14231    
     23000  -108589.46      594.12421     -107995.34      196.99108      195.55744      689.45148    
     23100  -108561.31      593.5143      -107967.79      196.97701      195.5476       689.76065    
     23200  -108526.25      593.15844     -107933.09      196.96692      195.54062      690.06982    
     23300  -108484.95      589.28166     -107895.67      196.95443      195.53106      690.37899    
     23400  -108458.74      597.55157     -107861.19      196.94051      195.51999      690.68816    
     23500  -108414.73      586.10106     -107828.63      196.9309       195.51182      690.99734    
     23600  -108387.92      592.42818     -107795.49      196.91944      195.50106      691.30651    
     23700  -108353.9       594.84247     -107759.06      196.90656      195.48879      691.61568    
     23800  -108311.1       591.89588     -107719.2       196.8972       195.47948      691.92485    
     23900  -108284.76      600.50991     -107684.25      196.88733      195.46801      692.23402    
     24000  -108248.12      588.74915     -107659.37      196.87535      195.45414      692.54319    
     24100  -108221.2       590.93595     -107630.27      196.86568      195.44273      692.85236    
     24200  -108187.38      593.63814     -107593.75      196.85734      195.43084      693.16153    
     24300  -108149.54      595.30002     -107554.24      196.84587      195.41516      693.4707     
     24400  -108112.07      594.86794     -107517.2       196.83573      195.40163      693.77988    
     24500  -108072.08      589.01581     -107483.07      196.82916      195.38985      694.08905    
     24600  -108043.58      593.26185     -107450.32      196.81961      195.37416      694.39822    
     24700  -108013.09      594.90827     -107418.18      196.80929      195.35859      694.70739    
     24800  -107978.23      594.27793     -107383.95      196.80194      195.34483      695.01656    
     24900  -107937.93      595.58939     -107342.34      196.79342      195.32908      695.32573    
     25000  -107901.51      598.80773     -107302.71      196.7834       195.31221      695.6349     
     25100  -107865.89      593.3755      -107272.52      196.77576      195.29774      695.94407    
     25200  -107835.72      590.34844     -107245.37      196.76732      195.28162      696.25324    
     25300  -107799.16      587.91672     -107211.25      196.75728      195.26397      696.56242    
     25400  -107760.99      587.83684     -107173.16      196.74975      195.24941      696.87159    
     25500  -107735.65      601.51992     -107134.13      196.74104      195.23303      697.18076    
     25600  -107695.25      597.09138     -107098.16      196.73119      195.21537      697.48993    
     25700  -107660.24      596.59791     -107063.64      196.72278      195.20002      697.7991     
     25800  -107620.65      590.14072     -107030.51      196.71437      195.18447      698.10827    
     25900  -107589.18      590.79512     -106998.39      196.70366      195.16694      698.41744    
     26000  -107549.53      582.87966     -106966.65      196.69353      195.15096      698.72661    
     26100  -107516.26      588.62536     -106927.64      196.68442      195.13598      699.03578    
     26200  -107481.51      598.06254     -106883.45      196.67319      195.11912      699.34495    
     26300  -107439.43      593.04669     -106846.38      196.66238      195.10331      699.65413    
     26400  -107412.29      598.12281     -106814.17      196.65276      195.08923      699.9633     
     26500  -107377.15      590.60888     -106786.54      196.63994      195.07298      700.27247    
     26600  -107342.8       588.13962     -106754.67      196.62684      195.05626      700.58164    
     26700  -107300.67      593.71311     -106706.95      196.61595      195.04297      700.89081    
     26800  -107258.6       594.2777      -106664.32      196.60317      195.02847      701.19998    
     26900  -107220.99      594.93786     -106626.05      196.58828      195.01216      701.50915    
     27000  -107186.8       594.31005     -106592.49      196.5758       194.99921      701.81832    
     27100  -107151.41      588.7818      -106562.63      196.56255      194.98645      702.12749    
     27200  -107119.84      590.23582     -106529.61      196.54611      194.97056      702.43667    
     27300  -107078.55      593.51897     -106485.03      196.53127      194.95718      702.74584    
     27400  -107037.18      596.03862     -106441.14      196.51773      194.94592      703.05501    
     27500  -106997.33      591.34646     -106405.98      196.50054      194.93176      703.36418    
     27600  -106970.65      595.11455     -106375.54      196.48384      194.91776      703.67335    
     27700  -106925.44      583.5266      -106341.91      196.46866      194.90663      703.98252    
     27800  -106890.05      591.90971     -106298.14      196.45157      194.89396      704.29169    
     27900  -106848.45      595.76191     -106252.69      196.43373      194.88031      704.60086    
     28000  -106812.76      594.82138     -106217.93      196.41683      194.86869      704.91003    
     28100  -106777.87      590.68015     -106187.19      196.39966      194.85682      705.2192     
     28200  -106746.41      591.69564     -106154.72      196.38169      194.84392      705.52838    
     28300  -106710.16      593.78041     -106116.38      196.36376      194.83177      705.83755    
     28400  -106661.29      595.4903      -106065.8       196.34535      194.81884      706.14672    
     28500  -106622.64      593.51335     -106029.12      196.32807      194.80656      706.45589    
     28600  -106592.05      594.25575     -105997.8       196.31022      194.79395      706.76506    
     28700  -106558.83      592.96563     -105965.87      196.29126      194.78048      707.07423    
     28800  -106516.76      589.69966     -105927.06      196.27359      194.76731      707.3834     
     28900  -106473.26      594.56581     -105878.69      196.25622      194.75402      707.69257    
     29000  -106437.85      598.57977     -105839.27      196.23744      194.73961      708.00174    
     29100  -106397.05      592.83172     -105804.22      196.21981      194.72542      708.31092    
     29200  -106362.73      591.73284     -105771         196.20357      194.71143      708.62009    
     29300  -106329.08      594.15049     -105734.93      196.18502      194.6957       708.92926    
     29400  -106284.41      593.04897     -105691.36      196.16784      194.68058      709.23843    
     29500  -106240.56      595.4663      -105645.09      196.15165      194.66508      709.5476     
     29600  -106203.17      596.52337     -105606.65      196.13367      194.64827      709.85677    
     29700  -106160.35      585.8811      -105574.47      196.11674      194.63204      710.16594    
     29800  -106132.68      590.24161     -105542.44      196.10068      194.61503      710.47511    
     29900  -106094.88      592.85171     -105502.03      196.0837       194.59733      710.78428    
     30000  -106043.9       593.4448      -105450.45      196.06755      194.58023      711.09346    
     30100  -106009.43      597.09127     -105412.34      196.05196      194.56178      711.40263    
     30200  -105973.64      594.21488     -105379.43      196.03464      194.54208      711.7118     
     30300  -105932.94      587.7654      -105345.18      196.01852      194.52325      712.02097    
     30400  -105894.59      591.41901     -105303.17      196.0041       194.50478      712.33014    
     30500  -105851.84      597.78054     -105254.06      195.98805      194.48427      712.63931    
     30600  -105814.21      598.38285     -105215.82      195.97182      194.46428      712.94848    
     30700  -105778.84      596.49185     -105182.35      195.95762      194.44504      713.25765    
     30800  -105739.56      592.53232     -105147.02      195.94167      194.42336      713.56682    
     30900  -105697.69      589.34986     -105108.34      195.92597      194.4025       713.87599    
     31000  -105659.64      601.18269     -105058.46      195.91145      194.38202      714.18517    
     31100  -105613.55      598.74587     -105014.81      195.89616      194.35989      714.49434    
     31200  -105574.77      593.43255     -104981.34      195.88055      194.33812      714.80351    
     31300  -105542.86      593.79751     -104949.06      195.86619      194.31735      715.11268    
     31400  -105499.56      589.45506     -104910.1       195.85077      194.29505      715.42185    
     31500  -105453.2       588.15521     -104865.05      195.8348       194.27239      715.73102    
     31600  -105414.7       595.70897     -104818.99      195.82016      194.25144      716.04019    
     31700  -105377.19      597.48043     -104779.71      195.80494      194.22946      716.34936    
     31800  -105338.96      595.41177     -104743.54      195.78841      194.20669      716.65853    
     31900  -105302.97      593.95462     -104709.01      195.77322      194.18536      716.96771    
     32000  -105262.39      592.16938     -104670.22      195.75653      194.16285      717.27688    
     32100  -105213.95      591.86595     -104622.08      195.74021      194.14119      717.58605    
     32200  -105173.47      597.25289     -104576.22      195.72483      194.12048      717.89522    
     32300  -105136.64      597.492       -104539.15      195.70724      194.09831      718.20439    
     32400  -105096.2       591.11936     -104505.08      195.68907      194.07598      718.51356    
     32500  -105062.24      594.01867     -104468.22      195.67262      194.05573      718.82273    
     32600  -105018.29      596.60894     -104421.68      195.65509      194.03498      719.1319     
     32700  -104967.02      594.38903     -104372.63      195.63537      194.01317      719.44107    
     32800  -104931.07      598.05851     -104333.02      195.6178       193.99344      719.75025    
     32900  -104891.17      591.03592     -104300.13      195.60025      193.97418      720.05942    
     33000  -104853.34      589.71694     -104263.62      195.57868      193.95238      720.36859    
     33100  -104815.61      595.91213     -104219.7       195.55988      193.93285      720.67776    
     33200  -104767.5       598.707       -104168.79      195.54255      193.91597      720.98693    
     33300  -104724.57      597.44174     -104127.13      195.52029      193.8947       721.2961     
     33400  -104683.78      592.92047     -104090.86      195.49891      193.87452      721.60527    
     33500  -104648.61      592.57683     -104056.03      195.48099      193.85835      721.91444    
     33600  -104604.87      586.85626     -104018.01      195.45947      193.83929      722.22361    
     33700  -104563.43      591.81647     -103971.61      195.4366       193.81908      722.53278    
     33800  -104515.22      593.98905     -103921.23      195.41733      193.80268      722.84196    
     33900  -104475.35      593.47094     -103881.88      195.39627      193.78559      723.15113    
     34000  -104437.29      589.5361      -103847.76      195.37269      193.76554      723.4603     
     34100  -104404.58      594.31898     -103810.26      195.35175      193.74819      723.76947    
     34200  -104358.13      591.04127     -103767.09      195.33143      193.73225      724.07864    
     34300  -104304.31      590.53792     -103713.78      195.30721      193.71239      724.38781    
     34400  -104268.95      596.63872     -103672.31      195.2851       193.6944       724.69698    
     34500  -104229.56      593.26719     -103636.29      195.26493      193.67894      725.00615    
     34600  -104191.14      590.06701     -103601.07      195.24146      193.66019      725.31532    
     34700  -104149.38      588.46708     -103560.91      195.21804      193.6412       725.6245     
     34800  -104103.41      593.9775      -103509.44      195.19704      193.62502      725.93367    
     34900  -104058.28      594.72068     -103463.56      195.17432      193.60668      726.24284    
     35000  -104023.18      597.80165     -103425.38      195.1509       193.58747      726.55201    
     35100  -103975.53      586.91509     -103388.62      195.1296       193.57004      726.86118    
     35200  -103944.4       595.54088     -103348.86      195.10795      193.55232      727.17035    
     35300  -103893.06      592.54689     -103300.51      195.0849       193.53252      727.47952    
     35400  -103846.51      594.47629     -103252.04      195.06352      193.51393      727.78869    
     35500  -103806.26      594.26052     -103212         195.04291      193.49666      728.09786    
     35600  -103766.42      588.30317     -103178.12      195.02091      193.47693      728.40704    
     35700  -103729.59      591.05271     -103138.53      194.99842      193.45644      728.71621    
     35800  -103685.5       591.46066     -103094.04      194.97851      193.43826      729.02538    
     35900  -103635.19      585.64119     -103049.55      194.9586       193.42001      729.33455    
     36000  -103603.05      597.41929     -103005.63      194.93687      193.39857      729.64372    
     36100  -103553.7       592.54636     -102961.15      194.91638      193.3779       729.95289    
     36200  -103510.76      598.41657     -102912.34      194.89764      193.35899      730.26206    
     36300  -103459.49      595.8048      -102863.68      194.87789      193.33822      730.57123    
     36400  -103425.23      597.51884     -102827.71      194.85768      193.31624      730.8804     
     36500  -103389.91      597.20104     -102792.71      194.83932      193.29587      731.18957    
     36600  -103339.56      587.63974     -102751.92      194.82174      193.27544      731.49875    
     36700  -103301.29      592.58196     -102708.71      194.80213      193.25276      731.80792    
     36800  -103252.75      589.78803     -102662.96      194.78432      193.2311       732.11709    
     36900  -103212.77      599.79805     -102612.97      194.76779      193.21036      732.42626    
     37000  -103165.85      595.94936     -102569.9       194.74919      193.18723      732.73543    
     37100  -103126.51      588.6748      -102537.83      194.73115      193.16417      733.0446     
     37200  -103093.37      594.73554     -102498.63      194.71579      193.14317      733.35377    
     37300  -103039.25      586.06817     -102453.18      194.69901      193.12124      733.66294    
     37400  -102998.18      593.7897      -102404.39      194.6806       193.09681      733.97211    
     37500  -102959.34      601.12773     -102358.21      194.665        193.0749       734.28129    
     37600  -102911.43      594.20605     -102317.23      194.65014      193.05437      734.59046    
     37700  -102863.57      586.99427     -102276.57      194.63205      193.03006      734.89963    
     37800  -102826.47      592.37746     -102234.09      194.61531      193.00677      735.2088     
     37900  -102786.52      596.17139     -102190.35      194.60154      192.98726      735.51797    
     38000  -102736.93      598.01896     -102138.91      194.58451      192.96443      735.82714    
     38100  -102693.48      602.89237     -102090.59      194.56661      192.94028      736.13631    
     38200  -102647.47      592.86078     -102054.61      194.55257      192.92102      736.44548    
     38300  -102610.54      592.52356     -102018.01      194.53706      192.90023      736.75465    
     38400  -102565.28      589.50377     -101975.78      194.51783      192.87576      737.06382    
     38500  -102529.24      598.53421     -101930.71      194.50271      192.85614      737.373      
     38600  -102468.5       588.85826     -101879.64      194.48842      192.83774      737.68217    
     38700  -102434.95      603.38402     -101831.57      194.46887      192.81438      737.99134    
     38800  -102381.71      588.96512     -101792.74      194.45169      192.79394      738.30051    
     38900  -102347.16      593.19036     -101753.97      194.43837      192.77759      738.60968    
     39000  -102303.7       591.58473     -101712.12      194.42051      192.75718      738.91885    
     39100  -102264.87      595.0187      -101669.86      194.40101      192.73565      739.22802    
     39200  -102215.38      592.54493     -101622.84      194.38564      192.71864      739.53719    
     39300  -102171.41      600.65958     -101570.75      194.36933      192.70139      739.84636    
     39400  -102124.08      597.53358     -101526.55      194.3489       192.68061      740.15554    
     39500  -102080.97      590.82087     -101490.15      194.33178      192.6632       740.46471    
     39600  -102043.56      593.89631     -101449.67      194.31599      192.64784      740.77388    
     39700  -101998.74      593.0254      -101405.72      194.29557      192.62861      741.08305    
     39800  -101956.27      597.79527     -101358.48      194.27581      192.61011      741.39222    
     39900  -101906.76      597.23813     -101309.52      194.26036      192.59666      741.70139    
     40000  -101857.88      596.98225     -101260.9       194.24121      192.57975      742.01056    
     40100  -101817.5       598.84151     -101218.66      194.21905      192.56072      742.31973    
     40200  -101773.57      588.20507     -101185.36      194.20153      192.54678      742.6289     
     40300  -101739.02      593.88198     -101145.14      194.18368      192.53218      742.93808    
     40400  -101690.05      591.65063     -101098.4       194.16126      192.51401      743.24725    
     40500  -101641.54      594.61118     -101046.93      194.14214      192.49974      743.55642    
     40600  -101598.65      597.49128     -101001.16      194.12557      192.48729      743.86559    
     40700  -101550.99      591.01978     -100959.97      194.10316      192.46975      744.17476    
     40800  -101510.95      594.04015     -100916.91      194.0813       192.45342      744.48393    
     40900  -101462.41      589.00077     -100873.41      194.06579      192.44282      744.7931     
     41000  -101425.34      595.1714      -100830.17      194.04579      192.42789      745.10227    
     41100  -101376.87      588.89264     -100787.97      194.02226      192.41019      745.41144    
     41200  -101336.42      592.36304     -100744.06      194.00533      192.39784      745.72061    
     41300  -101286.19      590.24842     -100695.94      193.98893      192.38616      746.02979    
     41400  -101239.54      593.57015     -100645.97      193.96643      192.36902      746.33896    
     41500  -101202.98      600.75314     -100602.23      193.94726      192.35456      746.64813    
     41600  -101155.09      586.75185     -100568.34      193.93164      192.34312      746.9573     
     41700  -101117.26      590.6067      -100526.66      193.9109       192.32728      747.26647    
     41800  -101073.06      595.71252     -100477.35      193.89124      192.31082      747.57564    
     41900  -101025.29      597.33277     -100427.96      193.87624      192.29983      747.88481    
     42000  -100976.37      593.30171     -100383.07      193.8582       192.28536      748.19398    
     42100  -100932.27      592.14686     -100340.13      193.83845      192.26738      748.50315    
     42200  -100892.64      595.88774     -100296.75      193.82302      192.2545       748.81233    
     42300  -100841.71      587.53175     -100254.17      193.80819      192.24149      749.1215     
     42400  -100806.82      597.17693     -100209.64      193.78889      192.22305      749.43067    
     42500  -100751.75      589.96184     -100161.79      193.77307      192.20757      749.73984    
     42600  -100709.5       597.34679     -100112.15      193.76037      192.19546      750.04901    
     42700  -100657.87      592.47104     -100065.4       193.74348      192.17778      750.35818    
     42800  -100617.37      590.45967     -100026.91      193.72644      192.15975      750.66735    
     42900  -100579.83      589.87339     -99989.956      193.71396      192.14648      750.97652    
     43000  -100531.5       587.7713      -99943.727      193.69948      192.12978      751.28569    
     43100  -100489.65      596.24499     -99893.401      193.6827       192.1106       751.59487    
     43200  -100445.29      598.71187     -99846.576      193.67058      192.09657      751.90404    
     43300  -100396.59      595.02053     -99801.57       193.65917      192.08136      752.21321    
     43400  -100350.01      593.25296     -99756.759      193.6428       192.06149      752.52238    
     43500  -100305.98      594.475       -99711.507      193.62923      192.04484      752.83155    
     43600  -100256.63      591.98641     -99664.644      193.62006      192.03084      753.14072    
     43700  -100210.67      593.18273     -99617.488      193.60621      192.01253      753.44989    
     43800  -100166.37      592.50662     -99573.868      193.59152      191.99364      753.75906    
     43900  -100127.52      592.16577     -99535.351      193.5818       191.97827      754.06823    
     44000  -100081.73      587.59828     -99494.127      193.57065      191.96207      754.3774     
     44100  -100036.86      593.72592     -99443.132      193.55646      191.94297      754.68658    
     44200  -99988.139      599.70403     -99388.435      193.5462       191.92649      754.99575    
     44300  -99935.477      590.51287     -99344.964      193.53612      191.91155      755.30492    
     44400  -99901.372      595.31068     -99306.062      193.52205      191.89214      755.61409    
     44500  -99854.138      589.76575     -99264.372      193.51052      191.87431      755.92326    
     44600  -99809.805      593.75641     -99216.048      193.50126      191.8604       756.23243    
     44700  -99757.805      599.32828     -99158.477      193.48817      191.84247      756.5416     
     44800  -99704.954      593.03294     -99111.921      193.47472      191.8232       756.85077    
     44900  -99669.287      596.57162     -99072.715      193.46483      191.80886      757.15994    
     45000  -99630.079      596.22612     -99033.853      193.45361      191.79359      757.46912    
     45100  -99584.685      593.41749     -98991.267      193.43992      191.77456      757.77829    
     45200  -99534.106      590.26459     -98943.841      193.42772      191.75872      758.08746    
     45300  -99483.401      594.45032     -98888.951      193.41742      191.74476      758.39663    
     45400  -99435.296      596.48591     -98838.81       193.40388      191.72705      758.7058     
     45500  -99395.799      597.07759     -98798.721      193.39001      191.71084      759.01497    
     45600  -99350.421      593.16269     -98757.258      193.37824      191.6964       759.32414    
     45700  -99311.327      596.53205     -98714.795      193.36599      191.68104      759.63331    
     45800  -99263.424      592.23689     -98671.187      193.35113      191.6652       759.94248    
     45900  -99217.739      592.00322     -98625.736      193.33866      191.651        760.25165    
     46000  -99169.846      590.25472     -98579.591      193.3265       191.63747      760.56083    
     46100  -99126.628      595.66986     -98530.958      193.31072      191.62203      760.87       
     46200  -99077.87       596.5627      -98481.307      193.2962       191.60729      761.17917    
     46300  -99030.371      596.22771     -98434.143      193.284        191.59539      761.48834    
     46400  -98988.601      593.14868     -98395.452      193.26891      191.58179      761.79751    
     46500  -98944.22       589.11895     -98355.102      193.25247      191.56667      762.10668    
     46600  -98896.489      590.01239     -98306.477      193.23962      191.55542      762.41585    
     46700  -98844.03       589.63913     -98254.391      193.22513      191.54383      762.72502    
     46800  -98804.565      598.64496     -98205.92       193.20792      191.52927      763.03419    
     46900  -98752.735      591.94937     -98160.786      193.1927       191.51746      763.34337    
     47000  -98707.21       589.64623     -98117.564      193.17824      191.50709      763.65254    
     47100  -98672.644      596.40157     -98076.242      193.1618       191.49443      763.96171    
     47200  -98624.894      591.66172     -98033.232      193.14516      191.48197      764.27088    
     47300  -98577.238      590.80274     -97986.435      193.13061      191.47237      764.58005    
     47400  -98525.933      594.0434      -97931.889      193.11527      191.46146      764.88922    
     47500  -98477.125      595.02749     -97882.097      193.09811      191.44951      765.19839    
     47600  -98433.896      592.94212     -97840.954      193.0816       191.43844      765.50756    
     47700  -98393.902      592.39174     -97801.51       193.06566      191.42739      765.81673    
     47800  -98347.632      592.23144     -97755.4        193.04942      191.41676      766.12591    
     47900  -98302.688      596.19066     -97706.497      193.03337      191.40637      766.43508    
     48000  -98250.64       592.5462      -97658.094      193.01744      191.3955       766.74425    
     48100  -98203.635      591.3668      -97612.268      193.00102      191.38458      767.05342    
     48200  -98160.229      593.18305     -97567.046      192.98417      191.37315      767.36259    
     48300  -98116.39       595.36203     -97521.028      192.96905      191.36228      767.67176    
     48400  -98069.037      594.03911     -97474.998      192.95357      191.35179      767.98093    
     48500  -98020.296      589.73828     -97430.558      192.93719      191.34036      768.2901     
     48600  -97981.535      592.74521     -97388.79       192.92175      191.32824      768.59927    
     48700  -97936.025      589.99186     -97346.034      192.90655      191.31747      768.90844    
     48800  -97884.46       587.4999      -97296.96       192.89143      191.30621      769.21762    
     48900  -97837.819      597.24916     -97240.57       192.87621      191.29364      769.52679    
     49000  -97787.82       596.77452     -97191.045      192.86091      191.28168      769.83596    
     49100  -97737.767      589.22272     -97148.544      192.84615      191.26957      770.14513    
     49200  -97698.921      589.73177     -97109.189      192.83255      191.25747      770.4543     
     49300  -97653.619      590.97085     -97062.648      192.81807      191.24516      770.76347    
     49400  -97602.893      589.7081      -97013.185      192.80364      191.23222      771.07264    
     49500  -97556.956      593.02317     -96963.933      192.79038      191.2192       771.38181    
     49600  -97507.552      592.31238     -96915.24       192.77569      191.20584      771.69098    
     49700  -97465.293      593.34869     -96871.945      192.76182      191.19158      772.00016    
     49800  -97423.735      591.17324     -96832.562      192.74967      191.17907      772.30933    
     49900  -97377.198      591.3118      -96785.887      192.73663      191.16557      772.6185     
     50000  -97330.653      597.8899      -96732.763      192.72205      191.14917      772.92767    
     50100  -97277.922      600.47573     -96677.446      192.71015      191.13514      773.23684    
     50200  -97231.24       597.28571     -96633.955      192.69853      191.122        773.54601    
     50300  -97187.144      590.03799     -96597.106      192.68537      191.10539      773.85518    
     50400  -97141.091      591.53044     -96549.561      192.67306      191.09027      774.16435    
     50500  -97094.26       593.80983     -96500.45       192.66243      191.07604      774.47352    
     50600  -97045.309      592.61329     -96452.696      192.6496       191.05895      774.7827     
     50700  -97008.787      601.29104     -96407.496      192.63718      191.04254      775.09187    
     50800  -96957.563      590.64735     -96366.916      192.62734      191.02825      775.40104    
     50900  -96914.135      593.15358     -96320.982      192.61584      191.01138      775.71021    
     51000  -96855.815      588.24051     -96267.575      192.60201      190.99313      776.01938    
     51100  -96803.629      594.85693     -96208.772      192.59247      190.97784      776.32855    
     51200  -96763.23       599.70907     -96163.521      192.58278      190.96233      776.63772    
     51300  -96722.086      599.53175     -96122.554      192.56957      190.9439       776.94689    
     51400  -96672.643      592.18062     -96080.462      192.55853      190.92666      777.25606    
     51500  -96624.278      588.48916     -96035.789      192.54887      190.91085      777.56523    
     51600  -96583.926      594.09032     -95989.836      192.53695      190.89368      777.87441    
     51700  -96532.718      587.2592      -95945.459      192.52511      190.87573      778.18358    
     51800  -96485.683      583.33957     -95902.343      192.51507      190.85977      778.49275    
     51900  -96444.909      591.58649     -95853.322      192.5038       190.84373      778.80192    
     52000  -96397.105      600.65699     -95796.448      192.49123      190.82559      779.11109    
     52100  -96342.417      598.1073      -95744.309      192.47996      190.80919      779.42026    
     52200  -96299.437      599.18852     -95700.248      192.46937      190.79407      779.72943    
     52300  -96247.871      591.54808     -95656.323      192.45656      190.7766       780.0386     
     52400  -96204.635      594.61787     -95610.017      192.44307      190.75922      780.34777    
     52500  -96159.261      594.10681     -95565.155      192.4325       190.74474      780.65695    
     52600  -96107.917      586.52858     -95521.389      192.41979      190.72893      780.96612    
     52700  -96070.898      593.44842     -95477.45       192.40558      190.71179      781.27529    
     52800  -96023.104      586.35802     -95436.746      192.39446      190.69751      781.58446    
     52900  -95974.973      587.73323     -95387.24       192.38223      190.68359      781.89363    
     53000  -95922.982      594.83125     -95328.15       192.36658      190.66647      782.2028     
     53100  -95871.597      594.61361     -95276.984      192.35273      190.65105      782.51197    
     53200  -95829.878      598.30281     -95231.575      192.34029      190.63862      782.82114    
     53300  -95781.271      592.49829     -95188.773      192.32573      190.62391      783.13031    
     53400  -95736.567      594.07023     -95142.496      192.31059      190.6084       783.43949    
     53500  -95690.367      596.32626     -95094.041      192.29718      190.59602      783.74866    
     53600  -95641.053      595.47684     -95045.576      192.28269      190.58264      784.05783    
     53700  -95589.176      587.22101     -95001.955      192.26618      190.56743      784.367      
     53800  -95547.852      586.13261     -94961.719      192.2515       190.55492      784.67617    
     53900  -95499.654      590.22758     -94909.427      192.23712      190.54204      784.98534    
     54000  -95453.401      597.935       -94855.466      192.22025      190.52807      785.29451    
     54100  -95401.666      597.13535     -94804.531      192.20474      190.51534      785.60368    
     54200  -95354.526      595.12219     -94759.404      192.18986      190.50347      785.91285    
     54300  -95308.526      595.55835     -94712.967      192.17152      190.48949      786.22202    
     54400  -95258.534      594.48037     -94664.053      192.15433      190.47611      786.5312     
     54500  -95211.79       594.48296     -94617.307      192.13924      190.46499      786.84037    
     54600  -95161.409      587.15082     -94574.258      192.12219      190.45314      787.14954    
     54700  -95116.09       588.15137     -94527.938      192.10276      190.43823      787.45871    
     54800  -95068.208      591.82053     -94476.388      192.08625      190.42645      787.76788    
     54900  -95024.87       599.00795     -94425.862      192.06998      190.4159       788.07705    
     55000  -94969.623      591.58898     -94378.034      192.05125      190.4018       788.38622    
     55100  -94923.12       592.98425     -94330.136      192.03252      190.38845      788.69539    
     55200  -94881.586      596.29886     -94285.288      192.01636      190.37814      789.00456    
     55300  -94831.438      588.81871     -94242.62       191.99879      190.36507      789.31374    
     55400  -94780.682      588.52483     -94192.158      191.97892      190.35106      789.62291    
     55500  -94735.472      594.54502     -94140.927      191.9617       190.33905      789.93208    
     55600  -94687.389      596.33028     -94091.059      191.9453       190.32745      790.24125    
     55700  -94639.109      589.97364     -94049.136      191.92604      190.31371      790.55042    
     55800  -94595.062      592.89674     -94002.165      191.90794      190.30007      790.85959    
     55900  -94543.116      592.28565     -93950.83       191.89182      190.28813      791.16876    
     56000  -94497.505      598.12821     -93899.377      191.87325      190.27428      791.47793    
     56100  -94448.25       590.19534     -93858.054      191.85531      190.25959      791.7871     
     56200  -94401.452      589.4488      -93812.003      191.83914      190.24688      792.09627    
     56300  -94355.429      595.51583     -93759.913      191.82171      190.23314      792.40545    
     56400  -94304.26       595.23203     -93709.028      191.80392      190.21758      792.71462    
     56500  -94256.432      591.41557     -93665.016      191.788        190.20411      793.02379    
     56600  -94208.17       588.14039     -93620.03       191.77168      190.19037      793.33296    
     56700  -94162.768      593.72232     -93569.046      191.75449      190.17411      793.64213    
     56800  -94116.063      600.54418     -93515.519      191.73779      190.15844      793.9513     
     56900  -94060.659      597.56827     -93463.09       191.7217       190.14367      794.26047    
     57000  -94010.985      591.61683     -93419.368      191.70594      190.12787      794.56964    
     57100  -93968.576      594.64463     -93373.931      191.68971      190.11159      794.87881    
     57200  -93920.23       594.94573     -93325.284      191.67397      190.09551      795.18799    
     57300  -93872.452      595.2415      -93277.21       191.65877      190.07938      795.49716    
     57400  -93827.054      594.63602     -93232.418      191.64354      190.06275      795.80633    
     57500  -93776.683      589.99622     -93186.687      191.62865      190.04614      796.1155     
     57600  -93724.066      589.28595     -93134.78       191.61299      190.02894      796.42467    
     57700  -93666.987      596.54244     -93070.444      191.59723      190.01093      796.73384    
     57800  -93618.295      601.37243     -93016.922      191.58298      189.99402      797.04301    
     57900  -93571.749      596.13701     -92975.612      191.56783      189.97645      797.35218    
     58000  -93528.396      596.53828     -92931.857      191.55343      189.95863      797.66135    
     58100  -93473.381      585.97409     -92887.407      191.53934      189.94175      797.97053    
     58200  -93430.252      589.87611     -92840.376      191.52451      189.92312      798.2797     
     58300  -93387.281      596.09498     -92791.186      191.51055      189.90529      798.58887    
     58400  -93335.822      593.78269     -92742.039      191.49727      189.88781      798.89804    
     58500  -93285.063      588.62206     -92696.441      191.48186      189.86827      799.20721    
     58600  -93242.651      593.08905     -92649.562      191.46734      189.84894      799.51638    
     58700  -93190.754      595.13462     -92595.619      191.4554       189.8323       799.82555    
     58800  -93141.824      600.0694      -92541.755      191.4412       189.81369      800.13472    
     58900  -93082.974      592.70424     -92490.27       191.42536      189.79282      800.44389    
     59000  -93037.816      594.2011      -92443.615      191.41223      189.77477      800.75306    
     59100  -92986.563      591.6011      -92394.962      191.39997      189.75782      801.06224    
     59200  -92938.935      595.44388     -92343.492      191.38399      189.73737      801.37141    
     59300  -92891.865      599.61362     -92292.251      191.36808      189.71659      801.68058    
     59400  -92833.834      591.07039     -92242.764      191.35581      189.70001      801.98975    
     59500  -92790.67       597.38436     -92193.286      191.34198      189.68192      802.29892    
     59600  -92740.769      598.08818     -92142.681      191.32515      189.66082      802.60809    
     59700  -92689.733      595.57973     -92094.153      191.31087      189.64267      802.91726    
     59800  -92639.228      593.81149     -92045.416      191.29798      189.62579      803.22643    
     59900  -92591.706      596.02613     -91995.68       191.28085      189.60549      803.5356     
     60000  -92538.135      593.13025     -91945.005      191.26468      189.58609      803.84478    
     60100  -92488.124      593.45993     -91894.664      191.25165      189.56971      804.15395    
     60200  -92440.977      595.7061      -91845.271      191.23491      189.55076      804.46312    
     60300  -92394.008      600.35039     -91793.658      191.21743      189.53137      804.77229    
     60400  -92341.197      597.48389     -91743.713      191.20315      189.51504      805.08146    
     60500  -92285.935      591.47011     -91694.465      191.18599      189.49709      805.39063    
     60600  -92237.612      594.94255     -91642.669      191.16787      189.47777      805.6998     
     60700  -92192.651      601.1569      -91591.494      191.15347      189.46244      806.00897    
     60800  -92138.912      597.70048     -91541.212      191.13597      189.44504      806.31814    
     60900  -92082.434      592.13615     -91490.298      191.11598      189.4252       806.62732    
     61000  -92035.462      596.8811      -91438.581      191.10017      189.40976      806.93649    
     61100  -91983.441      594.63933     -91388.801      191.08384      189.39404      807.24566    
     61200  -91930.974      594.03967     -91336.934      191.06393      189.37557      807.55483    
     61300  -91881.219      596.5929      -91284.626      191.04674      189.35955      807.864      
     61400  -91829.865      596.99375     -91232.871      191.0294       189.34404      808.17317    
     61500  -91775.479      594.26021     -91181.219      191.00987      189.32688      808.48234    
     61600  -91722.607      593.44149     -91129.165      190.99117      189.31004      808.79151    
     61700  -91673.402      595.13681     -91078.265      190.97398      189.29553      809.10068    
     61800  -91620.031      592.98001     -91027.051      190.9551       189.27965      809.40985    
     61900  -91570.51       595.58385     -90974.927      190.93497      189.26232      809.71903    
     62000  -91518.958      595.78743     -90923.171      190.91675      189.24757      810.0282     
     62100  -91461.789      590.64319     -90871.146      190.89818      189.23256      810.33737    
     62200  -91412.628      593.93493     -90818.693      190.87801      189.21611      810.64654    
     62300  -91364.81       598.21381     -90766.596      190.85919      189.20121      810.95571    
     62400  -91309.396      595.6123      -90713.783      190.8401       189.18607      811.26488    
     62500  -91259.891      598.37028     -90661.52       190.82029      189.17034      811.57405    
     62600  -91199.017      590.80284     -90608.214      190.80101      189.15522      811.88322    
     62700  -91157.2        603.10389     -90554.096      190.78181      189.14019      812.19239    
     62800  -91097.105      595.76672     -90501.339      190.76256      189.12527      812.50157    
     62900  -91045.824      599.11606     -90446.708      190.74205      189.1089       812.81074    
     63000  -90992.807      598.86747     -90393.94       190.72337      189.09458      813.11991    
     63100  -90941.286      601.10502     -90340.181      190.70477      189.07988      813.42908    
     63200  -90883.466      597.38395     -90286.082      190.68449      189.06387      813.73825    
     63300  -90827.288      595.85742     -90231.431      190.66555      189.04857      814.04742    
     63400  -90780.981      603.00237     -90177.979      190.64734      189.03418      814.35659    
     63500  -90715.992      593.60696     -90122.385      190.62765      189.01829      814.66576    
     63600  -90662.214      594.46965     -90067.745      190.60781      189.00222      814.97493    
     63700  -90610.16       597.36126     -90012.798      190.58997      188.98761      815.2841     
     63800  -90554.827      596.05484     -89958.773      190.57047      188.97105      815.59328    
     63900  -90504.477      601.94584     -89902.531      190.55037      188.95416      815.90245    
     64000  -90449.219      601.49596     -89847.723      190.53333      188.93973      816.21162    
     64100  -90393.149      600.3847      -89792.764      190.51559      188.92419      816.52079    
     64200  -90329.675      592.77688     -89736.898      190.49576      188.90636      816.82996    
     64300  -90277.529      596.85408     -89680.675      190.47809      188.89081      817.13913    
     64400  -90224.385      600.124       -89624.261      190.46136      188.87543      817.4483     
     64500  -90159.482      591.70656     -89567.776      190.44219      188.857        817.75747    
     64600  -90106.926      596.07786     -89510.848      190.42426      188.84006      818.06664    
     64700  -90053.914      599.64339     -89454.271      190.40814      188.82477      818.37582    
     64800  -89996.652      599.71063     -89396.941      190.3904       188.80695      818.68499    
     64900  -89934.856      595.30184     -89339.555      190.37214      188.78861      818.99416    
     65000  -89877.926      596.04159     -89281.885      190.35619      188.77275      819.30333    
     65100  -89820.064      595.97853     -89224.085      190.33946      188.75503      819.6125     
     65200  -89760.758      594.31185     -89166.446      190.32215      188.73676      819.92167    
     65300  -89706.455      598.36887     -89108.086      190.30672      188.7201       820.23084    
     65400  -89652.898      602.96612     -89049.932      190.29042      188.70226      820.54001    
     65500  -89586.754      595.26526     -88991.488      190.2732       188.6831       820.84918    
     65600  -89529.926      597.19732     -88932.729      190.25859      188.66618      821.15836    
     65700  -89469.945      596.05473     -88873.891      190.24337      188.64897      821.46753    
     65800  -89408.333      593.27413     -88815.059      190.22631      188.62964      821.7767     
     65900  -89354.649      598.29109     -88756.358      190.21164      188.61213      822.08587    
     66000  -89292.516      596.58881     -88695.927      190.19685      188.59442      822.39504    
     66100  -89232.688      596.9265      -88635.762      190.18012      188.57515      822.70421    
     66200  -89171.472      595.60906     -88575.863      190.16542      188.55759      823.01338    
     66300  -89110.394      594.59445     -88515.799      190.15157      188.54005      823.32255    
     66400  -89049.317      594.12079     -88455.196      190.13523      188.5205       823.63172    
     66500  -88990.791      596.69452     -88394.097      190.12061      188.50315      823.94089    
     66600  -88931.258      598.76654     -88332.492      190.10648      188.48537      824.25007    
     66700  -88869.078      598.09267     -88270.985      190.09074      188.46615      824.55924    
     66800  -88807.664      598.90947     -88208.755      190.07615      188.44859      824.86841    
     66900  -88747.014      600.71363     -88146.3        190.06239      188.43142      825.17758    
     67000  -88679.962      597.15485     -88082.807      190.04757      188.41314      825.48675    
     67100  -88618.713      597.15401     -88021.559      190.0328       188.39484      825.79592    
     67200  -88552.494      593.75391     -87958.74       190.01887      188.37757      826.10509    
     67300  -88496.817      600.65794     -87896.159      190.00472      188.36039      826.41426    
     67400  -88427.009      595.62573     -87831.383      189.99048      188.34261      826.72343    
     67500  -88360.729      593.72945     -87766.999      189.9756       188.32494      827.03261    
     67600  -88305.167      600.57767     -87704.589      189.96217      188.3088       827.34178    
     67700  -88243.226      602.77992     -87640.446      189.94796      188.29155      827.65095    
     67800  -88173.927      599.07832     -87574.848      189.93244      188.27341      827.96012    
     67900  -88108.82       598.61766     -87510.203      189.91925      188.25797      828.26929    
     68000  -88042.767      597.20163     -87445.565      189.9053       188.24199      828.57846    
     68100  -87978.275      597.62795     -87380.647      189.88922      188.22408      828.88763    
     68200  -87913.2        598.11738     -87315.082      189.87554      188.20892      829.1968     
     68300  -87846.88       597.01552     -87249.864      189.8618       188.19399      829.50597    
     68400  -87778.912      596.8427      -87182.07       189.84542      188.17668      829.81515    
     68500  -87719.129      602.93083     -87116.198      189.83143      188.16217      830.12432    
     68600  -87646.261      597.55755     -87048.704      189.81776      188.14793      830.43349    
     68700  -87578.358      598.28443     -86980.073      189.80111      188.13106      830.74266    
     68800  -87514.261      601.07986     -86913.181      189.78624      188.11673      831.05183    
     68900  -87447.225      599.78844     -86847.436      189.77273      188.10358      831.361      
     69000  -87383.43       602.91329     -86780.517      189.75569      188.08717      831.67017    
     69100  -87308.525      597.01528     -86711.51       189.74046      188.07269      831.97934    
     69200  -87247.894      605.73096     -86642.163      189.72739      188.06121      832.28851    
     69300  -87179.369      604.67972     -86574.689      189.71065      188.0456       832.59768    
     69400  -87111.815      606.91185     -86504.903      189.69443      188.03038      832.90686    
     69500  -87037.043      602.11595     -86434.927      189.68188      188.02013      833.21603    
     69600  -86966.236      600.351       -86365.885      189.66532      188.00587      833.5252     
     69700  -86900.522      605.23125     -86295.29       189.64874      187.99072      833.83437    
     69800  -86831.711      607.2563      -86224.455      189.63599      187.98034      834.14354    
     69900  -86753.84       599.30079     -86154.539      189.61983      187.96717      834.45271    
     70000  -86684.88       600.01914     -86084.861      189.60292      187.95259      834.76188    
     70100  -86612.388      598.77578     -86013.613      189.59003      187.94187      835.07105    
     70200  -86546.214      603.48573     -85942.729      189.5746       187.92937      835.38022    
     70300  -86474.157      604.41742     -85869.739      189.55769      187.9156       835.6894     
     70400  -86407.46       609.30346     -85798.157      189.54456      187.90482      835.99857    
     70500  -86328.13       602.72593     -85725.404      189.52997      187.89304      836.30774    
     70600  -86256.182      603.0903      -85653.092      189.51277      187.87917      836.61691    
     70700  -86184.247      605.76533     -85578.481      189.49923      187.8684       836.92608    
     70800  -86108.179      606.6577      -85501.522      189.48614      187.8576       837.23525    
     70900  -86038.477      609.34726     -85429.129      189.46908      187.84375      837.54442    
     71000  -85967.823      612.17526     -85355.648      189.45568      187.83332      837.85359    
     71100  -85891.2        610.61631     -85280.583      189.44284      187.82297      838.16276    
     71200  -85810.061      605.43934     -85204.622      189.4263       187.8092       838.47194    
     71300  -85745.33       611.21959     -85134.11       189.41305      187.79896      838.78111    
     71400  -85665.816      609.01483     -85056.801      189.40081      187.78922      839.09028    
     71500  -85589.8        607.86251     -84981.937      189.3845       187.775        839.39945    
     71600  -85512.347      607.45315     -84904.894      189.37148      187.76465      839.70862    
     71700  -85446.752      618.90915     -84827.843      189.35974      187.75559      840.01779    
     71800  -85369.601      617.25925     -84752.342      189.34402      187.74173      840.32696    
     71900  -85288.333      614.40219     -84673.931      189.33094      187.73057      840.63613    
     72000  -85213.663      615.24999     -84598.413      189.31965      187.72185      840.9453     
     72100  -85129.589      610.95989     -84518.629      189.30455      187.70859      841.25447    
     72200  -85058.327      618.42811     -84439.898      189.29136      187.69629      841.56365    
     72300  -84979.352      617.8283      -84361.523      189.28093      187.6879       841.87282    
     72400  -84899.971      616.57787     -84283.393      189.26665      187.67536      842.18199    
     72500  -84824.266      619.02574     -84205.24       189.2531       187.66234      842.49116    
     72600  -84744.354      616.65852     -84127.695      189.24357      187.65382      842.80033    
     72700  -84669.399      621.87278     -84047.526      189.2304       187.64199      843.1095     
     72800  -84583.542      617.55195     -83965.99       189.21645      187.62828      843.41867    
     72900  -84507.151      622.4742      -83884.677      189.20718      187.61916      843.72784    
     73000  -84423.615      617.21682     -83806.398      189.19515      187.60787      844.03701    
     73100  -84351.463      624.2373      -83727.226      189.18127      187.59398      844.34619    
     73200  -84269.674      624.50579     -83645.169      189.17201      187.58428      844.65536    
     73300  -84188.559      625.27898     -83563.281      189.16129      187.57371      844.96453    
     73400  -84111.346      635.27636     -83476.069      189.14765      187.5599       845.2737     
     73500  -84024.037      633.28456     -83390.753      189.13793      187.5493       845.58287    
     73600  -83946.127      636.62699     -83309.5        189.12816      187.5391       845.89204    
     73700  -83861.361      635.86522     -83225.496      189.11509      187.52563      846.20121    
     73800  -83780.654      638.12494     -83142.529      189.10488      187.51443      846.51038    
     73900  -83694.239      635.10667     -83059.133      189.0958       187.50436      846.81955    
     74000  -83605.875      637.61351     -82968.261      189.08338      187.49137      847.12872    
     74100  -83521.89       640.53246     -82881.358      189.07257      187.47931      847.4379     
     74200  -83439.12       645.0248      -82794.096      189.06387      187.46933      847.74707    
     74300  -83356.943      648.34727     -82708.596      189.05251      187.4569       848.05624    
     74400  -83271.961      652.25153     -82619.709      189.04115      187.44422      848.36541    
     74500  -83183.306      650.50706     -82532.799      189.03264      187.43408      848.67458    
     74600  -83100.462      654.50659     -82445.955      189.02196      187.42217      848.98375    
     74700  -83017.578      659.41601     -82358.162      189.01042      187.40915      849.29292    
     74800  -82929.741      662.10321     -82267.638      189.00191      187.39868      849.60209    
     74900  -82845.261      668.56913     -82176.692      188.99173      187.38727      849.91126    
     75000  -82744.055      658.91463     -82085.141      188.98009      187.37422      850.22044    
     75100  -82664.608      672.1098      -81992.498      188.97134      187.36334      850.52961    
     75200  -82576.259      673.80101     -81902.458      188.9617       187.35206      850.83878    
     75300  -82487.31       678.59086     -81808.72       188.95019      187.33923      851.14795    
     75400  -82394.324      679.54182     -81714.783      188.94084      187.32775      851.45712    
     75500  -82306.37       679.54166     -81626.828      188.93146      187.31652      851.76629    
     75600  -82223.386      686.40873     -81536.977      188.92005      187.30384      852.07546    
     75700  -82131.227      688.15003     -81443.077      188.91018      187.29193      852.38463    
     75800  -82044.267      689.19183     -81355.075      188.90107      187.2808       852.6938     
     75900  -81955.045      694.21053     -81260.834      188.88988      187.26858      853.00298    
     76000  -81851.113      688.64437     -81162.469      188.87949      187.25651      853.31215    
     76100  -81761.523      695.29369     -81066.229      188.87005      187.24492      853.62132    
     76200  -81671.789      704.84415     -80966.945      188.85894      187.23275      853.93049    
     76300  -81574.49       706.31791     -80868.172      188.8481       187.22055      854.23966    
     76400  -81481.193      707.72307     -80773.47       188.83826      187.20878      854.54883    
     76500  -81392.881      715.02658     -80677.854      188.82749      187.19685      854.858      
     76600  -81279.906      710.26906     -80569.637      188.81607      187.1844       855.16717    
     76700  -81197.911      725.43143     -80472.479      188.80584      187.17243      855.47634    
     76800  -81097.968      733.68282     -80364.286      188.79526      187.16064      855.78551    
     76900  -81001.761      746.61026     -80255.151      188.78365      187.14811      856.09469    
     77000  -80896.697      749.34181     -80147.355      188.77279      187.1358       856.40386    
     77100  -80797.846      751.31453     -80046.531      188.76172      187.12361      856.71303    
     77200  -80693.145      750.34485     -79942.801      188.75015      187.11127      857.0222     
     77300  -80625.973      780.54648     -79845.427      188.73884      187.09877      857.33137    
     77400  -80690.158      913.66826     -79776.49       188.72711      187.08593      857.64054    
     77500  -81095.542      1257.7558     -79837.787      188.71837      187.07439      857.94971    
     77600  -81936.124      1809.5426     -80126.581      188.7147       187.06725      858.25888    
     77700  -83261.008      2347.9847     -80913.024      188.71256      187.06561      858.56805    
     77800  -84817.244      2566.7485     -82250.496      188.7239       187.07548      858.87723    
     77900  -86181.403      2410.8971     -83770.506      188.75234      187.10409      859.1864     
     78000  -87386.935      2195.5278     -85191.408      188.76921      187.11479      859.49557    
     78100  -88503.143      2003.0119     -86500.131      188.77983      187.11402      859.80474    
     78200  -89497.031      1826.4313     -87670.6        188.80703      187.12926      860.11391    
     78300  -90428.193      1691.8376     -88736.356      188.83345      187.14434      860.42308    
     78400  -91298.247      1587.8293     -89710.418      188.85816      187.15998      860.73225    
     78500  -92103.965      1495.8095     -90608.156      188.8909       187.18278      861.04142    
     78600  -92869.01       1422.7335     -91446.276      188.92261      187.20425      861.35059    
     78700  -93589.395      1356.5132     -92232.882      188.95464      187.2265       861.65977    
     78800  -94268.8        1295.8702     -92972.93       188.99163      187.25364      861.96894    
     78900  -94911.625      1242.392      -93669.233      189.0287       187.28107      862.27811    
     79000  -95521.4        1195.4759     -94325.924      189.06579      187.30889      862.58728    
     79100  -96098.001      1151.3883     -94946.612      189.10676      187.3406       862.89645    
     79200  -96647.518      1112.7033     -95534.814      189.14771      187.37249      863.20562    
     79300  -97171.603      1077.9873     -96093.616      189.18839      187.40441      863.51479    
     79400  -97671.231      1046.1197     -96625.111      189.23051      187.43787      863.82396    
     79500  -98148.662      1017.0192     -97131.643      189.27245      187.4713       864.13313    
     79600  -98606.676      991.01911     -97615.657      189.31378      187.50449      864.4423     
     79700  -99046.562      967.4639      -98079.098      189.3554       187.53821      864.75148    
     79800  -99470.331      946.30801     -98524.023      189.39642      187.57149      865.06065    
     79900  -99879.907      927.48378     -98952.424      189.43654      187.60418      865.36982    
     80000  -100276.66      910.66224     -99365.995      189.47615      187.63656      865.67899    
     80100  -100661.9       895.62468     -99766.28       189.51476      187.66811      865.98816    
     80200  -101036.76      882.14934     -100154.61      189.55209      187.69865      866.29733    
     80300  -101401.68      869.69266     -100531.99      189.58835      187.72831      866.6065     
     80400  -101757.32      858.0504      -100899.27      189.62319      187.75675      866.91567    
     80500  -102104.59      847.43536     -101257.15      189.65664      187.78398      867.22484    
     80600  -102443.95      837.67115     -101606.28      189.68916      187.81056      867.53402    
     80700  -102775.81      828.55297     -101947.25      189.72073      187.83635      867.84319    
     80800  -103100.62      820.0164      -102280.6       189.75136      187.86139      868.15236    
     80900  -103418.98      812.13431     -102606.85      189.78138      187.886        868.46153    
     81000  -103731.19      804.73085     -102926.46      189.81056      187.90994      868.7707     
     81100  -104037.78      797.84421     -103239.93      189.83888      187.9332       869.07987    
     81200  -104339.15      791.47855     -103547.67      189.86663      187.95604      869.38904    
     81300  -104635.86      785.71219     -103850.15      189.89365      187.97831      869.69821    
     81400  -104927.67      779.93098     -104147.74      189.91987      187.99993      870.00738    
     81500  -105216.28      775.44885     -104440.83      189.94555      188.02117      870.31656    
     81600  -105499.3       769.59149     -104729.7       189.9706       188.04193      870.62573    
     81700  -105781         766.34869     -105014.65      189.99494      188.06211      870.9349     
     81800  -106057.83      761.85714     -105295.97      190.01876      188.08191      871.24407    
     81900  -106331.18      757.35412     -105573.82      190.04209      188.10134      871.55324    
     82000  -106602.95      754.51376     -105848.43      190.06477      188.12023      871.86241    
     82100  -106871.5       751.49987     -106120         190.08695      188.13874      872.17158    
     82200  -107136.38      747.69889     -106388.68      190.10863      188.15684      872.48075    
     82300  -107398.82      744.17669     -106654.64      190.12981      188.17456      872.78992    
     82400  -107659.35      741.25257     -106918.1       190.15078      188.19214      873.09909    
     82500  -107917.7       738.52331     -107179.18      190.17133      188.20941      873.40827    
     82600  -108173.76      735.84415     -107437.91      190.19124      188.22612      873.71744    
     82700  -108427.53      733.21187     -107694.31      190.21077      188.24254      874.02661    
     82800  -108679.08      730.65264     -107948.43      190.23008      188.25881      874.33578    
     82900  -108928.52      728.16551     -108200.35      190.24893      188.2747       874.64495    
     83000  -109176.06      725.85493     -108450.21      190.26738      188.29027      874.95412    
     83100  -109415.51      718.97467     -108696.54      190.28571      188.30578      875.26329    
     83200  -109646.84      711.35798     -108935.48      190.30416      188.32147      875.57246    
     83300  -109869.47      703.09297     -109166.38      190.32248      188.33709      875.88163    
     83400  -110085.25      695.76001     -109389.49      190.34059      188.35255      876.19081    
     83500  -110293.21      688.19147     -109605.02      190.3588       188.36818      876.49998    
     83600  -110494.6       681.55278     -109813.04      190.37702      188.38385      876.80915    
     83700  -110688         674.46036     -110013.54      190.39511      188.39945      877.11832    
     83800  -110873.99      667.49293     -110206.49      190.41335      188.41525      877.42749    
     83900  -111052.31      660.49351     -110391.82      190.4317       188.43119      877.73666    
     84000  -111223.24      653.78888     -110569.45      190.45004      188.44716      878.04583    
     84100  -111386.41      647.13205     -110739.28      190.46858      188.46337      878.355      
     84200  -111541.88      640.69636     -110901.19      190.48734      188.47983      878.66417    
     84300  -111689.43      634.40735     -111055.03      190.5062       188.49643      878.97334    
     84400  -111828.94      628.31197     -111200.63      190.52534      188.51333      879.28252    
     84500  -111960.24      622.43504     -111337.8       190.54479      188.53058      879.59169    
     84600  -112083.08      616.78271     -111466.3       190.56446      188.54806      879.90086    
     84700  -112197.27      611.43357     -111585.84      190.58451      188.56595      880.21003    
     84800  -112302.51      606.42671     -111696.08      190.605        188.58429      880.5192     
     84900  -112398.48      601.82342     -111796.66      190.62588      188.603        880.82837    
     85000  -112485.01      597.86029     -111887.15      190.64715      188.62207      881.13754    
     85100  -112562.54      595.10458     -111967.43      190.66827      188.64109      881.44671    
     85200  -112631.33      593.20187     -112038.13      190.6894       188.6602       881.75588    
     85300  -112691.12      591.33154     -112099.79      190.71062      188.67945      882.06506    
     85400  -112741.89      589.75233     -112152.14      190.73222      188.69896      882.37423    
     85500  -112783.54      588.81557     -112194.73      190.75388      188.71847      882.6834     
     85600  -112815.97      588.4505      -112227.52      190.77575      188.73813      882.99257    
     85700  -112839.13      588.30203     -112250.83      190.79801      188.75816      883.30174    
     85800  -112852.95      588.12483     -112264.83      190.82036      188.77828      883.61091    
     85900  -112857.39      588.00359     -112269.39      190.84283      188.79858      883.92008    
     86000  -112852.24      587.92268     -112264.32      190.86528      188.81892      884.22925    
     86100  -112836.47      587.05168     -112249.42      190.88633      188.83788      884.53842    
     86200  -112808.96      585.53732     -112223.43      190.90623      188.85573      884.8476     
     86300  -112768.9       584.33362     -112184.57      190.92631      188.87381      885.15677    
     86400  -112715.77      583.18057     -112132.59      190.94511      188.89067      885.46594    
     86500  -112649.48      580.75556     -112068.72      190.96356      188.90718      885.77511    
     86600  -112569.53      576.00197     -111993.53      190.98233      188.92408      886.08428    
     86700  -112475.16      569.09244     -111906.07      190.99953      188.93947      886.39345    
     86800  -112366.51      560.80742     -111805.7       191.01708      188.95519      886.70262    
     86900  -112243.3       549.84549     -111693.45      191.03443      188.9707       887.01179    
     87000  -112106.24      535.63876     -111570.6       191.05018      188.98471      887.32096    
     87100  -111956.62      518.14572     -111438.48      191.06693      188.99979      887.63013    
     87200  -111798.98      499.91713     -111299.06      191.08243      189.01371      887.93931    
     87300  -111701.62      548.68922     -111152.93      191.09685      189.02696      888.24848    
     87400  -111687.21      659.5821      -111027.62      191.09421      189.02392      888.55765    
     87500  -111674.5       650.35271     -111024.14      191.06852      188.99911      888.86682    
     87600  -111774.29      638.81549     -111135.47      191.06693      188.99726      889.17599    
     87700  -111869.59      592.92254     -111276.67      191.06631      188.99359      889.48516    
     87800  -111919.11      556.21189     -111362.9       191.06135      188.9853       889.79433    
     87900  -111933.14      564.62943     -111368.51      191.05732      188.97697      890.1035     
     88000  -111924.83      602.9537      -111321.88      191.06137      188.97766      890.41267    
     88100  -111926.27      626.12437     -111300.14      191.07039      188.98232      890.72185    
     88200  -111918.62      591.46306     -111327.16      191.07959      188.98858      891.03102    
     88300  -111934.23      578.83278     -111355.4       191.09272      188.998        891.34019    
     88400  -111940.37      581.19132     -111359.18      191.10804      189.00841      891.64936    
     88500  -111957.57      604.48715     -111353.08      191.12403      189.02106      891.95853    
     88600  -111980.24      602.40731     -111377.84      191.13807      189.03056      892.2677     
     88700  -112036.17      603.09406     -111433.08      191.16162      189.04438      892.57687    
     88800  -112064.34      567.56001     -111496.78      191.17938      189.05952      892.88604    
     88900  -112087.46      567.25121     -111520.21      191.19695      189.07568      893.19521    
     89000  -112074.52      580.27909     -111494.25      191.21492      189.0869       893.50439    
     89100  -112061.41      612.04847     -111449.36      191.23244      189.09958      893.81356    
     89200  -112071.45      623.57577     -111447.87      191.24273      189.11032      894.12273    
     89300  -112078.08      586.22347     -111491.86      191.25007      189.11084      894.4319     
     89400  -112088.08      577.06329     -111511.02      191.26693      189.12219      894.74107    
     89500  -112075.56      582.49177     -111493.07      191.28071      189.13329      895.05024    
     89600  -112075.27      616.43457     -111458.83      191.28745      189.13814      895.35941    
     89700  -112060.56      605.80403     -111454.75      191.29905      189.14535      895.66858    
     89800  -112058.31      586.54883     -111471.76      191.30539      189.15011      895.97775    
     89900  -112051.96      578.76795     -111473.2       191.31645      189.15956      896.28692    
     90000  -112042.9       593.23372     -111449.67      191.33215      189.17178      896.5961     
     90100  -112033.11      605.35428     -111427.75      191.3365       189.18009      896.90527    
     90200  -112033.83      606.21323     -111427.62      191.34425      189.18946      897.21444    
     90300  -112048.84      598.46216     -111450.38      191.35157      189.20146      897.52361    
     90400  -112058.57      582.52048     -111476.05      191.36198      189.21146      897.83278    
     90500  -112047.63      571.23939     -111476.39      191.36764      189.22298      898.14195    
     90600  -112041.49      596.69285     -111444.8       191.37179      189.23886      898.45112    
     90700  -112041.24      622.83215     -111418.41      191.37937      189.25406      898.76029    
     90800  -112045.2       608.13646     -111437.07      191.38584      189.26634      899.06946    
     90900  -112064.28      588.61446     -111475.66      191.39523      189.27303      899.37864    
     91000  -112075.24      579.01411     -111496.23      191.41061      189.27977      899.68781    
     91100  -112073.97      585.80408     -111488.17      191.42858      189.28971      899.99698    
     91200  -112062.22      595.47848     -111466.74      191.44206      189.29374      900.30615    
     91300  -112059.86      610.10258     -111449.76      191.4603       189.29975      900.61532    
     91400  -112056.82      602.40482     -111454.42      191.47884      189.30838      900.92449    
     91500  -112078.42      597.48173     -111480.94      191.49439      189.31344      901.23366    
     91600  -112094.4       579.91811     -111514.48      191.51342      189.3254       901.54283    
     91700  -112110.49      583.41076     -111527.08      191.53113      189.33503      901.852      
     91800  -112112.2       592.14392     -111520.05      191.55555      189.3476       902.16117    
     91900  -112113.81      600.76164     -111513.04      191.58028      189.35713      902.47035    
     92000  -112115.72      594.55271     -111521.17      191.60053      189.36403      902.77952    
     92100  -112133         590.79869     -111542.2       191.62618      189.37833      903.08869    
     92200  -112145.36      584.46075     -111560.9       191.64735      189.38922      903.39786    
     92300  -112152.01      586.12346     -111565.88      191.67221      189.40082      903.70703    
     92400  -112157.79      598.56777     -111559.23      191.70041      189.41807      904.0162     
     92500  -112159.32      600.47713     -111558.85      191.72361      189.44055      904.32537    
     92600  -112163.56      593.80854     -111569.75      191.74999      189.46288      904.63454    
     92700  -112173.33      587.10176     -111586.23      191.77789      189.48039      904.94371    
     92800  -112178.5       588.25157     -111590.25      191.80113      189.5004       905.25289    
     92900  -112179.9       597.06831     -111582.83      191.83088      189.52548      905.56206    
     93000  -112178.72      599.82857     -111578.9       191.85712      189.5424       905.87123    
     93100  -112180.7       595.84352     -111584.86      191.88169      189.56146      906.1804     
     93200  -112188.52      592.07402     -111596.44      191.90472      189.58411      906.48957    
     93300  -112201.67      592.03901     -111609.63      191.92727      189.6103       906.79874    
     93400  -112203.79      586.31606     -111617.47      191.94522      189.63415      907.10791    
     93500  -112205.06      591.26741     -111613.79      191.96431      189.65592      907.41708    
     93600  -112207.18      600.33039     -111606.85      191.99195      189.68138      907.72625    
     93700  -112212.46      601.13763     -111611.33      192.01189      189.70255      908.03543    
     93800  -112221.26      595.66263     -111625.59      192.02692      189.72731      908.3446     
     93900  -112225.73      585.70235     -111640.03      192.03662      189.74758      908.65377    
     94000  -112227.96      585.23881     -111642.72      192.0446       189.7665       908.96294    
     94100  -112231.23      597.38692     -111633.84      192.05609      189.78948      909.27211    
     94200  -112237.89      607.21648     -111630.67      192.05933      189.80658      909.58128    
     94300  -112241.13      593.22592     -111647.91      192.0565       189.81898      909.89045    
     94400  -112252.07      583.90012     -111668.17      192.05464      189.82707      910.19962    
     94500  -112258.09      586.45201     -111671.64      192.05302      189.83368      910.50879    
     94600  -112251.55      594.27271     -111657.28      192.053        189.84366      910.81796    
     94700  -112252.02      604.78655     -111647.23      192.04562      189.85156      911.12714    
     94800  -112258.95      598.18106     -111660.77      192.03427      189.8595       911.43631    
     94900  -112274.33      591.33783     -111682.99      192.02361      189.86644      911.74548    
     95000  -112281.94      584.70592     -111697.23      192.0112       189.86514      912.05465    
     95100  -112278.52      585.52815     -111692.99      191.99915      189.86415      912.36382    
     95200  -112279.07      602.89765     -111676.18      191.98692      189.86195      912.67299    
     95300  -112275.5       603.85975     -111671.64      191.97326      189.85721      912.98216    
     95400  -112287.87      601.08174     -111686.79      191.96317      189.85595      913.29133    
     95500  -112301.64      589.79408     -111711.84      191.95136      189.84816      913.6005     
     95600  -112306.31      581.86041     -111724.45      191.9396       189.83863      913.90968    
     95700  -112302.53      584.58141     -111717.95      191.93246      189.832        914.21885    
     95800  -112302.7       600.18606     -111702.52      191.92472      189.82354      914.52802    
     95900  -112302.53      604.35712     -111698.18      191.91866      189.81218      914.83719    
     96000  -112310.84      595.61815     -111715.23      191.91645      189.80209      915.14636    
     96100  -112329.79      590.96548     -111738.83      191.91427      189.78687      915.45553    
     96200  -112335.22      583.6202      -111751.6       191.9164       189.77158      915.7647     
     96300  -112335.45      587.46379     -111747.98      191.92119      189.75604      916.07387    
     96400  -112340.31      602.53481     -111737.77      191.92566      189.73889      916.38304    
     96500  -112334.66      597.40444     -111737.25      191.93438      189.72439      916.69222    
     96600  -112335.88      593.12541     -111742.76      191.94428      189.70727      917.00139    
     96700  -112341.02      591.51363     -111749.51      191.95515      189.69115      917.31056    
     96800  -112336.59      586.82804     -111749.76      191.96638      189.67445      917.61973    
     96900  -112335.72      593.29568     -111742.43      191.97476      189.65678      917.9289     
     97000  -112340.83      602.7096      -111738.12      191.981        189.63995      918.23807    
     97100  -112344.79      595.35305     -111749.43      191.98929      189.62283      918.54724    
     97200  -112352.81      585.75826     -111767.05      191.99398      189.60541      918.85641    
     97300  -112359.75      582.08129     -111777.67      191.99985      189.59133      919.16558    
     97400  -112355.84      585.56787     -111770.27      192.00371      189.57756      919.47475    
     97500  -112345.19      596.2743      -111748.92      192.00164      189.56276      919.78393    
     97600  -112342.49      608.02993     -111734.46      192.00468      189.552        920.0931     
     97700  -112338.24      595.81682     -111742.42      192.00816      189.54232      920.40227    
     97800  -112353.46      589.90099     -111763.56      192.00737      189.53685      920.71144    
     97900  -112355.82      582.17322     -111773.64      192.00543      189.53198      921.02061    
     98000  -112350.24      589.90554     -111760.34      192.00282      189.52918      921.32978    
     98100  -112340.87      599.58925     -111741.29      191.99664      189.52979      921.63895    
     98200  -112334.36      601.20249     -111733.16      191.98439      189.52861      921.94812    
     98300  -112333.94      596.10486     -111737.83      191.97019      189.53093      922.25729    
     98400  -112333.71      588.93159     -111744.78      191.95678      189.53784      922.56647    
     98500  -112330.19      584.55532     -111745.63      191.94284      189.54693      922.87564    
     98600  -112334.16      593.02753     -111741.13      191.93097      189.55777      923.18481    
     98700  -112339.34      599.07325     -111740.27      191.91814      189.56927      923.49398    
     98800  -112343.55      596.3568      -111747.19      191.90346      189.57872      923.80315    
     98900  -112355.82      596.12238     -111759.69      191.88673      189.58856      924.11232    
     99000  -112359.2       588.20721     -111771         191.87481      189.60132      924.42149    
     99100  -112357.75      584.76532     -111772.99      191.86172      189.60785      924.73066    
     99200  -112356.26      590.06415     -111766.19      191.84814      189.6145       925.03983    
     99300  -112349.1       594.73786     -111754.36      191.8361       189.6231       925.34901    
     99400  -112347.91      595.872       -111752.04      191.82575      189.63011      925.65818    
     99500  -112360.77      594.64813     -111766.12      191.81733      189.63541      925.96735    
     99600  -112365.28      584.31914     -111780.96      191.80938      189.63774      926.27652    
     99700  -112360.65      582.25711     -111778.39      191.80088      189.63814      926.58569    
     99800  -112350.08      591.3791      -111758.7       191.79527      189.63915      926.89486    
     99900  -112344.5       604.1357      -111740.36      191.79162      189.63726      927.20403    
    100000  -112349.93      604.44488     -111745.48      191.786        189.63454      927.5132     
Loop time of 26967.1 on 16 procs for 100000 steps with 15300 atoms

Performance: 0.320 ns/day, 74.909 hours/ns, 3.708 timesteps/s, 56.736 katom-step/s
46.0% CPU use with 16 MPI tasks x 1 OpenMP threads

MPI task timing breakdown:
Section |  min time  |  avg time  |  max time  |%varavg| %total
---------------------------------------------------------------
Pair    | 2289.5     | 2836.5     | 3275.9     | 544.0 | 10.52
Neigh   | 9.1639     | 18.888     | 26.921     | 138.2 |  0.07
Comm    | 3465.1     | 4035.5     | 4713.6     | 519.6 | 14.96
Output  | 77.418     | 80.443     | 83.522     |  20.4 |  0.30
Modify  | 17440      | 17739      | 18074      | 123.7 | 65.78
Other   |            | 2257       |            |       |  8.37

Nlocal:         956.25 ave        1538 max          35 min
Histogram: 4 0 0 0 0 4 0 0 0 8
Nghost:        3305.56 ave        5001 max         518 min
Histogram: 4 0 0 0 1 3 0 0 0 8
Neighs:              0 ave           0 max           0 min
Histogram: 16 0 0 0 0 0 0 0 0 0

Total # of neighbors = 0
Ave neighs/atom = 0
Neighbor list builds = 678
Dangerous builds = 0
Total wall time: 7:29:35
