LAMMPS (2 Aug 2023 - Update 3)
OMP_NUM_THREADS environment is not set. Defaulting to 1 thread. (src/comm.cpp:98)
  using 1 OpenMP thread(s) per MPI task

# 1------general---------------
units                             metal      #单位为lammps 中的metel 类型
dimension                    3          #模拟的维度 三维
boundary                    p p p      #周期边界条件
atom_style                  atomic   #原子类型自动
atom_modify              map array sort 100 2.0
neighbor                    3.0 bin
neigh_modify            every 1 delay 0 check yes
#2 -----global variable-------定义全局变量，方便统一修改；
variable temperature equal 300
variable tstep equal 0.001
variable pressure equal 0
variable thermalstep equal 100
variable dumpstep equal 1000
variable relaxtime equal 0
variable totaltime equal 100000
variable deformrate equal 5e-3
#3 -------model------------
#box tilt large
read_data     1.lmp
Reading data file ...
  orthogonal box = (-100 -100 -2.3312512) to (100 100 41.316429)
  4 by 4 by 1 MPI processor grid
  reading atoms ...
  1824 atoms
  read_data CPU = 0.104 seconds
replicate 1 1 17
Replication is creating a 1x1x17 = 17 times larger system...
  orthogonal box = (-100 -100 -2.3312512) to (100 100 739.67931)
  2 by 2 by 4 MPI processor grid
  31008 atoms
  replicate CPU = 0.379 seconds
group SR type 2 3
10200 atoms in group SR
delete_atoms group SR
Deleted 10200 atoms, new total = 20808
write_data h.data
System init for write_data ...
WARNING: Communication cutoff is 0.0. No ghost atoms will be generated. Atoms may get lost. (src/comm_brick.cpp:210)
pair_style hybrid airebo 3.0 airebo 3.0 airebo 3.0 lj/cut 10
pair_coeff * * airebo 1 CH.airebo C NULL NULL
Reading airebo potential file CH.airebo with DATE: 2011-10-25
pair_coeff * * airebo 2 CH.airebo NULL C NULL
Reading airebo potential file CH.airebo with DATE: 2011-10-25
pair_coeff * * airebo 3 CH.airebo NULL NULL C
Reading airebo potential file CH.airebo with DATE: 2011-10-25
pair_coeff 1 2 lj/cut 0.00456 3.431
pair_coeff 1 3 lj/cut 0.00456 3.431
pair_coeff 2 3 lj/cut 0.00456 3.431

# 5------minimize -----------
min_style      sd
minimize       1.0e-4 1.0e-6 100 1000
Neighbor list info ...
  update: every = 1 steps, delay = 0 steps, check = yes
  max neighbors/atom: 2000, page size: 100000
  master list distance cutoff = 13.2
  ghost atom cutoff = 13.2
  binsize = 6.6, bins = 31 31 113
  6 neighbor lists, perpetual/occasional/extra = 6 0 0
  (1) pair airebo, perpetual, skip from (5)
      attributes: full, newton on, ghost
      pair build: skip/ghost
      stencil: none
      bin: none
  (2) pair airebo, perpetual, skip from (5)
      attributes: full, newton on, ghost
      pair build: skip/ghost
      stencil: none
      bin: none
  (3) pair airebo, perpetual, skip from (5)
      attributes: full, newton on, ghost
      pair build: skip/ghost
      stencil: none
      bin: none
  (4) pair lj/cut, perpetual, skip from (6)
      attributes: half, newton on, cut 13
      pair build: skip
      stencil: none
      bin: none
  (5) neighbor class addition, perpetual
      attributes: full, newton on, ghost
      pair build: full/bin/ghost
      stencil: full/ghost/bin/3d
      bin: standard
  (6) neighbor class addition, perpetual
      attributes: half, newton on, cut 13
      pair build: half/bin/atomonly/newton
      stencil: half/bin/3d
      bin: standard
Per MPI rank memory allocation (min/avg/max) = 13.94 | 13.94 | 13.94 Mbytes
   Step          Temp          E_pair         E_mol          TotEng         Press     
         0   0             -154332.13      0             -154332.13     -77.843168    
         1   0             -154332.25      0             -154332.25     -77.708063    
Loop time of 0.998496 on 16 procs for 1 steps with 20808 atoms

41.5% CPU use with 16 MPI tasks x 1 OpenMP threads

Minimization stats:
  Stopping criterion = energy tolerance
  Energy initial, next-to-last, final = 
      -154332.13430476   -154332.13430476  -154332.247717631
  Force two-norm initial, final = 5.2989422 1.366081
  Force max component initial, final = 0.036762983 0.0094736875
  Final line search alpha, max atom move = 1 0.0094736875
  Iterations, force evaluations = 1 2

MPI task timing breakdown:
Section |  min time  |  avg time  |  max time  |%varavg| %total
---------------------------------------------------------------
Pair    | 0.079674   | 0.089444   | 0.12786    |   4.0 |  8.96
Neigh   | 0          | 0          | 0          |   0.0 |  0.00
Comm    | 0.18204    | 0.23871    | 0.27756    |   5.2 | 23.91
Output  | 0          | 0          | 0          |   0.0 |  0.00
Modify  | 0          | 0          | 0          |   0.0 |  0.00
Other   |            | 0.6703     |            |       | 67.14

Nlocal:         1300.5 ave        1377 max        1224 min
Histogram: 4 0 0 0 4 4 0 0 0 4
Nghost:         4615.5 ave        4692 max        4539 min
Histogram: 4 0 0 0 4 4 0 0 0 4
Neighs:              0 ave           0 max           0 min
Histogram: 16 0 0 0 0 0 0 0 0 0

Total # of neighbors = 0
Ave neighs/atom = 0
Neighbor list builds = 0
Dangerous builds = 0
#6----define computes------
variable nums equal count(all) #计算原子数目
variable toval equal 22.7273*22.7165*lz #计算系统总体积，单层石墨烯厚度为0.335nm
variable vol equal ${toval} #体系的初始体积
variable vol equal 383088.710199358 
variable vatom equal v_vol/v_nums #单个原子体积
compute 1 all stress/atom NULL #计算体系中单原子应力
compute xalls all reduce sum c_1[1]
variable xstress equal (c_xalls)/(v_toval*10000)
compute yalls all reduce sum c_1[2]
variable ystress equal (c_yalls)/(v_toval*10000)
compute zalls all reduce sum c_1[3]
variable zstress equal (c_zalls)/(v_toval*10000)
#7---------relaxation-------------------------
timestep ${tstep}
timestep 0.001
velocity all create ${temperature} 231743 units box dist gaussian
velocity all create 300 231743 units box dist gaussian
dump   1 all atom 100 all-cy.lammpstrj
#fix    1 all npt temp 300 300  0.1 aniso 0 0 10 drag 1  #三个方向独立控压
fix  1 all npt temp ${temperature} ${temperature} 0.1 x ${pressure} ${pressure} 10 y ${pressure} ${pressure} 10
fix  1 all npt temp 300 ${temperature} 0.1 x ${pressure} ${pressure} 10 y ${pressure} ${pressure} 10
fix  1 all npt temp 300 300 0.1 x ${pressure} ${pressure} 10 y ${pressure} ${pressure} 10
fix  1 all npt temp 300 300 0.1 x 0 ${pressure} 10 y ${pressure} ${pressure} 10
fix  1 all npt temp 300 300 0.1 x 0 0 10 y ${pressure} ${pressure} 10
fix  1 all npt temp 300 300 0.1 x 0 0 10 y 0 ${pressure} 10
fix  1 all npt temp 300 300 0.1 x 0 0 10 y 0 0 10
compute  2 all pe/atom
compute  pe all reduce sum c_2
variable PE equal "c_pe"
fix    pe all print 100 "${PE} " file PE.txt screen no
thermo  ${thermalstep}
thermo  100
#thermo_style  custom step pe ke etotal lx ly lz
run   ${relaxtime}
run   0
Per MPI rank memory allocation (min/avg/max) = 14.56 | 14.56 | 14.56 Mbytes
   Step          Temp          E_pair         E_mol          TotEng         Press          Volume    
         1   300           -154332.25      0             -153525.39     -48.671556      29680423     
Loop time of 0.057697 on 16 procs for 0 steps with 20808 atoms

40.1% CPU use with 16 MPI tasks x 1 OpenMP threads

MPI task timing breakdown:
Section |  min time  |  avg time  |  max time  |%varavg| %total
---------------------------------------------------------------
Pair    | 0          | 0          | 0          |   0.0 |  0.00
Neigh   | 0          | 0          | 0          |   0.0 |  0.00
Comm    | 0          | 0          | 0          |   0.0 |  0.00
Output  | 0          | 0          | 0          |   0.0 |  0.00
Modify  | 0          | 0          | 0          |   0.0 |  0.00
Other   |            | 0.0577     |            |       |100.00

Nlocal:         1300.5 ave        1377 max        1224 min
Histogram: 8 0 0 0 0 0 0 0 0 8
Nghost:         4615.5 ave        4692 max        4539 min
Histogram: 8 0 0 0 0 0 0 0 0 8
Neighs:              0 ave           0 max           0 min
Histogram: 16 0 0 0 0 0 0 0 0 0

Total # of neighbors = 0
Ave neighs/atom = 0
Neighbor list builds = 0
Dangerous builds = 0
#8 -------tension-----------------------------
unfix  1
undump  1
unfix  pe
reset_timestep 0
fix avestress all ave/atom 1 ${dumpstep} ${dumpstep} c_1[1] c_1[2] c_1[3] c_1[4] c_1[5] c_1[6]
fix avestress all ave/atom 1 1000 ${dumpstep} c_1[1] c_1[2] c_1[3] c_1[4] c_1[5] c_1[6]
fix avestress all ave/atom 1 1000 1000 c_1[1] c_1[2] c_1[3] c_1[4] c_1[5] c_1[6]

#-----calculation of strain and Cumulative compression--------
variable                tmp equal "lz"
variable                L0 equal ${tmp}
variable                L0 equal 742.0105659636
variable                strain equal "(lz - v_L0)/v_L0"
variable                Cumulativels equal "(lz - v_L0)/10"
fix Step all print 100 "${strain} ${Cumulativels} ${zstress}" file grapoten.txt screen no

dump 2 all custom ${dumpstep} tension.xyz type x y z f_avestress[1] f_avestress[2] f_avestress[3] f_avestress[4] f_avestress[5] f_avestress[6]
dump 2 all custom 1000 tension.xyz type x y z f_avestress[1] f_avestress[2] f_avestress[3] f_avestress[4] f_avestress[5] f_avestress[6]

fix  1 all npt temp ${temperature} ${temperature} 0.1 y ${pressure} ${pressure} 10 x ${pressure} ${pressure} 10
fix  1 all npt temp 300 ${temperature} 0.1 y ${pressure} ${pressure} 10 x ${pressure} ${pressure} 10
fix  1 all npt temp 300 300 0.1 y ${pressure} ${pressure} 10 x ${pressure} ${pressure} 10
fix  1 all npt temp 300 300 0.1 y 0 ${pressure} 10 x ${pressure} ${pressure} 10
fix  1 all npt temp 300 300 0.1 y 0 0 10 x ${pressure} ${pressure} 10
fix  1 all npt temp 300 300 0.1 y 0 0 10 x 0 ${pressure} 10
fix  1 all npt temp 300 300 0.1 y 0 0 10 x 0 0 10

thermo_style custom step pe ke etotal lx ly lz
fix   2 all deform 1 z erate ${deformrate} remap x units box
fix   2 all deform 1 z erate 0.005 remap x units box
fix   3 all ave/time 2 500 1000 v_xstress v_ystress v_zstress file pressure.out
run   ${totaltime}
run   100000
WARNING: Dump 2 includes no atom IDs and is not sorted by ID. This may complicate post-processing tasks or visualization (src/dump.cpp:221)
Per MPI rank memory allocation (min/avg/max) = 16.06 | 16.06 | 16.06 Mbytes
   Step         PotEng         KinEng         TotEng           Lx             Ly             Lz      
         0  -154332.25      806.85475     -153525.39      200            200            742.01057    
       100  -153864.58      392.39396     -153472.18      199.98843      199.98923      742.38157    
       200  -153884.19      482.85775     -153401.33      199.97909      199.97998      742.75258    
       300  -153830.05      513.53257     -153316.52      199.99376      199.99537      743.12358    
       400  -153782.93      559.65555     -153223.27      199.99283      199.99483      743.49459    
       500  -153741.17      616.92725     -153124.24      199.97535      199.97735      743.86559    
       600  -153672.67      650.15106     -153022.52      199.98429      199.98676      744.2366     
       700  -153634.38      712.62879     -152921.75      199.99485      199.99769      744.6076     
       800  -153580.11      752.64083     -152827.47      199.97775      199.97967      744.97861    
       900  -153534.81      787.7127      -152747.1       199.97526      199.97706      745.34961    
      1000  -153509.27      822.01365     -152687.26      199.98954      199.991        745.72062    
      1100  -153493.51      830.41489     -152663.1       199.9819       199.98241      746.09162    
      1200  -153508.67      822.89112     -152685.78      199.97109      199.97089      746.46263    
      1300  -153516.53      794.76407     -152721.76      199.98172      199.97972      746.83363    
      1400  -153526.9       794.30563     -152732.6       199.98104      199.97743      747.20464    
      1500  -153508.25      796.07301     -152712.17      199.96794      199.96249      747.57565    
      1600  -153494.93      817.18875     -152677.74      199.97264      199.96482      747.94665    
      1700  -153474.76      819.26703     -152655.5       199.97957      199.96891      748.31766    
      1800  -153471.12      813.97868     -152657.15      199.96737      199.95396      748.68866    
      1900  -153487.68      810.18719     -152677.49      199.96527      199.94796      749.05967    
      2000  -153486.87      795.09519     -152691.77      199.97593      199.95551      749.43067    
      2100  -153477.06      796.02771     -152681.03      199.96909      199.94405      749.80168    
      2200  -153464.05      811.85767     -152652.19      199.95983      199.92956      750.17268    
      2300  -153447.88      820.01473     -152627.86      199.97064      199.93581      750.54369    
      2400  -153434.45      812.90699     -152621.54      199.97276      199.9323       750.91469    
      2500  -153446.7       813.86088     -152632.84      199.95992      199.9122       751.2857     
      2600  -153440.67      794.88047     -152645.79      199.96312      199.90956      751.6567     
      2700  -153434.93      794.80515     -152640.12      199.97176      199.91098      752.02771    
      2800  -153425.4       811.09732     -152614.3       199.96208      199.89339      752.39871    
      2900  -153397.28      808.5724      -152588.7       199.95777      199.88112      752.76972    
      3000  -153389.57      812.72541     -152576.85      199.96805      199.88287      753.14072    
      3100  -153387.77      808.06442     -152579.7       199.96612      199.87254      753.51173    
      3200  -153393.02      803.53095     -152589.49      199.9573       199.85401      753.88274    
      3300  -153383.22      794.34181     -152588.88      199.96273      199.84936      754.25374    
      3400  -153372.45      802.87588     -152569.58      199.96732      199.84508      754.62475    
      3500  -153350.87      808.87092     -152542         199.95914      199.82659      754.99575    
      3600  -153336.28      811.96623     -152524.31      199.95807      199.8149       755.36676    
      3700  -153330.57      807.77487     -152522.8       199.96532      199.81267      755.73776    
      3800  -153332.72      804.09816     -152528.63      199.96111      199.7983       756.10877    
      3900  -153326.55      797.15461     -152529.4       199.95363      199.78081      756.47977    
      4000  -153314.13      798.43707     -152515.69      199.95766      199.77541      756.85078    
      4100  -153298.13      810.94584     -152487.19      199.95795      199.76567      757.22178    
      4200  -153279.86      818.01062     -152461.85      199.94915      199.74782      757.59279    
      4300  -153270.6       816.51702     -152454.09      199.94896      199.73863      757.96379    
      4400  -153262.85      805.31664     -152457.53      199.95213      199.73214      758.3348     
      4500  -153265.27      807.07719     -152458.19      199.9444       199.71587      758.7058     
      4600  -153247.36      800.79593     -152446.57      199.93832      199.70206      759.07681    
      4700  -153226.35      804.63864     -152421.71      199.94069      199.6957       759.44781    
      4800  -153209.01      812.95565     -152396.06      199.93731      199.68454      759.81882    
      4900  -153196         814.27934     -152381.72      199.92683      199.66762      760.18982    
      5000  -153188.76      808.07957     -152380.68      199.92424      199.65749      760.56083    
      5100  -153180.7       799.57827     -152381.12      199.92326      199.65057      760.93184    
      5200  -153170.35      798.55536     -152371.8       199.91317      199.63513      761.30284    
      5300  -153152.28      802.59676     -152349.69      199.90424      199.61999      761.67385    
      5400  -153139.09      815.73151     -152323.36      199.90254      199.61401      762.04485    
      5500  -153123.83      821.93644     -152301.89      199.8957       199.6024       762.41586    
      5600  -153106.93      812.8094      -152294.12      199.88479      199.58667      762.78686    
      5700  -153099.84      805.43942     -152294.41      199.87911      199.57781      763.15787    
      5800  -153082.9       795.13083     -152287.77      199.87358      199.56829      763.52887    
      5900  -153071.34      802.75487     -152268.58      199.86234      199.55408      763.89988    
      6000  -153048.04      805.03327     -152243.01      199.85306      199.54274      764.27088    
      6100  -153029.86      810.77662     -152219.08      199.84633      199.53335      764.64189    
      6200  -153021.33      817.38137     -152203.95      199.83589      199.52109      765.01289    
      6300  -153002.03      803.17933     -152198.85      199.82435      199.5088       765.3839     
      6400  -152993.99      801.24047     -152192.75      199.81479      199.49763      765.7549     
      6500  -152983.59      805.15879     -152178.43      199.8042       199.48613      766.12591    
      6600  -152955.39      801.67218     -152153.72      199.79157      199.47333      766.49691    
      6700  -152934.92      808.90439     -152126.02      199.7806       199.46103      766.86792    
      6800  -152923.08      816.46423     -152106.62      199.77005      199.45069      767.23893    
      6900  -152903.15      805.63143     -152097.51      199.75748      199.43781      767.60993    
      7000  -152894.81      803.34895     -152091.47      199.74481      199.42382      767.98094    
      7100  -152874.53      796.1641      -152078.37      199.73302      199.41256      768.35194    
      7200  -152862.83      808.54594     -152054.28      199.72022      199.3994       768.72295    
      7300  -152833.31      809.21494     -152024.09      199.70675      199.38478      769.09395    
      7400  -152815.59      813.61126     -152001.98      199.69415      199.37279      769.46496    
      7500  -152799.64      808.34236     -151991.29      199.68092      199.35844      769.83596    
      7600  -152785.38      801.0559      -151984.33      199.66576      199.34265      770.20697    
      7700  -152774.79      803.20019     -151971.59      199.6522       199.32914      770.57797    
      7800  -152751.75      804.56008     -151947.19      199.63933      199.31406      770.94898    
      7900  -152728.7       812.90081     -151915.8       199.62377      199.29772      771.31998    
      8000  -152707.36      817.45673     -151889.91      199.61033      199.283        771.69099    
      8100  -152679.72      805.00488     -151874.72      199.59745      199.26736      772.06199    
      8200  -152668.6       804.04533     -151864.56      199.58142      199.24996      772.433      
      8300  -152656         804.22567     -151851.77      199.56713      199.23301      772.804      
      8400  -152632.06      800.7902      -151831.27      199.55479      199.21718      773.17501    
      8500  -152607.7       804.94104     -151802.76      199.53909      199.19872      773.54602    
      8600  -152581.26      807.25051     -151774.01      199.52342      199.17873      773.91702    
      8700  -152561.61      808.13367     -151753.48      199.51053      199.1616       774.28803    
      8800  -152545.82      805.56581     -151740.26      199.49584      199.14291      774.65903    
      8900  -152532.15      804.20978     -151727.94      199.47947      199.12101      775.03004    
      9000  -152508.19      798.38615     -151709.81      199.46542      199.10174      775.40104    
      9100  -152485.97      803.3401      -151682.63      199.4518       199.08282      775.77205    
      9200  -152459.18      808.80758     -151650.38      199.43564      199.05977      776.14305    
      9300  -152429.77      806.54218     -151623.22      199.42039      199.0383       776.51406    
      9400  -152417.63      810.09717     -151607.53      199.40831      199.01916      776.88506    
      9500  -152396.52      801.72194     -151594.79      199.39228      198.99536      777.25607    
      9600  -152382.53      805.21964     -151577.31      199.37547      198.97093      777.62707    
      9700  -152354.88      803.92382     -151550.95      199.36268      198.95014      777.99808    
      9800  -152326.81      808.96246     -151517.84      199.34785      198.92641      778.36908    
      9900  -152298.53      811.08313     -151487.45      199.32996      198.89994      778.74009    
     10000  -152279.31      811.91429     -151467.4       199.31595      198.87652      779.11109    
     10100  -152260.96      806.20531     -151454.75      199.3029       198.85407      779.4821     
     10200  -152244.72      805.31083     -151439.41      199.28526      198.8267       779.8531     
     10300  -152222.98      808.18857     -151414.8       199.26881      198.79999      780.22411    
     10400  -152182.58      801.45678     -151381.12      199.25524      198.77659      780.59512    
     10500  -152155.33      808.29239     -151347.04      199.23974      198.75064      780.96612    
     10600  -152141.68      819.53919     -151322.14      199.22205      198.7227       781.33713    
     10700  -152109.29      802.01528     -151307.27      199.20679      198.69716      781.70813    
     10800  -152091.36      798.60442     -151292.75      199.19149      198.67181      782.07914    
     10900  -152067.66      799.81929     -151267.84      199.17328      198.64321      782.45014    
     11000  -152040.39      807.64207     -151232.74      199.15596      198.61568      782.82115    
     11100  -152011.69      813.45858     -151198.23      199.14124      198.59096      783.19215    
     11200  -151980.59      809.35072     -151171.24      199.12343      198.5631       783.56316    
     11300  -151956.58      804.03762     -151152.54      199.10366      198.53374      783.93416    
     11400  -151933.79      799.43648     -151134.36      199.08671      198.50741      784.30517    
     11500  -151907.78      798.85545     -151108.93      199.07002      198.48146      784.67617    
     11600  -151883.09      806.60451     -151076.48      199.05021      198.45316      785.04718    
     11700  -151859.66      816.37046     -151043.29      199.03087      198.42498      785.41818    
     11800  -151816.75      802.16804     -151014.59      199.0131       198.39932      785.78919    
     11900  -151807.52      815.80391     -150991.71      198.99386      198.37268      786.16019    
     12000  -151779.12      806.49437     -150972.63      198.97389      198.34464      786.5312     
     12100  -151747.34      798.38175     -150948.95      198.95362      198.31768      786.90221    
     12200  -151726.76      808.69621     -150918.06      198.93384      198.29107      787.27321    
     12300  -151699.21      816.13077     -150883.08      198.91347      198.26369      787.64422    
     12400  -151660.17      809.56767     -150850.6       198.89189      198.23684      788.01522    
     12500  -151632.7       808.2504      -150824.45      198.87109      198.21018      788.38623    
     12600  -151611.4       808.81459     -150802.58      198.85006      198.18382      788.75723    
     12700  -151584.59      807.50715     -150777.09      198.8272       198.1572       789.12824    
     12800  -151547.18      801.02696     -150746.15      198.80642      198.13154      789.49924    
     12900  -151519.91      808.24691     -150711.66      198.78515      198.10638      789.87025    
     13000  -151487.23      808.30868     -150678.92      198.76183      198.08017      790.24125    
     13100  -151459.86      808.53432     -150651.33      198.73931      198.05384      790.61226    
     13200  -151435.17      807.44609     -150627.72      198.71772      198.02966      790.98326    
     13300  -151402.06      800.24629     -150601.81      198.69431      198.00417      791.35427    
     13400  -151381.32      810.99283     -150570.32      198.67098      197.97783      791.72527    
     13500  -151342.95      808.4212      -150534.52      198.64868      197.95411      792.09628    
     13600  -151309.92      809.9655      -150499.95      198.6266       197.93005      792.46728    
     13700  -151280.75      809.4217      -150471.33      198.60312      197.90465      792.83829    
     13800  -151257.62      810.47138     -150447.14      198.57925      197.88008      793.2093     
     13900  -151223.3       801.62099     -150421.68      198.55744      197.85618      793.5803     
     14000  -151197.93      808.12777     -150389.8       198.53478      197.83253      793.95131    
     14100  -151158.12      806.24657     -150351.87      198.51131      197.8079       794.32231    
     14200  -151125.61      811.61296     -150314         198.48893      197.78387      794.69332    
     14300  -151087.71      806.34731     -150281.36      198.46672      197.76084      795.06432    
     14400  -151058.86      803.55997     -150255.3       198.44412      197.73651      795.43533    
     14500  -151034.43      804.19428     -150230.24      198.42208      197.71286      795.80633    
     14600  -151004         804.32098     -150199.67      198.40067      197.69002      796.17734    
     14700  -150973.84      812.13251     -150161.7       198.37917      197.66578      796.54834    
     14800  -150930.49      806.82925     -150123.66      198.35766      197.64287      796.91935    
     14900  -150900.32      810.47561     -150089.84      198.33689      197.6194       797.29035    
     15000  -150859.76      798.75719     -150061.01      198.31587      197.59532      797.66136    
     15100  -150837.81      804.00304     -150033.81      198.29498      197.57221      798.03236    
     15200  -150809.94      807.01599     -150002.93      198.27552      197.54912      798.40337    
     15300  -150769.26      804.50266     -149964.76      198.25658      197.52642      798.77437    
     15400  -150728.81      805.48008     -149923.33      198.23682      197.50323      799.14538    
     15500  -150697.97      810.58105     -149887.38      198.21815      197.47975      799.51638    
     15600  -150668.25      807.29623     -149860.96      198.2004       197.45762      799.88739    
     15700  -150640.7       802.03759     -149838.66      198.18268      197.43555      800.2584     
     15800  -150605.27      804.03652     -149801.23      198.16504      197.4122       800.6294     
     15900  -150567.63      808.75818     -149758.87      198.14781      197.39013      801.00041    
     16000  -150532.47      811.46706     -149721.01      198.13165      197.3683       801.37141    
     16100  -150496.53      808.18693     -149688.34      198.11523      197.34586      801.74242    
     16200  -150461.95      798.10797     -149663.84      198.09825      197.32367      802.11342    
     16300  -150433.52      797.72092     -149635.8       198.08295      197.30188      802.48443    
     16400  -150395.04      800.7635      -149594.28      198.06872      197.28143      802.85543    
     16500  -150360         807.72391     -149552.27      198.05292      197.25999      803.22644    
     16600  -150322.33      808.81386     -149513.52      198.03828      197.23802      803.59744    
     16700  -150284.24      809.23871     -149475.01      198.0248       197.21842      803.96845    
     16800  -150246.76      808.9236      -149437.84      198.01088      197.19805      804.33945    
     16900  -150219.16      814.33217     -149404.83      197.99706      197.17678      804.71046    
     17000  -150179.19      801.41597     -149377.77      197.98415      197.15823      805.08146    
     17100  -150146.58      802.692       -149343.89      197.97138      197.13862      805.45247    
     17200  -150108         807.1526      -149300.85      197.95801      197.11825      805.82347    
     17300  -150064.15      808.99139     -149255.16      197.94556      197.10003      806.19448    
     17400  -150030.92      811.42398     -149219.5       197.93481      197.08204      806.56549    
     17500  -149996.23      808.65404     -149187.58      197.92188      197.06313      806.93649    
     17600  -149961.52      806.15831     -149155.36      197.90874      197.0442       807.3075     
     17700  -149921.08      801.95965     -149119.12      197.89835      197.0271       807.6785     
     17800  -149877.84      806.4353      -149071.41      197.88717      197.01107      808.04951    
     17900  -149838.34      810.92746     -149027.41      197.87478      196.99313      808.42051    
     18000  -149804.16      810.91112     -148993.25      197.86328      196.97629      808.79152    
     18100  -149765.24      800.31457     -148964.93      197.85236      196.96174      809.16252    
     18200  -149733.72      804.24116     -148929.48      197.84174      196.94597      809.53353    
     18300  -149692.8       804.31743     -148888.48      197.83012      196.93035      809.90453    
     18400  -149649.55      804.12055     -148845.43      197.81907      196.91646      810.27554    
     18500  -149610.59      815.95633     -148794.63      197.80866      196.90152      810.64654    
     18600  -149568.06      818.30288     -148749.76      197.7972       196.88779      811.01755    
     18700  -149531.41      811.74786     -148719.66      197.78669      196.87434      811.38855    
     18800  -149499.88      810.74476     -148689.13      197.77545      196.86011      811.75956    
     18900  -149462.13      806.2776      -148655.85      197.76412      196.84765      812.13056    
     19000  -149419.76      800.34392     -148619.41      197.75503      196.83598      812.50157    
     19100  -149381.62      808.54346     -148573.07      197.74337      196.82348      812.87258    
     19200  -149332.95      808.89763     -148524.05      197.73185      196.81144      813.24358    
     19300  -149298.55      812.23859     -148486.31      197.722        196.8008       813.61459    
     19400  -149256.99      804.21412     -148452.78      197.71084      196.78991      813.98559    
     19500  -149222.6       806.08557     -148416.51      197.69897      196.77861      814.3566     
     19600  -149182.82      806.37575     -148376.45      197.68886      196.76862      814.7276     
     19700  -149138.78      803.81675     -148334.96      197.6779       196.75923      815.09861    
     19800  -149099.4       807.20776     -148292.19      197.66587      196.74819      815.46961    
     19900  -149057.54      808.37818     -148249.17      197.65517      196.73861      815.84062    
     20000  -149017.86      815.32718     -148202.53      197.64492      196.7308       816.21162    
     20100  -148972.47      817.31446     -148155.16      197.6333       196.72029      816.58263    
     20200  -148935.98      815.73235     -148120.24      197.62108      196.71075      816.95363    
     20300  -148897.03      807.96011     -148089.07      197.61146      196.70355      817.32464    
     20400  -148855.36      805.74484     -148049.61      197.60115      196.6951       817.69564    
     20500  -148814.4       809.89295     -148004.51      197.58801      196.6851       818.06665    
     20600  -148764.37      808.99882     -147955.37      197.57805      196.67677      818.43765    
     20700  -148720.09      813.80949     -147906.28      197.56865      196.66993      818.80866    
     20800  -148680.74      809.09851     -147871.64      197.55713      196.66114      819.17966    
     20900  -148647.55      806.02703     -147841.52      197.54499      196.6508       819.55067    
     21000  -148596.18      798.1653      -147798.02      197.53433      196.64288      819.92168    
     21100  -148556.97      809.07819     -147747.89      197.52502      196.63594      820.29268    
     21200  -148507.33      806.72516     -147700.6       197.51408      196.62658      820.66369    
     21300  -148468.16      811.02343     -147657.13      197.50148      196.61667      821.03469    
     21400  -148428.64      803.60936     -147625.03      197.4933       196.60986      821.4057     
     21500  -148388.14      799.02968     -147589.11      197.48401      196.60227      821.7767     
     21600  -148339.5       797.18527     -147542.31      197.4716       196.59226      822.14771    
     21700  -148295.44      805.03308     -147490.4       197.46172      196.58326      822.51871    
     21800  -148255.91      811.01702     -147444.9       197.45341      196.57652      822.88972    
     21900  -148208.49      806.06513     -147402.42      197.44287      196.56731      823.26072    
     22000  -148170.48      807.60403     -147362.87      197.43164      196.55651      823.63173    
     22100  -148136.14      805.10735     -147331.04      197.42201      196.54869      824.00273    
     22200  -148084.26      794.59707     -147289.66      197.41323      196.54007      824.37374    
     22300  -148033.8       799.19506     -147234.6       197.40263      196.52993      824.74474    
     22400  -147991.65      805.82822     -147185.82      197.39223      196.52045      825.11575    
     22500  -147945.55      808.58813     -147136.96      197.38383      196.51183      825.48675    
     22600  -147895.71      805.71346     -147090         197.37397      196.50262      825.85776    
     22700  -147859         811.83299     -147047.16      197.36346      196.49188      826.22877    
     22800  -147813.62      801.07585     -147012.55      197.35432      196.48229      826.59977    
     22900  -147772.11      800.84296     -146971.27      197.34503      196.47285      826.97078    
     23000  -147719.6       801.70632     -146917.89      197.33533      196.46227      827.34178    
     23100  -147674.88      807.72636     -146867.15      197.32601      196.45204      827.71279    
     23200  -147629.83      806.55652     -146823.27      197.31765      196.44235      828.08379    
     23300  -147585.59      805.61201     -146779.98      197.30836      196.43165      828.4548     
     23400  -147543.8       806.72214     -146737.08      197.29888      196.4203       828.8258     
     23500  -147495.03      802.01942     -146693.01      197.29011      196.40924      829.19681    
     23600  -147446.8       803.92294     -146642.88      197.28125      196.39848      829.56781    
     23700  -147403.7       814.48623     -146589.21      197.27234      196.3869       829.93882    
     23800  -147352.71      810.15621     -146542.55      197.26415      196.37583      830.30982    
     23900  -147308.9       803.33353     -146505.56      197.256        196.36474      830.68083    
     24000  -147267.42      798.99633     -146468.42      197.24715      196.35255      831.05183    
     24100  -147230.1       810.18951     -146419.91      197.23887      196.34087      831.42284    
     24200  -147174.62      806.60409     -146368.02      197.23104      196.33005      831.79384    
     24300  -147124.62      808.76756     -146315.85      197.22284      196.31738      832.16485    
     24400  -147082.1       814.33559     -146267.76      197.21366      196.30515      832.53586    
     24500  -147030.3       807.61722     -146222.69      197.20601      196.29345      832.90686    
     24600  -146991.94      807.45279     -146184.49      197.19803      196.28113      833.27787    
     24700  -146939.56      793.62805     -146145.94      197.1883       196.26842      833.64887    
     24800  -146895.95      805.35908     -146090.59      197.18038      196.25596      834.01988    
     24900  -146843.08      807.271       -146035.81      197.17222      196.24432      834.39088    
     25000  -146793.56      809.02423     -145984.54      197.16271      196.23146      834.76189    
     25100  -146743.87      808.58605     -145935.29      197.15482      196.21894      835.13289    
     25200  -146696.77      806.94723     -145889.82      197.14697      196.20824      835.5039     
     25300  -146648.2       796.60779     -145851.6       197.13779      196.19502      835.8749     
     25400  -146606.51      800.11084     -145806.4       197.12727      196.18128      836.24591    
     25500  -146552.73      804.35342     -145748.38      197.11874      196.17018      836.61691    
     25600  -146500.24      805.6507      -145694.58      197.11085      196.15812      836.98792    
     25700  -146457.59      811.48998     -145646.1       197.09929      196.14451      837.35892    
     25800  -146404.6       803.89748     -145600.7       197.0898       196.13175      837.72993    
     25900  -146369.13      808.7241      -145560.4       197.08221      196.12119      838.10093    
     26000  -146314.83      798.37706     -145516.45      197.07144      196.1083       838.47194    
     26100  -146265.91      808.19882     -145457.71      197.05981      196.09389      838.84294    
     26200  -146210.38      808.77266     -145401.61      197.05064      196.08307      839.21395    
     26300  -146160.7       808.16487     -145352.53      197.0421       196.07235      839.58496    
     26400  -146113.1       805.46767     -145307.63      197.03063      196.05883      839.95596    
     26500  -146068.53      803.4257      -145265.11      197.01827      196.04574      840.32697    
     26600  -146025.64      803.94715     -145221.69      197.00939      196.03514      840.69797    
     26700  -145967.64      802.58791     -145165.05      196.99889      196.02415      841.06898    
     26800  -145912.03      805.94061     -145106.09      196.98574      196.01074      841.43998    
     26900  -145863.5       808.23454     -145055.26      196.9746       195.99848      841.81099    
     27000  -145815.47      807.32801     -145008.14      196.96392      195.98819      842.18199    
     27100  -145764.61      799.98349     -144964.63      196.95112      195.97514      842.553      
     27200  -145720.79      803.07766     -144917.71      196.93756      195.96159      842.924      
     27300  -145668.96      809.33143     -144859.63      196.92618      195.95127      843.29501    
     27400  -145611.22      809.32079     -144801.9       196.91515      195.94032      843.66601    
     27500  -145565.68      813.33001     -144752.35      196.90068      195.92748      844.03702    
     27600  -145517.29      808.19891     -144709.09      196.88689      195.91488      844.40802    
     27700  -145470.46      803.49371     -144666.97      196.87563      195.90436      844.77903    
     27800  -145419.53      800.29488     -144619.24      196.86204      195.89322      845.15003    
     27900  -145360.5       804.0147      -144556.49      196.84699      195.87936      845.52104    
     28000  -145307.02      808.31756     -144498.7       196.83396      195.86836      845.89205    
     28100  -145256.5       810.2656      -144446.23      196.82173      195.8587       846.26305    
     28200  -145200.18      802.91664     -144397.27      196.8063       195.84476      846.63406    
     28300  -145156.19      805.27637     -144350.92      196.79031      195.83177      847.00506    
     28400  -145106.07      799.75517     -144306.31      196.7781       195.8218       847.37607    
     28500  -145059.14      805.35179     -144253.78      196.76359      195.80976      847.74707    
     28600  -144996.19      804.97831     -144191.21      196.74656      195.79583      848.11808    
     28700  -144946.93      809.29478     -144137.64      196.73326      195.7842       848.48908    
     28800  -144893.23      804.50397     -144088.72      196.71957      195.77393      848.86009    
     28900  -144845.26      802.51999     -144042.74      196.70311      195.75967      849.23109    
     29000  -144801.69      802.18243     -143999.51      196.68708      195.74558      849.6021     
     29100  -144748.49      800.52075     -143947.97      196.67388      195.73527      849.9731     
     29200  -144685.56      802.14999     -143883.41      196.65959      195.72282      850.34411    
     29300  -144631.59      803.94976     -143827.64      196.64213      195.70775      850.71511    
     29400  -144585.74      811.21618     -143774.53      196.62683      195.69478      851.08612    
     29500  -144535.93      811.68768     -143724.25      196.61396      195.68321      851.45712    
     29600  -144477.16      800.87735     -143676.28      196.59763      195.66904      851.82813    
     29700  -144433         802.96052     -143630.04      196.58036      195.65297      852.19914    
     29800  -144379.2       803.60098     -143575.6       196.5661       195.63944      852.57014    
     29900  -144316.44      804.32684     -143512.11      196.55237      195.62724      852.94115    
     30000  -144257.04      800.08485     -143456.95      196.53591      195.61124      853.31215    
     30100  -144213.21      807.77666     -143405.44      196.51878      195.595        853.68316    
     30200  -144156.76      798.24899     -143358.51      196.50544      195.58204      854.05416    
     30300  -144114.97      800.19825     -143314.77      196.49086      195.56708      854.42517    
     30400  -144060.51      801.19201     -143259.32      196.47329      195.54986      854.79617    
     30500  -143998.12      803.31524     -143194.8       196.45896      195.53455      855.16718    
     30600  -143944.84      806.24692     -143138.59      196.44632      195.52134      855.53818    
     30700  -143892.09      808.04543     -143084.04      196.4307       195.50498      855.90919    
     30800  -143838.21      805.29228     -143032.91      196.41482      195.48728      856.28019    
     30900  -143792.86      806.01766     -142986.84      196.40029      195.47193      856.6512     
     31000  -143740.93      803.77947     -142937.15      196.38624      195.45559      857.0222     
     31100  -143679.81      805.85116     -142873.96      196.37092      195.43842      857.39321    
     31200  -143623.64      810.22181     -142813.41      196.35558      195.42183      857.76421    
     31300  -143565.68      806.52963     -142759.15      196.34162      195.40472      858.13522    
     31400  -143511.15      805.53564     -142705.61      196.32625      195.38826      858.50622    
     31500  -143461.6       807.10057     -142654.5       196.31221      195.37129      858.87723    
     31600  -143407.2       799.87518     -142607.32      196.29822      195.35454      859.24824    
     31700  -143357.05      803.3541      -142553.69      196.28251      195.33681      859.61924    
     31800  -143301.79      812.60769     -142489.18      196.26831      195.31848      859.99025    
     31900  -143239.94      808.66281     -142431.28      196.25455      195.30297      860.36125    
     32000  -143191.49      811.30077     -142380.19      196.24078      195.28571      860.73226    
     32100  -143139.45      809.01964     -142330.43      196.22477      195.26651      861.10326    
     32200  -143082.14      799.91001     -142282.23      196.20934      195.24873      861.47427    
     32300  -143034.5       802.22685     -142232.27      196.19648      195.23194      861.84527    
     32400  -142968.25      800.74635     -142167.5       196.1814       195.21433      862.21628    
     32500  -142909.21      803.74069     -142105.47      196.16512      195.19509      862.58728    
     32600  -142852.56      806.17663     -142046.39      196.1511       195.17716      862.95829    
     32700  -142797.36      807.07648     -141990.29      196.13749      195.16146      863.32929    
     32800  -142739.61      802.96284     -141936.64      196.12197      195.14222      863.7003     
     32900  -142689.97      802.75662     -141887.21      196.10474      195.12237      864.0713     
     33000  -142636.6       799.73658     -141836.86      196.09122      195.10584      864.44231    
     33100  -142582.99      806.87891     -141776.11      196.07804      195.08897      864.81331    
     33200  -142521.01      809.36876     -141711.64      196.06086      195.06994      865.18432    
     33300  -142462.31      805.97031     -141656.34      196.04562      195.0513       865.55533    
     33400  -142406.29      800.75623     -141605.53      196.03159      195.03515      865.92633    
     33500  -142358.23      801.21348     -141557.02      196.01563      195.01702      866.29734    
     33600  -142309.46      799.18983     -141510.27      195.99837      194.99726      866.66834    
     33700  -142248.52      798.16096     -141450.36      195.98227      194.9798       867.03935    
     33800  -142190.44      807.6359      -141382.8       195.96755      194.96253      867.41035    
     33900  -142127.63      806.35578     -141321.28      195.95112      194.94507      867.78136    
     34000  -142064.37      802.22649     -141262.14      195.93391      194.92695      868.15236    
     34100  -142017.16      814.03974     -141203.12      195.91741      194.90881      868.52337    
     34200  -141954.7       807.85892     -141146.85      195.90136      194.89288      868.89437    
     34300  -141902.41      805.34501     -141097.07      195.88518      194.87522      869.26538    
     34400  -141855.57      806.77209     -141048.8       195.86699      194.85714      869.63638    
     34500  -141799.99      808.40986     -140991.58      195.84993      194.84028      870.00739    
     34600  -141725.89      802.23465     -140923.66      195.83398      194.82363      870.37839    
     34700  -141671.7       806.80531     -140864.9       195.81566      194.80632      870.7494     
     34800  -141618.43      808.59905     -140809.84      195.79749      194.78827      871.1204     
     34900  -141564.45      806.86805     -140757.58      195.78044      194.77207      871.49141    
     35000  -141504.83      798.05588     -140706.77      195.76228      194.75493      871.86242    
     35100  -141448.11      798.33338     -140649.78      195.74349      194.73672      872.23342    
     35200  -141388.55      806.82656     -140581.72      195.7258       194.72118      872.60443    
     35300  -141326.85      806.06609     -140520.79      195.70896      194.70524      872.97543    
     35400  -141271.25      806.66151     -140464.59      195.68951      194.68793      873.34644    
     35500  -141219.2       807.16172     -140412.04      195.6702       194.67094      873.71744    
     35600  -141168.07      803.88899     -140364.18      195.65307      194.65506      874.08845    
     35700  -141108.43      800.64151     -140307.79      195.63426      194.63943      874.45945    
     35800  -141043.52      804.80062     -140238.72      195.61552      194.62216      874.83046    
     35900  -140985.7       807.98406     -140177.72      195.59665      194.60619      875.20146    
     36000  -140930.57      810.38033     -140120.19      195.57865      194.59055      875.57247    
     36100  -140865.99      800.68781     -140065.3       195.56053      194.57376      875.94347    
     36200  -140818.41      805.7389      -140012.67      195.54027      194.55734      876.31448    
     36300  -140765.52      808.55085     -139956.96      195.52221      194.54038      876.68548    
     36400  -140698.77      807.48095     -139891.29      195.50479      194.526        877.05649    
     36500  -140631.52      804.31403     -139827.21      195.48693      194.51004      877.42749    
     36600  -140579.51      809.18904     -139770.32      195.46722      194.49208      877.7985     
     36700  -140522.85      804.16127     -139718.69      195.4489       194.47658      878.1695     
     36800  -140469.66      796.11447     -139673.54      195.43301      194.46151      878.54051    
     36900  -140412.89      798.96314     -139613.92      195.41397      194.44531      878.91152    
     37000  -140349.5       800.26596     -139549.24      195.39476      194.42756      879.28252    
     37100  -140295.98      810.9804      -139485         195.37781      194.41254      879.65353    
     37200  -140222.82      800.9779      -139421.84      195.36121      194.39789      880.02453    
     37300  -140174.44      814.04364     -139360.39      195.34223      194.37982      880.39554    
     37400  -140112.05      811.11775     -139300.94      195.32334      194.36266      880.76654    
     37500  -140057.59      812.52594     -139245.06      195.30764      194.34791      881.13755    
     37600  -139999.15      805.32717     -139193.82      195.2904       194.33198      881.50855    
     37700  -139945.45      806.36438     -139139.09      195.27131      194.3137       881.87956    
     37800  -139875.55      800.53174     -139075.02      195.25478      194.29731      882.25056    
     37900  -139821.47      814.63245     -139006.84      195.23956      194.28323      882.62157    
     38000  -139760.77      811.95106     -138948.82      195.22288      194.26637      882.99257    
     38100  -139702.49      807.2755      -138895.22      195.20518      194.24905      883.36358    
     38200  -139637.44      796.49543     -138840.95      195.18901      194.23292      883.73458    
     38300  -139583.35      798.24852     -138785.1       195.17373      194.21746      884.10559    
     38400  -139522.52      803.19946     -138719.32      195.15748      194.20111      884.47659    
     38500  -139460.81      808.39937     -138652.41      195.14088      194.18379      884.8476     
     38600  -139398.46      807.55752     -138590.9       195.12466      194.16695      885.21861    
     38700  -139344.1       808.51245     -138535.59      195.10978      194.1511       885.58961    
     38800  -139292.79      805.3981      -138487.39      195.09435      194.13457      885.96062    
     38900  -139228.88      797.5142      -138431.36      195.07865      194.11734      886.33162    
     39000  -139166.55      800.39425     -138366.16      195.0638       194.10106      886.70263    
     39100  -139113.11      809.64302     -138303.46      195.05003      194.08561      887.07363    
     39200  -139049.59      808.19112     -138241.4       195.03465      194.06874      887.44464    
     39300  -138985.07      805.34135     -138179.73      195.01917      194.05108      887.81564    
     39400  -138926.78      811.49023     -138115.29      195.00512      194.03493      888.18665    
     39500  -138862.59      813.7363      -138048.86      194.99159      194.01934      888.55765    
     39600  -138802.52      810.08005     -137992.44      194.9774       194.00246      888.92866    
     39700  -138750.45      804.68481     -137945.77      194.96187      193.98492      889.29966    
     39800  -138692.65      804.66547     -137887.99      194.94818      193.96811      889.67067    
     39900  -138629.03      805.56373     -137823.47      194.93503      193.95249      890.04167    
     40000  -138561.74      805.499       -137756.24      194.92081      193.93534      890.41268    
     40100  -138502.14      806.03502     -137696.11      194.90627      193.91801      890.78368    
     40200  -138445.33      805.91        -137639.42      194.89239      193.9014       891.15469    
     40300  -138386.71      805.12846     -137581.58      194.87928      193.88494      891.5257     
     40400  -138326.45      803.11488     -137523.34      194.86549      193.8689       891.8967     
     40500  -138271.1       808.37832     -137462.72      194.85121      193.85165      892.26771    
     40600  -138204.97      806.75407     -137398.22      194.83707      193.83498      892.63871    
     40700  -138138.84      808.98598     -137329.85      194.82432      193.81947      893.00972    
     40800  -138081.92      812.19961     -137269.72      194.8118       193.80386      893.38072    
     40900  -138027.24      804.31967     -137222.92      194.79736      193.78734      893.75173    
     41000  -137963.32      798.34348     -137164.98      194.7827       193.76937      894.12273    
     41100  -137905.43      804.35778     -137101.07      194.76951      193.7545       894.49374    
     41200  -137843.82      809.5141      -137034.31      194.75744      193.73932      894.86474    
     41300  -137773.83      804.08108     -136969.75      194.74224      193.7224       895.23575    
     41400  -137727.58      813.83001     -136913.75      194.72796      193.70571      895.60675    
     41500  -137668.18      801.92756     -136866.25      194.71548      193.69149      895.97776    
     41600  -137610.01      804.38842     -136805.62      194.70174      193.67621      896.34876    
     41700  -137541         805.24757     -136735.76      194.68656      193.65896      896.71977    
     41800  -137479.31      807.78939     -136671.52      194.67274      193.6441       897.09077    
     41900  -137420.97      809.97986     -136610.99      194.66001      193.62965      897.46178    
     42000  -137358.46      803.63314     -136554.83      194.6453       193.61383      897.83278    
     42100  -137303.31      797.16453     -136506.14      194.63053      193.59812      898.20379    
     42200  -137248.8       804.0945      -136444.7       194.61807      193.5843       898.5748     
     42300  -137180.48      805.39633     -136375.08      194.60483      193.57049      898.9458     
     42400  -137117.05      806.03134     -136311.02      194.59051      193.55494      899.31681    
     42500  -137055.31      805.95088     -136249.36      194.57624      193.54045      899.68781    
     42600  -136989.47      800.92818     -136188.54      194.56312      193.52679      900.05882    
     42700  -136939.38      811.3811      -136128         194.5488       193.5124       900.42982    
     42800  -136876.64      811.19287     -136065.45      194.53412      193.49762      900.80083    
     42900  -136810.83      808.8333      -136001.99      194.52071      193.48401      901.17183    
     43000  -136744.12      804.21522     -135939.9       194.50706      193.47093      901.54284    
     43100  -136690.36      810.61854     -135879.74      194.49257      193.45674      901.91384    
     43200  -136628.65      804.37787     -135824.27      194.47788      193.44297      902.28485    
     43300  -136569.52      800.74284     -135768.77      194.46422      193.42975      902.65585    
     43400  -136503.21      798.58137     -135704.63      194.45034      193.41715      903.02686    
     43500  -136436.34      804.9985      -135631.34      194.43607      193.40423      903.39786    
     43600  -136381.26      811.6195      -135569.64      194.42153      193.39115      903.76887    
     43700  -136323.55      809.14616     -135514.41      194.40776      193.37903      904.13987    
     43800  -136261.89      803.41834     -135458.48      194.39476      193.36743      904.51088    
     43900  -136198.88      802.0681      -135396.81      194.37997      193.35503      904.88189    
     44000  -136143.82      811.61141     -135332.21      194.36508      193.34177      905.25289    
     44100  -136076.19      807.33588     -135268.85      194.35119      193.33033      905.6239     
     44200  -136011.94      804.90349     -135207.04      194.33731      193.31889      905.9949     
     44300  -135951.79      806.9394      -135144.85      194.32212      193.30604      906.36591    
     44400  -135887.72      808.82108     -135078.9       194.30679      193.29385      906.73691    
     44500  -135825.52      814.56811     -135010.95      194.2938       193.28278      907.10792    
     44600  -135761.03      806.22937     -134954.8       194.27983      193.27206      907.47892    
     44700  -135708.76      806.63646     -134902.12      194.26446      193.25898      907.84993    
     44800  -135641.6       800.14091     -134841.45      194.24985      193.24723      908.22093    
     44900  -135580.81      802.79935     -134778.01      194.23725      193.23787      908.59194    
     45000  -135519.9       811.70344     -134708.19      194.22363      193.22615      908.96294    
     45100  -135456.98      818.85759     -134638.13      194.20717      193.21368      909.33395    
     45200  -135390.9       809.0753      -134581.82      194.19396      193.20221      909.70495    
     45300  -135335.51      806.71465     -134528.79      194.1815       193.19257      910.07596    
     45400  -135275.33      806.99506     -134468.33      194.16734      193.18074      910.44696    
     45500  -135217.2       812.51254     -134404.69      194.15211      193.16775      910.81797    
     45600  -135149.73      811.84678     -134337.88      194.13823      193.15702      911.18898    
     45700  -135081.59      812.3625      -134269.23      194.12623      193.14656      911.55998    
     45800  -135022.66      813.00919     -134209.65      194.11121      193.13487      911.93099    
     45900  -134967.88      809.2748      -134158.61      194.09607      193.12112      912.30199    
     46000  -134904.07      804.81559     -134099.25      194.08282      193.1105       912.673      
     46100  -134835.49      801.99983     -134033.49      194.07066      193.10033      913.044      
     46200  -134774.23      812.25026     -133961.98      194.05617      193.08724      913.41501    
     46300  -134709.62      813.76323     -133895.85      194.04241      193.07523      913.78601    
     46400  -134659.63      812.11744     -133847.51      194.03084      193.06492      914.15702    
     46500  -134593.61      803.27272     -133790.34      194.01802      193.0534       914.52802    
     46600  -134532.62      808.0901      -133724.53      194.00309      193.03985      914.89903    
     46700  -134467.59      814.35857     -133653.23      193.98986      193.02739      915.27003    
     46800  -134400.42      812.54362     -133587.87      193.97815      193.01699      915.64104    
     46900  -134341.32      808.37561     -133532.94      193.96437      193.00338      916.01204    
     47000  -134280.05      802.36735     -133477.69      193.94939      192.98932      916.38305    
     47100  -134214         801.61767     -133412.38      193.93805      192.97805      916.75405    
     47200  -134154.21      810.1561      -133344.06      193.92669      192.96695      917.12506    
     47300  -134085.13      808.00784     -133277.12      193.91244      192.95283      917.49606    
     47400  -134025.64      810.21956     -133215.42      193.8984       192.93784      917.86707    
     47500  -133964.75      800.50919     -133164.24      193.88719      192.92668      918.23808    
     47600  -133904.96      802.82115     -133102.14      193.8762       192.91423      918.60908    
     47700  -133841.44      808.99158     -133032.45      193.86132      192.89914      918.98009    
     47800  -133772.28      810.43439     -132961.85      193.84868      192.88474      919.35109    
     47900  -133709.37      808.72743     -132900.65      193.83931      192.87415      919.7221     
     48000  -133662.57      810.69149     -132851.88      193.82734      192.86077      920.0931     
     48100  -133589.71      800.75952     -132788.95      193.81303      192.84438      920.46411    
     48200  -133524.37      803.45427     -132720.91      193.80175      192.83197      920.83511    
     48300  -133462.24      810.56066     -132651.68      193.79302      192.82035      921.20612    
     48400  -133400.61      813.4581      -132587.15      193.77897      192.80485      921.57712    
     48500  -133340.62      806.57034     -132534.05      193.76499      192.78776      921.94813    
     48600  -133277.91      803.19439     -132474.72      193.75532      192.7763       922.31913    
     48700  -133213.74      806.77204     -132406.97      193.74622      192.76483      922.69014    
     48800  -133147.47      811.25873     -132336.21      193.73298      192.74908      923.06114    
     48900  -133076.47      807.20041     -132269.27      193.7195       192.73329      923.43215    
     49000  -133021.94      807.4416      -132214.5       193.71032      192.72154      923.80315    
     49100  -132961.99      803.39513     -132158.6       193.70036      192.70934      924.17416    
     49200  -132898.01      801.26131     -132096.75      193.68654      192.69284      924.54517    
     49300  -132832.72      798.76815     -132033.95      193.67482      192.67825      924.91617    
     49400  -132768.64      801.36404     -131967.28      193.66544      192.66595      925.28718    
     49500  -132705.83      810.28215     -131895.54      193.6547       192.65227      925.65818    
     49600  -132641.71      811.96357     -131829.75      193.64204      192.63652      926.02919    
     49700  -132579.61      803.30977     -131776.3       193.62972      192.62182      926.40019    
     49800  -132515.7       799.23215     -131716.47      193.62057      192.60936      926.7712     
     49900  -132457.25      806.46625     -131650.79      193.6102       192.59616      927.1422     
     50000  -132386.68      805.85446     -131580.82      193.59678      192.57994      927.51321    
     50100  -132322.22      813.46889     -131508.75      193.58492      192.56531      927.88421    
     50200  -132262.85      817.67421     -131445.18      193.57497      192.55301      928.25522    
     50300  -132201.76      807.82212     -131393.94      193.56487      192.53983      928.62622    
     50400  -132133.81      798.95251     -131334.86      193.55199      192.52521      928.99723    
     50500  -132078.54      804.76978     -131273.77      193.54018      192.51013      929.36823    
     50600  -132017.11      806.68864     -131210.42      193.52976      192.49814      929.73924    
     50700  -131944.78      800.96179     -131143.81      193.51929      192.48444      930.11024    
     50800  -131880.77      808.27009     -131072.5       193.50574      192.46956      930.48125    
     50900  -131823.77      818.83012     -131004.94      193.4937       192.45554      930.85226    
     51000  -131756.92      807.08052     -130949.84      193.48333      192.44338      931.22326    
     51100  -131695.02      805.17041     -130889.85      193.47103      192.42992      931.59427    
     51200  -131637.84      813.03001     -130824.81      193.45776      192.41501      931.96527    
     51300  -131574.21      813.16831     -130761.04      193.44533      192.40212      932.33628    
     51400  -131511.06      807.03188     -130704.02      193.43461      192.38997      932.70728    
     51500  -131440.26      796.93698     -130643.32      193.42139      192.37669      933.07829    
     51600  -131371.63      799.65279     -130571.98      193.40744      192.36226      933.44929    
     51700  -131311.27      813.62205     -130497.65      193.39523      192.34989      933.8203     
     51800  -131250.72      817.83632     -130432.89      193.38312      192.33817      934.1913     
     51900  -131186.61      814.05298     -130372.56      193.36957      192.3247       934.56231    
     52000  -131121.72      809.99804     -130311.72      193.3552       192.31146      934.93331    
     52100  -131057.29      804.95024     -130252.34      193.34236      192.29907      935.30432    
     52200  -130997.91      807.14752     -130190.77      193.32914      192.28708      935.67532    
     52300  -130933.48      808.33313     -130125.15      193.31537      192.27431      936.04633    
     52400  -130862.56      808.84434     -130053.72      193.30079      192.26137      936.41733    
     52500  -130791.55      810.06666     -129981.49      193.28725      192.24936      936.78834    
     52600  -130737.65      814.70879     -129922.94      193.27307      192.23719      937.15934    
     52700  -130674.3       808.74702     -129865.55      193.25799      192.22424      937.53035    
     52800  -130607.44      805.96567     -129801.48      193.2436       192.21202      937.90136    
     52900  -130544.31      807.17571     -129737.14      193.22909      192.19968      938.27236    
     53000  -130487.43      809.09347     -129678.34      193.21435      192.18717      938.64337    
     53100  -130414.6       796.96434     -129617.63      193.19974      192.17513      939.01437    
     53200  -130353.69      803.91582     -129549.77      193.1844       192.16247      939.38538    
     53300  -130284.75      814.11722     -129470.63      193.16919      192.15017      939.75638    
     53400  -130217.59      813.08645     -129404.51      193.15469      192.13882      940.12739    
     53500  -130158.45      810.3209      -129348.13      193.13972      192.1262       940.49839    
     53600  -130091.91      805.84835     -129286.06      193.1236       192.11369      940.8694     
     53700  -130027.28      802.87385     -129224.4       193.10848      192.10136      941.2404     
     53800  -129962.72      801.27498     -129161.45      193.09296      192.08902      941.61141    
     53900  -129903.74      804.82029     -129098.92      193.07738      192.07664      941.98241    
     54000  -129838.26      799.66164     -129038.59      193.06317      192.06514      942.35342    
     54100  -129781.18      797.08733     -128984.09      193.04746      192.05337      942.72442    
     54200  -129718.28      804.02823     -128914.26      193.03162      192.03958      943.09543    
     54300  -129644.73      806.41332     -128838.32      193.01553      192.02729      943.46643    
     54400  -129576.97      809.94637     -128767.03      192.99999      192.01442      943.83744    
     54500  -129516.06      813.90447     -128702.16      192.9844       192.00142      944.20845    
     54600  -129447.83      803.63472     -128644.2       192.96837      191.98852      944.57945    
     54700  -129385.79      808.34947     -128577.44      192.95394      191.9756       944.95046    
     54800  -129322.34      809.64155     -128512.69      192.93892      191.96386      945.32146    
     54900  -129255.75      803.30107     -128452.45      192.92355      191.95004      945.69247    
     55000  -129195.29      806.37286     -128388.91      192.908        191.93714      946.06347    
     55100  -129128.49      809.00479     -128319.48      192.8931       191.92442      946.43448    
     55200  -129062.58      811.48078     -128251.1       192.87769      191.91066      946.80548    
     55300  -129001.92      813.88626     -128188.03      192.86173      191.89634      947.17649    
     55400  -128930.55      801.66525     -128128.88      192.8477       191.88376      947.54749    
     55500  -128870.65      811.02306     -128059.63      192.83267      191.87027      947.9185     
     55600  -128798.67      807.25725     -127991.42      192.81686      191.85566      948.2895     
     55700  -128731.83      803.34281     -127928.49      192.80217      191.84166      948.66051    
     55800  -128674.63      807.76801     -127866.87      192.78749      191.82841      949.03151    
     55900  -128612.75      812.38117     -127800.37      192.77266      191.81378      949.40252    
     56000  -128542.95      810.04433     -127732.91      192.75781      191.79984      949.77352    
     56100  -128475.76      809.51181     -127666.25      192.74363      191.78595      950.14453    
     56200  -128405.21      806.4687      -127598.74      192.7292       191.77104      950.51553    
     56300  -128342.46      809.1095      -127533.35      192.71461      191.75697      950.88654    
     56400  -128275.78      804.80584     -127470.97      192.70105      191.74274      951.25755    
     56500  -128215.4       810.10989     -127405.29      192.68639      191.72768      951.62855    
     56600  -128145.36      807.48294     -127337.88      192.67148      191.71186      951.99956    
     56700  -128077.03      805.47509     -127271.56      192.65737      191.69719      952.37056    
     56800  -128017.44      810.33314     -127207.11      192.64499      191.68372      952.74157    
     56900  -127949.29      808.62607     -127140.66      192.63132      191.6684       953.11257    
     57000  -127887.54      812.68076     -127074.85      192.61495      191.65119      953.48358    
     57100  -127818.38      806.97251     -127011.41      192.60097      191.63468      953.85458    
     57200  -127759.43      813.12652     -126946.31      192.58806      191.62085      954.22559    
     57300  -127687.85      809.27217     -126878.58      192.57429      191.60499      954.59659    
     57400  -127618.54      807.02674     -126811.52      192.5597       191.58792      954.9676     
     57500  -127555.13      811.50336     -126743.62      192.54552      191.57275      955.3386     
     57600  -127487.46      811.37414     -126676.09      192.53321      191.55713      955.70961    
     57700  -127422.74      811.04099     -126611.7       192.5184       191.54142      956.08061    
     57800  -127349.53      803.16098     -126546.37      192.50448      191.52399      956.45162    
     57900  -127289.89      810.24624     -126479.64      192.49072      191.50842      956.82262    
     58000  -127219.88      805.59036     -126414.29      192.47716      191.49253      957.19363    
     58100  -127151.66      804.49769     -126347.16      192.46255      191.47517      957.56464    
     58200  -127087.11      808.34265     -126278.77      192.44774      191.45855      957.93564    
     58300  -127024.57      811.67515     -126212.89      192.43561      191.44259      958.30665    
     58400  -126959.41      812.33142     -126147.08      192.42056      191.42632      958.67765    
     58500  -126887.36      807.67034     -126079.69      192.40529      191.4076       959.04866    
     58600  -126820.53      807.73909     -126012.79      192.39195      191.39177      959.41966    
     58700  -126755.24      808.58462     -125946.66      192.37934      191.37677      959.79067    
     58800  -126687.83      808.71198     -125879.12      192.36399      191.35811      960.16167    
     58900  -126626.36      815.36653     -125810.99      192.34678      191.33978      960.53268    
     59000  -126551.19      806.12953     -125745.06      192.3346       191.3243       960.90368    
     59100  -126486.94      808.10791     -125678.83      192.32128      191.3089       961.27469    
     59200  -126419.22      808.59874     -125610.62      192.30411      191.29008      961.64569    
     59300  -126357.5       813.55381     -125543.95      192.2895       191.27236      962.0167     
     59400  -126285.18      808.19174     -125476.99      192.27659      191.25812      962.3877     
     59500  -126221.42      812.19616     -125409.22      192.26175      191.24067      962.75871    
     59600  -126153.77      812.20968     -125341.56      192.24489      191.22225      963.12971    
     59700  -126079.63      806.53909     -125273.09      192.2305       191.20603      963.50072    
     59800  -126016.82      811.63641     -125205.18      192.21685      191.19002      963.87173    
     59900  -125947.58      810.99114     -125136.59      192.20072      191.17314      964.24273    
     60000  -125882.45      814.0346      -125068.42      192.18446      191.1547       964.61374    
     60100  -125812.02      811.64869     -125000.37      192.16942      191.13844      964.98474    
     60200  -125742.17      810.21874     -124931.95      192.15472      191.12242      965.35575    
     60300  -125674.37      811.90589     -124862.47      192.13934      191.10539      965.72675    
     60400  -125609.26      814.23414     -124795.03      192.1232       191.08881      966.09776    
     60500  -125536.24      809.70156     -124726.54      192.10807      191.07231      966.46876    
     60600  -125464.35      806.26508     -124658.09      192.09296      191.05684      966.83977    
     60700  -125397.68      807.56381     -124590.11      192.0762       191.0399       967.21077    
     60800  -125325.38      804.62789     -124520.75      192.05958      191.02232      967.58178    
     60900  -125258.49      807.15737     -124451.34      192.04415      191.00729      967.95278    
     61000  -125195.65      813.5138      -124382.13      192.02847      190.9914       968.32379    
     61100  -125121.5       809.19101     -124312.31      192.01105      190.9739       968.69479    
     61200  -125049.96      808.54457     -124241.41      191.99444      190.95808      969.0658     
     61300  -124980.77      809.03581     -124171.74      191.97958      190.94312      969.4368     
     61400  -124911.35      809.63948     -124101.71      191.96341      190.92792      969.80781    
     61500  -124839.72      807.71487     -124032         191.94506      190.91051      970.17881    
     61600  -124770.42      809.26824     -123961.15      191.92785      190.89361      970.54982    
     61700  -124702.82      811.69567     -123891.13      191.91279      190.87991      970.92083    
     61800  -124641.2       820.36673     -123820.84      191.89637      190.86417      971.29183    
     61900  -124558.32      808.26028     -123750.06      191.8769       190.84597      971.66284    
     62000  -124491.63      813.02532     -123678.61      191.8597       190.83051      972.03384    
     62100  -124419.15      812.11974     -123607.03      191.8458       190.81705      972.40485    
     62200  -124347.26      811.00209     -123536.26      191.82802      190.80163      972.77585    
     62300  -124275.59      811.80427     -123463.79      191.80854      190.78333      973.14686    
     62400  -124203.43      811.76825     -123391.66      191.79244      190.76894      973.51786    
     62500  -124132.78      811.97774     -123320.81      191.77747      190.75664      973.88887    
     62600  -124053.57      805.43667     -123248.14      191.75816      190.73861      974.25987    
     62700  -123983.21      807.51545     -123175.7       191.73805      190.72129      974.63088    
     62800  -123913.36      810.30426     -123103.06      191.72382      190.70914      975.00188    
     62900  -123843.6       813.12829     -123030.47      191.70787      190.69456      975.37289    
     63000  -123764.58      806.07146     -122958.51      191.68607      190.67615      975.74389    
     63100  -123696.11      811.8338      -122884.28      191.66928      190.66041      976.1149     
     63200  -123621.62      810.5667      -122811.05      191.65476      190.64819      976.4859     
     63300  -123553.87      815.95534     -122737.92      191.63553      190.63177      976.85691    
     63400  -123471.18      807.14276     -122664.03      191.61625      190.61359      977.22792    
     63500  -123397.07      807.72281     -122589.35      191.60023      190.60032      977.59892    
     63600  -123328.28      813.08154     -122515.2       191.58346      190.58568      977.96993    
     63700  -123254.24      813.59896     -122440.64      191.56342      190.56737      978.34093    
     63800  -123174.02      808.99894     -122365.02      191.5457       190.55287      978.71194    
     63900  -123104.78      815.60035     -122289.18      191.53059      190.53933      979.08294    
     64000  -123027.33      812.048       -122215.28      191.51182      190.52315      979.45395    
     64100  -122950.93      811.66693     -122139.26      191.49198      190.50572      979.82495    
     64200  -122882.27      817.64878     -122064.62      191.47551      190.49109      980.19596    
     64300  -122801.43      812.27751     -121989.15      191.4591       190.47711      980.56696    
     64400  -122724.09      810.49941     -121913.59      191.43964      190.45943      980.93797    
     64500  -122650.08      813.05801     -121837.02      191.42079      190.44207      981.30897    
     64600  -122571.81      811.9869      -121759.82      191.40519      190.42875      981.67998    
     64700  -122494.28      811.43076     -121682.85      191.38812      190.41303      982.05098    
     64800  -122415.73      809.73776     -121606         191.36699      190.39333      982.42199    
     64900  -122333.42      807.13039     -121526.29      191.34963      190.37789      982.79299    
     65000  -122260.37      812.73722     -121447.63      191.33558      190.3643       983.164      
     65100  -122179.7       810.64432     -121369.06      191.31577      190.34637      983.53501    
     65200  -122105.02      814.71096     -121290.31      191.29644      190.32791      983.90601    
     65300  -122019.63      808.6923      -121210.94      191.28195      190.31421      984.27702    
     65400  -121948.09      815.38632     -121132.7       191.26491      190.29838      984.64802    
     65500  -121861.16      807.47585     -121053.68      191.24566      190.27923      985.01903    
     65600  -121783.82      810.52724     -120973.29      191.22827      190.26282      985.39003    
     65700  -121702.82      809.50959     -120893.31      191.21351      190.24851      985.76104    
     65800  -121627.1       814.33834     -120812.76      191.19552      190.23038      986.13204    
     65900  -121545.95      814.47334     -120731.48      191.17617      190.21165      986.50305    
     66000  -121461.92      811.72386     -120650.2       191.16166      190.19658      986.87405    
     66100  -121386.89      819.08932     -120567.8       191.14575      190.18113      987.24506    
     66200  -121308.66      820.76613     -120487.89      191.12633      190.16147      987.61606    
     66300  -121219.03      814.99963     -120404.03      191.10901      190.14355      987.98707    
     66400  -121136.02      814.6446      -120321.37      191.0943       190.12906      988.35807    
     66500  -121047.83      809.2746      -120238.55      191.07701      190.11069      988.72908    
     66600  -120968.6       814.66636     -120153.93      191.05838      190.09171      989.10008    
     66700  -120880.78      812.56069     -120068.22      191.04307      190.07574      989.47109    
     66800  -120800.8       815.3744      -119985.42      191.02834      190.05972      989.84209    
     66900  -120717.23      816.34787     -119900.88      191.01037      190.04118      990.2131     
     67000  -120632.51      815.06656     -119817.44      190.99369      190.02269      990.58411    
     67100  -120545.35      813.41237     -119731.93      190.97781      190.00583      990.95511    
     67200  -120460.91      813.30923     -119647.6       190.96226      189.98919      991.32612    
     67300  -120371.63      810.6364      -119560.99      190.94485      189.97005      991.69712    
     67400  -120286.16      812.41383     -119473.74      190.92818      189.95193      992.06813    
     67500  -120202.09      814.58126     -119387.51      190.91411      189.93618      992.43913    
     67600  -120121.06      818.77434     -119302.28      190.89722      189.91764      992.81014    
     67700  -120029.46      816.37805     -119213.08      190.87985      189.89872      993.18114    
     67800  -119937.14      813.26999     -119123.87      190.86505      189.8822       993.55215    
     67900  -119852.9       818.08498     -119034.81      190.84961      189.86486      993.92315    
     68000  -119766.24      819.56754     -118946.67      190.83249      189.84623      994.29416    
     68100  -119672.02      812.95452     -118859.07      190.81678      189.82872      994.66516    
     68200  -119585.51      815.74711     -118769.76      190.80116      189.81146      995.03617    
     68300  -119488.71      808.75023     -118679.95      190.78426      189.7929       995.40717    
     68400  -119408.59      817.30652     -118591.28      190.7679       189.77485      995.77818    
     68500  -119317.94      818.25822     -118499.68      190.75231      189.75787      996.14918    
     68600  -119226.84      818.48432     -118408.36      190.73652      189.73992      996.52019    
     68700  -119131.57      812.8051      -118318.76      190.71942      189.7211       996.8912     
     68800  -119043.41      817.63786     -118225.77      190.70308      189.70366      997.2622     
     68900  -118954.69      820.01057     -118134.68      190.68846      189.68706      997.63321    
     69000  -118856.48      816.30533     -118040.17      190.67068      189.66786      998.00421    
     69100  -118767.69      819.04063     -117948.65      190.65337      189.64916      998.37522    
     69200  -118670.69      815.67457     -117855.02      190.63863      189.63265      998.74622    
     69300  -118572.56      810.38464     -117762.18      190.62167      189.61466      999.11723    
     69400  -118479.46      811.81341     -117667.65      190.60418      189.59577      999.48823    
     69500  -118395.71      823.14906     -117572.56      190.58759      189.57785      999.85924    
     69600  -118295.14      819.31118     -117475.83      190.5714       189.56091      1000.2302    
     69700  -118199.84      818.92154     -117380.92      190.55477      189.54291      1000.6012    
     69800  -118100.41      815.73555     -117284.67      190.5374       189.52473      1000.9723    
     69900  -118013.13      826.63684     -117186.49      190.52078      189.50732      1001.3433    
     70000  -117913.41      823.8505      -117089.56      190.50373      189.48957      1001.7143    
     70100  -117810.28      819.98761     -116990.29      190.4862       189.47103      1002.0853    
     70200  -117717.76      822.64382     -116895.12      190.46923      189.45354      1002.4563    
     70300  -117623.34      825.20152     -116798.14      190.45269      189.43649      1002.8273    
     70400  -117517.61      817.62016     -116699.99      190.43463      189.41768      1003.1983    
     70500  -117426.1       823.33685     -116602.76      190.41727      189.40018      1003.5693    
     70600  -117328.28      824.49024     -116503.79      190.40098      189.3833       1003.9403    
     70700  -117233.68      828.11428     -116405.56      190.3831       189.36519      1004.3113    
     70800  -117131.29      825.46522     -116305.82      190.36481      189.34693      1004.6823    
     70900  -117031.78      826.59979     -116205.18      190.3481       189.3301       1005.0533    
     71000  -116929.52      828.85191     -116100.67      190.33082      189.31289      1005.4243    
     71100  -116825.8       828.44417     -115997.36      190.31202      189.29434      1005.7953    
     71200  -116723.88      827.22863     -115896.65      190.29402      189.27636      1006.1663    
     71300  -116624.12      831.7162      -115792.4       190.27738      189.25996      1006.5373    
     71400  -116523.38      829.66043     -115693.72      190.25951      189.24237      1006.9083    
     71500  -116424.68      832.31809     -115592.36      190.24087      189.22416      1007.2793    
     71600  -116320.5       835.68877     -115484.81      190.22326      189.20677      1007.6503    
     71700  -116216.25      832.52571     -115383.73      190.20559      189.18966      1008.0214    
     71800  -116116.85      838.05309     -115278.8       190.18714      189.17185      1008.3924    
     71900  -116009.12      833.65751     -115175.46      190.16871      189.15386      1008.7634    
     72000  -115913.67      842.78557     -115070.88      190.1508       189.13677      1009.1344    
     72100  -115807.49      842.69987     -114964.79      190.13247      189.11929      1009.5054    
     72200  -115689.69      832.86754     -114856.82      190.11394      189.1013       1009.8764    
     72300  -115587.72      837.75847     -114749.97      190.09529      189.0838       1010.2474    
     72400  -115482.18      837.57187     -114644.61      190.07749      189.06643      1010.6184    
     72500  -115378.92      843.13147     -114535.79      190.05881      189.04882      1010.9894    
     72600  -115270.93      841.99872     -114428.93      190.04003      189.03077      1011.3604    
     72700  -115160.7       845.94521     -114314.76      190.02131      189.01329      1011.7314    
     72800  -115050.24      845.64698     -114204.59      190.00338      188.99619      1012.1024    
     72900  -114942.21      847.23088     -114094.97      189.98443      188.97822      1012.4734    
     73000  -114832.49      848.75346     -113983.74      189.96525      188.96023      1012.8444    
     73100  -114728.97      854.54763     -113874.43      189.9471       188.94277      1013.2154    
     73200  -114613.26      854.23747     -113759.02      189.92798      188.92516      1013.5864    
     73300  -114501.29      852.81341     -113648.48      189.90842      188.90651      1013.9574    
     73400  -114392.59      857.66658     -113534.93      189.88955      188.88862      1014.3284    
     73500  -114286.33      863.19475     -113423.13      189.87117      188.87164      1014.6994    
     73600  -114174.97      868.39525     -113306.58      189.85206      188.85313      1015.0705    
     73700  -114064.86      869.97461     -113194.88      189.83201      188.83469      1015.4415    
     73800  -113945.97      865.34738     -113080.63      189.81331      188.81687      1015.8125    
     73900  -113830.66      864.97057     -112965.69      189.79481      188.7993       1016.1835    
     74000  -113733.07      878.09757     -112854.97      189.77456      188.78066      1016.5545    
     74100  -113617.26      874.3243      -112742.94      189.75519      188.76169      1016.9255    
     74200  -113494.84      869.69719     -112625.14      189.73629      188.74434      1017.2965    
     74300  -113384.6       881.41437     -112503.18      189.71672      188.72575      1017.6675    
     74400  -113263.7       882.79958     -112380.9       189.6966       188.70643      1018.0385    
     74500  -113146.84      889.50827     -112257.33      189.67712      188.6886       1018.4095    
     74600  -113031.92      892.67578     -112139.24      189.6584       188.67034      1018.7805    
     74700  -112905.28      891.77978     -112013.5       189.63778      188.65105      1019.1515    
     74800  -112787.01      906.34561     -111880.66      189.6177       188.63217      1019.5225    
     74900  -112665.39      903.00166     -111762.38      189.59897      188.61393      1019.8935    
     75000  -112553.09      915.64753     -111637.45      189.57894      188.59545      1020.2645    
     75100  -112437.5       918.8144      -111518.68      189.55837      188.57548      1020.6355    
     75200  -112315.91      920.13922     -111395.77      189.53871      188.55678      1021.0065    
     75300  -112196.03      933.64566     -111262.39      189.5193       188.53855      1021.3775    
     75400  -112061.38      922.99588     -111138.39      189.49894      188.51856      1021.7485    
     75500  -111947.11      939.65439     -111007.46      189.47796      188.49899      1022.1196    
     75600  -111825.71      945.32097     -110880.39      189.45889      188.4803       1022.4906    
     75700  -111692.66      946.0275      -110746.63      189.43898      188.46138      1022.8616    
     75800  -111570.59      955.58444     -110615.01      189.41768      188.44102      1023.2326    
     75900  -111443.03      957.54964     -110485.48      189.39746      188.4211       1023.6036    
     76000  -111322.59      968.13916     -110354.45      189.37792      188.4028       1023.9746    
     76100  -111194.37      972.08714     -110222.29      189.35782      188.38294      1024.3456    
     76200  -111067.73      975.41651     -110092.32      189.33629      188.36234      1024.7166    
     76300  -110936.39      977.97881     -109958.41      189.31584      188.34266      1025.0876    
     76400  -110814.73      982.19667     -109832.54      189.29632      188.32329      1025.4586    
     76500  -110679.39      979.92777     -109699.46      189.27517      188.30316      1025.8296    
     76600  -110560.94      993.81515     -109567.12      189.25395      188.28221      1026.2006    
     76700  -110434.37      1006.5182     -109427.85      189.23405      188.26282      1026.5716    
     76800  -110309.96      1012.2948     -109297.66      189.2136       188.24311      1026.9426    
     76900  -110159.31      1007.6444     -109151.67      189.19189      188.22149      1027.3136    
     77000  -110046.19      1034.1496     -109012.04      189.17055      188.20098      1027.6846    
     77100  -109908.9       1035.5381     -108873.37      189.15077      188.18146      1028.0556    
     77200  -109769.99      1031.426      -108738.57      189.12988      188.16089      1028.4266    
     77300  -109629.15      1041.7999     -108587.35      189.1077       188.13936      1028.7976    
     77400  -109492.96      1053.9257     -108439.04      189.08717      188.11885      1029.1687    
     77500  -109343.91      1048.8656     -108295.05      189.06677      188.09908      1029.5397    
     77600  -109235.61      1088.3867     -108147.22      189.04498      188.07748      1029.9107    
     77700  -109232.44      1212.2328     -108020.2       189.02312      188.05581      1030.2817    
     77800  -109691.99      1667.8714     -108024.12      189.0037       188.03688      1030.6527    
     77900  -110968.59      2521.8992     -108446.69      188.98839      188.02099      1031.0237    
     78000  -113121.64      3509.9038     -109611.74      188.97907      188.01183      1031.3947    
     78100  -116239.25      4402.2246     -111837.03      188.97853      188.0139       1031.7657    
     78200  -120026.05      4882.1813     -115143.87      188.99742      188.0342       1032.1367    
     78300  -123780.03      4754.668      -119025.36      189.04502      188.08023      1032.5077    
     78400  -127058.25      4216.8841     -122841.36      189.11406      188.14804      1032.8787    
     78500  -129658.61      3563.6425     -126094.97      189.19665      188.23111      1033.2497    
     78600  -131772.9       3032.5769     -128740.32      189.27881      188.3125       1033.6207    
     78700  -133666.41      2709.8629     -130956.54      189.34064      188.37235      1033.9917    
     78800  -135366.53      2471.0333     -132895.5       189.39372      188.42758      1034.3627    
     78900  -136887.39      2268.1482     -134619.24      189.45759      188.49263      1034.7337    
     79000  -138259.99      2098.5542     -136161.43      189.52219      188.558        1035.1047    
     79100  -139503.2       1953.6776     -137549.52      189.58497      188.62204      1035.4757    
     79200  -140649.87      1839.3835     -138810.48      189.64718      188.68603      1035.8468    
     79300  -141708.81      1741.3202     -139967.49      189.70556      188.74621      1036.2178    
     79400  -142683.63      1647.911      -141035.72      189.76064      188.80279      1036.5888    
     79500  -143534.45      1535.1495     -141999.3       189.81419      188.85678      1036.9598    
     79600  -144293         1434.8439     -142858.16      189.86529      188.90844      1037.3308    
     79700  -144969.72      1345.6366     -143624.08      189.91229      188.95586      1037.7018    
     79800  -145578.23      1268.3698     -144309.86      189.95761      189.00165      1038.0728    
     79900  -146125.24      1199.7909     -144925.45      190.00403      189.04877      1038.4438    
     80000  -146620.33      1140.6978     -145479.63      190.04903      189.09485      1038.8148    
     80100  -147080.41      1097.4723     -145982.94      190.09091      189.13792      1039.1858    
     80200  -147520.14      1069.6262     -146450.51      190.12951      189.17731      1039.5568    
     80300  -147950.01      1054.0545     -146895.95      190.16607      189.21428      1039.9278    
     80400  -148367.63      1040.6485     -147326.98      190.19967      189.24813      1040.2988    
     80500  -148785.27      1035.6683     -147749.61      190.23054      189.27953      1040.6698    
     80600  -149203.92      1034.8233     -148169.1       190.26         189.30987      1041.0408    
     80700  -149616.63      1029.9096     -148586.72      190.28721      189.33829      1041.4118    
     80800  -150025.44      1024.999      -149000.44      190.31222      189.36491      1041.7828    
     80900  -150426.14      1017.743      -149408.39      190.3359       189.39033      1042.1538    
     81000  -150819.92      1010.7335     -149809.19      190.35776      189.41396      1042.5248    
     81100  -151163.37      972.40795     -150190.96      190.37801      189.4362       1042.8959    
     81200  -151469.6       935.72845     -150533.87      190.39882      189.45921      1043.2669    
     81300  -151741.75      903.84851     -150837.91      190.41958      189.48234      1043.6379    
     81400  -151983.84      877.01748     -151106.83      190.43907      189.50425      1044.0089    
     81500  -152198.13      854.74775     -151343.38      190.45878      189.52645      1044.3799    
     81600  -152383.51      834.66087     -151548.85      190.47963      189.5497       1044.7509    
     81700  -152541.67      818.17124     -151723.5       190.50035      189.57278      1045.1219    
     81800  -152671.15      804.42942     -151866.72      190.52121      189.59597      1045.4929    
     81900  -152770.54      793.94101     -151976.59      190.54377      189.62073      1045.8639    
     82000  -152836.64      786.7162      -152049.92      190.56759      189.64671      1046.2349    
     82100  -152865.23      782.56935     -152082.66      190.59202      189.67329      1046.6059    
     82200  -152854.3       783.45031     -152070.85      190.61696      189.70026      1046.9769    
     82300  -152813.52      795.399       -152018.12      190.638        189.72282      1047.3479    
     82400  -152733.6       788.95914     -151944.64      190.65484      189.7405       1047.7189    
     82500  -152606.09      760.37785     -151845.72      190.67167      189.75803      1048.0899    
     82600  -152427.6       729.59069     -151698.01      190.68925      189.77601      1048.4609    
     82700  -152194.94      687.61462     -151507.33      190.70421      189.79126      1048.8319    
     82800  -152056.44      766.68761     -151289.75      190.71867      189.80585      1049.2029    
     82900  -151999.64      894.49294     -151105.15      190.72493      189.81319      1049.5739    
     83000  -151992.93      908.93734     -151083.99      190.72024      189.80912      1049.945     
     83100  -152045.54      800.75605     -151244.78      190.68885      189.78044      1050.316     
     83200  -152030.75      693.7368      -151337.01      190.67231      189.7639       1050.687     
     83300  -151997.52      744.72108     -151252.8       190.67899      189.77207      1051.058     
     83400  -151897.57      812.21728     -151085.36      190.68628      189.78282      1051.429     
     83500  -151839.27      873.23942     -150966.03      190.67487      189.77577      1051.8       
     83600  -151822.98      849.67887     -150973.3       190.65974      189.76213      1052.171     
     83700  -151885.54      823.33843     -151062.2       190.66359      189.76584      1052.542     
     83800  -151943.45      774.65829     -151168.79      190.6799       189.78135      1052.913     
     83900  -151940.82      734.81805     -151206         190.69887      189.80138      1053.284     
     84000  -151881.26      756.85989     -151124.4       190.70959      189.81537      1053.655     
     84100  -151824.63      842.74003     -150981.89      190.71226      189.81501      1054.026     
     84200  -151804.87      887.04034     -150917.83      190.70591      189.81129      1054.397     
     84300  -151830.77      828.09414     -151002.68      190.70902      189.8142       1054.768     
     84400  -151851.08      754.35774     -151096.72      190.72273      189.81991      1055.139     
     84500  -151845.38      759.28347     -151086.09      190.73688      189.82492      1055.51      
     84600  -151823.21      823.513       -150999.69      190.7552       189.83145      1055.881     
     84700  -151821.15      874.29264     -150946.86      190.77728      189.83529      1056.252     
     84800  -151848.07      844.37535     -151003.69      190.79857      189.8457       1056.623     
     84900  -151880.33      771.87558     -151108.46      190.8081       189.85081      1056.9941    
     85000  -151890.91      748.98929     -151141.92      190.81995      189.85621      1057.3651    
     85100  -151870.19      794.15582     -151076.04      190.83072      189.86203      1057.7361    
     85200  -151816.75      832.94184     -150983.8       190.84815      189.87091      1058.1071    
     85300  -151781.17      838.75711     -150942.41      190.86778      189.87876      1058.4781    
     85400  -151784.13      814.08634     -150970.05      190.88589      189.88425      1058.8491    
     85500  -151806.26      795.28609     -151010.98      190.90212      189.88738      1059.2201    
     85600  -151799.43      781.94791     -151017.48      190.91497      189.8918       1059.5911    
     85700  -151793.15      801.76814     -150991.38      190.93618      189.89897      1059.9621    
     85800  -151776.18      808.34022     -150967.84      190.96555      189.90311      1060.3331    
     85900  -151786.58      828.43593     -150958.14      190.99027      189.9104       1060.7041    
     86000  -151788.62      811.51066     -150977.11      191.01259      189.91632      1061.0751    
     86100  -151795.81      790.53946     -151005.28      191.04092      189.91859      1061.4461    
     86200  -151790.66      786.93779     -151003.72      191.06393      189.92485      1061.8171    
     86300  -151775.71      805.5905      -150970.12      191.0892       189.93115      1062.1881    
     86400  -151762.19      827.52129     -150934.67      191.1257       189.93119      1062.5591    
     86500  -151764.36      828.80981     -150935.55      191.16666      189.92914      1062.9301    
     86600  -151771.31      803.00098     -150968.31      191.21315      189.93393      1063.3011    
     86700  -151775.5       782.04846     -150993.45      191.25865      189.94199      1063.6721    
     86800  -151780.53      798.34224     -150982.19      191.30502      189.94744      1064.0432    
     86900  -151773.05      817.14065     -150955.91      191.35732      189.95856      1064.4142    
     87000  -151778.75      827.07743     -150951.67      191.40725      189.97226      1064.7852    
     87100  -151805.87      813.11227     -150992.76      191.45372      189.98265      1065.1562    
     87200  -151829.79      791.94519     -151037.85      191.49776      189.99683      1065.5272    
     87300  -151839.79      788.23079     -151051.56      191.54091      190.01212      1065.8982    
     87400  -151842.76      812.22173     -151030.54      191.58487      190.02451      1066.2692    
     87500  -151828.19      821.3064      -151006.88      191.62601      190.03878      1066.6402    
     87600  -151821.12      814.3415      -151006.78      191.67027      190.05395      1067.0112    
     87700  -151813.32      799.06962     -151014.25      191.71624      190.07342      1067.3822    
     87800  -151805.81      798.09574     -151007.71      191.75645      190.0884       1067.7532    
     87900  -151798.52      815.82387     -150982.7       191.79573      190.0993       1068.1242    
     88000  -151789.3       825.5224      -150963.77      191.8349       190.11413      1068.4952    
     88100  -151802.48      827.41855     -150975.06      191.87741      190.13497      1068.8662    
     88200  -151824.15      806.41739     -151017.74      191.91508      190.15052      1069.2372    
     88300  -151843.08      792.59993     -151050.48      191.94812      190.16857      1069.6082    
     88400  -151843.32      789.25654     -151054.07      191.97403      190.18447      1069.9792    
     88500  -151824.35      798.27101     -151026.08      191.99059      190.20205      1070.3502    
     88600  -151811.33      823.08586     -150988.24      192.01188      190.22666      1070.7212    
     88700  -151803.14      829.55643     -150973.58      192.02377      190.23975      1071.0923    
     88800  -151832.33      825.42685     -151006.9       192.03245      190.25403      1071.4633    
     88900  -151850.47      787.16737     -151063.3       192.04196      190.26802      1071.8343    
     89000  -151862.27      777.72036     -151084.55      192.05         190.27625      1072.2053    
     89100  -151846.97      793.01076     -151053.96      192.06001      190.28585      1072.5763    
     89200  -151817.42      823.00563     -150994.42      192.0687       190.29344      1072.9473    
     89300  -151801.55      840.49121     -150961.06      192.08102      190.29854      1073.3183    
     89400  -151826.66      821.84657     -151004.82      192.10424      190.31049      1073.6893    
     89500  -151860.24      787.64113     -151072.6       192.12339      190.31638      1074.0603    
     89600  -151875.77      769.21554     -151106.56      192.13445      190.31764      1074.4313    
     89700  -151870.7       791.77512     -151078.92      192.15326      190.32767      1074.8023    
     89800  -151848.52      827.61154     -151020.91      192.16979      190.33296      1075.1733    
     89900  -151848.53      845.04896     -151003.48      192.1765       190.3351       1075.5443    
     90000  -151848.44      807.46157     -151040.98      192.18166      190.33768      1075.9153    
     90100  -151877.4       792.14386     -151085.25      192.18569      190.33378      1076.2863    
     90200  -151875.8       784.28895     -151091.51      192.18534      190.33624      1076.6573    
     90300  -151862.32      804.62757     -151057.69      192.18461      190.34574      1077.0283    
     90400  -151842.6       828.96136     -151013.64      192.17909      190.34823      1077.3993    
     90500  -151828.89      830.5419      -150998.35      192.16737      190.35331      1077.7703    
     90600  -151832.61      809.22557     -151023.39      192.15571      190.35946      1078.1414    
     90700  -151846.69      787.62613     -151059.07      192.14069      190.36469      1078.5124    
     90800  -151849.51      785.69291     -151063.82      192.12808      190.37048      1078.8834    
     90900  -151836.84      800.16916     -151036.68      192.1194       190.37857      1079.2544    
     91000  -151827.93      824.32832     -151003.61      192.10147      190.38715      1079.6254    
     91100  -151832.91      828.07393     -151004.84      192.0793       190.39662      1079.9964    
     91200  -151852.89      810.00244     -151042.89      192.05832      190.40382      1080.3674    
     91300  -151860.62      785.46579     -151075.16      192.02965      190.40401      1080.7384    
     91400  -151860.27      790.00051     -151070.27      192.00059      190.40306      1081.1094    
     91500  -151842.81      809.49662     -151033.31      191.97646      190.40664      1081.4804    
     91600  -151831.28      829.84486     -151001.43      191.94814      190.40787      1081.8514    
     91700  -151826.05      817.57404     -151008.48      191.92312      190.4072       1082.2224    
     91800  -151849.44      805.70019     -151043.74      191.89956      190.40638      1082.5934    
     91900  -151867.67      794.03266     -151073.64      191.87816      190.39992      1082.9644    
     92000  -151878.09      800.96285     -151077.12      191.85646      190.39168      1083.3354    
     92100  -151867.08      805.73087     -151061.35      191.82917      190.3841       1083.7064    
     92200  -151867.98      817.85858     -151050.12      191.79946      190.37385      1084.0774    
     92300  -151871.52      810.48537     -151061.03      191.76484      190.36356      1084.4484    
     92400  -151887.84      804.31294     -151083.53      191.7276       190.35426      1084.8194    
     92500  -151882.42      785.87812     -151096.54      191.68415      190.3442       1085.1905    
     92600  -151888.21      801.83296     -151086.37      191.63717      190.33384      1085.5615    
     92700  -151881.46      816.80608     -151064.65      191.58898      190.33021      1085.9325    
     92800  -151874.54      819.22881     -151055.31      191.53878      190.32499      1086.3035    
     92900  -151884.11      811.82554     -151072.28      191.49688      190.31742      1086.6745    
     93000  -151904.77      799.50413     -151105.27      191.46155      190.30402      1087.0455    
     93100  -151920.68      794.52566     -151126.16      191.43144      190.29184      1087.4165    
     93200  -151922.11      800.10685     -151122         191.40539      190.28744      1087.7875    
     93300  -151919.18      816.62819     -151102.55      191.37874      190.27745      1088.1585    
     93400  -151918.98      826.35503     -151092.63      191.35514      190.26188      1088.5295    
     93500  -151920.66      810.6678      -151109.99      191.33864      190.24858      1088.9005    
     93600  -151934.04      798.09445     -151135.94      191.32664      190.23693      1089.2715    
     93700  -151934.41      789.07045     -151145.34      191.31282      190.2232       1089.6425    
     93800  -151939.76      807.97151     -151131.78      191.29472      190.20965      1090.0135    
     93900  -151934.82      821.67539     -151113.15      191.27325      190.1987       1090.3845    
     94000  -151934.87      819.86805     -151115         191.24874      190.18945      1090.7555    
     94100  -151939.93      801.27165     -151138.65      191.22325      190.18134      1091.1265    
     94200  -151962.06      801.34889     -151160.71      191.19476      190.16834      1091.4975    
     94300  -151976.67      804.1064      -151172.56      191.16878      190.15038      1091.8685    
     94400  -151974.03      802.13316     -151171.9       191.1496       190.13466      1092.2396    
     94500  -151967.63      807.3705      -151160.26      191.12733      190.12007      1092.6106    
     94600  -151960.26      810.73472     -151149.53      191.09899      190.10079      1092.9816    
     94700  -151968.9       815.36143     -151153.54      191.07511      190.08124      1093.3526    
     94800  -151977.83      804.94095     -151172.89      191.055        190.06523      1093.7236    
     94900  -151982.82      794.74256     -151188.07      191.03153      190.05195      1094.0946    
     95000  -151978.32      794.86632     -151183.46      191.00716      190.03936      1094.4656    
     95100  -151975.83      812.93895     -151162.89      190.98546      190.02198      1094.8366    
     95200  -151970.62      818.33296     -151152.28      190.96368      190.00801      1095.2076    
     95300  -151981.58      815.99743     -151165.59      190.94542      189.99947      1095.5786    
     95400  -151998.3       807.52771     -151190.77      190.92594      189.98844      1095.9496    
     95500  -152000.76      792.70857     -151208.05      190.9025       189.97804      1096.3206    
     95600  -152006.01      800.91897     -151205.1       190.87981      189.96924      1096.6916    
     95700  -152004.58      812.35621     -151192.23      190.85589      189.95863      1097.0626    
     95800  -152009.06      821.56847     -151187.49      190.82625      189.94475      1097.4336    
     95900  -152016.76      811.7541      -151205         190.79738      189.93338      1097.8046    
     96000  -152026.89      795.6102      -151231.27      190.77008      189.91933      1098.1756    
     96100  -152039.09      795.79557     -151243.3       190.73416      189.90052      1098.5466    
     96200  -152042.8       805.7516      -151237.05      190.69775      189.88979      1098.9176    
     96300  -152037.39      817.67593     -151219.71      190.65368      189.87661      1099.2887    
     96400  -152035.1       821.56165     -151213.54      190.60587      189.85686      1099.6597    
     96500  -152041.21      808.47515     -151232.73      190.56393      189.84187      1100.0307    
     96600  -152049.16      793.26135     -151255.9       190.52127      189.82422      1100.4017    
     96700  -152049.24      789.18394     -151260.06      190.47819      189.79742      1100.7727    
     96800  -152050.61      802.94646     -151247.66      190.44613      189.77299      1101.1437    
     96900  -152048.14      815.50666     -151232.63      190.41494      189.74921      1101.5147    
     97000  -152048.15      815.94062     -151232.21      190.3811       189.72493      1101.8857    
     97100  -152057.68      806.91768     -151250.77      190.35244      189.70722      1102.2567    
     97200  -152058.97      794.68505     -151264.28      190.32368      189.68763      1102.6277    
     97300  -152061.76      802.66724     -151259.09      190.29427      189.66593      1102.9987    
     97400  -152054.75      810.2363      -151244.51      190.27179      189.64855      1103.3697    
     97500  -152049.99      813.76574     -151236.23      190.25143      189.62833      1103.7407    
     97600  -152057.08      809.03407     -151248.05      190.22781      189.60609      1104.1117    
     97700  -152070.11      799.77647     -151270.34      190.20729      189.58688      1104.4827    
     97800  -152085.39      802.70629     -151282.68      190.18589      189.56649      1104.8537    
     97900  -152077.84      797.43736     -151280.4       190.16179      189.5438       1105.2247    
     98000  -152079.69      811.17164     -151268.52      190.13836      189.52488      1105.5957    
     98100  -152079.19      815.29896     -151263.89      190.11149      189.50961      1105.9667    
     98200  -152090.72      803.18228     -151287.54      190.0829       189.49566      1106.3378    
     98300  -152116.01      799.94795     -151316.06      190.05313      189.48586      1106.7088    
     98400  -152118.55      793.55477     -151324.99      190.02441      189.47881      1107.0798    
     98500  -152122.38      810.79719     -151311.59      190.00466      189.47018      1107.4508    
     98600  -152114.86      813.93662     -151300.92      189.98841      189.4603       1107.8218    
     98700  -152118.82      810.27509     -151308.54      189.97367      189.45356      1108.1928    
     98800  -152133.19      805.56627     -151327.62      189.96415      189.44644      1108.5638    
     98900  -152142.08      800.57992     -151341.5       189.95399      189.44085      1108.9348    
     99000  -152142.48      803.19476     -151339.29      189.943        189.43872      1109.3058    
     99100  -152142.35      812.24481     -151330.1       189.92981      189.43914      1109.6768    
     99200  -152140.82      810.60501     -151330.21      189.91525      189.43836      1110.0478    
     99300  -152152.74      808.53639     -151344.2       189.89997      189.43376      1110.4188    
     99400  -152162.61      799.0663      -151363.55      189.89041      189.43091      1110.7898    
     99500  -152171.48      797.7976      -151373.68      189.88877      189.4276       1111.1608    
     99600  -152179.27      808.98971     -151370.28      189.89162      189.42006      1111.5318    
     99700  -152168.99      808.6073      -151360.38      189.8984       189.4138       1111.9028    
     99800  -152162.7       813.11083     -151349.59      189.90905      189.40354      1112.2738    
     99900  -152166.61      813.49352     -151353.12      189.9204       189.38692      1112.6448    
    100000  -152169.31      801.11427     -151368.19      189.93281      189.3711       1113.0158    
Loop time of 31610.6 on 16 procs for 100000 steps with 20808 atoms

Performance: 0.273 ns/day, 87.807 hours/ns, 3.163 timesteps/s, 65.826 katom-step/s
47.5% CPU use with 16 MPI tasks x 1 OpenMP threads

MPI task timing breakdown:
Section |  min time  |  avg time  |  max time  |%varavg| %total
---------------------------------------------------------------
Pair    | 2972       | 3688.3     | 4183.2     | 435.4 | 11.67
Neigh   | 18.994     | 24.215     | 30.266     |  50.9 |  0.08
Comm    | 3322.8     | 4225.3     | 4922.2     | 571.9 | 13.37
Output  | 93.474     | 96.214     | 99.751     |  17.1 |  0.30
Modify  | 20522      | 20826      | 21310      | 138.7 | 65.88
Other   |            | 2750       |            |       |  8.70

Nlocal:         1300.5 ave        1698 max        1000 min
Histogram: 2 5 0 0 3 2 0 0 1 3
Nghost:        3864.12 ave        4440 max        3050 min
Histogram: 1 1 1 3 2 1 0 0 3 4
Neighs:              0 ave           0 max           0 min
Histogram: 16 0 0 0 0 0 0 0 0 0

Total # of neighbors = 0
Ave neighs/atom = 0
Neighbor list builds = 757
Dangerous builds = 0
Total wall time: 8:47:01
