LAMMPS (2 Aug 2023 - Update 3)
OMP_NUM_THREADS environment is not set. Defaulting to 1 thread. (src/comm.cpp:98)
  using 1 OpenMP thread(s) per MPI task

# 1------general---------------
units                             metal      #单位为lammps 中的metel 类型
dimension                    3          #模拟的维度 三维
boundary                    p p p      #周期边界条件
atom_style                  atomic   #原子类型自动
atom_modify              map array sort 100 2.0
neighbor                    3.0 bin
neigh_modify            every 1 delay 0 check yes
#2 -----global variable-------定义全局变量，方便统一修改；
variable temperature equal 300
variable tstep equal 0.001
variable pressure equal 0
variable thermalstep equal 100
variable dumpstep equal 1000
variable relaxtime equal 0
variable totaltime equal 100000
variable deformrate equal 5e-3
#3 -------model------------
#box tilt large
read_data     1.lmp
Reading data file ...
  orthogonal box = (-100 -100 -2.1416495) to (100 100 39.081159)
  4 by 3 by 1 MPI processor grid
  reading atoms ...
  1620 atoms
  read_data CPU = 0.005 seconds
replicate 1 1 7
Replication is creating a 1x1x7 = 7 times larger system...
  orthogonal box = (-100 -100 -2.1416495) to (100 100 286.41801)
  2 by 2 by 3 MPI processor grid
  11340 atoms
  replicate CPU = 0.002 seconds
write_data h.data
System init for write_data ...
WARNING: Communication cutoff is 0.0. No ghost atoms will be generated. Atoms may get lost. (src/comm_brick.cpp:210)
pair_style hybrid airebo 3.0 airebo 3.0 airebo 3.0 lj/cut 10
pair_coeff * * airebo 1 CH.airebo C NULL NULL
Reading airebo potential file CH.airebo with DATE: 2011-10-25
pair_coeff * * airebo 2 CH.airebo NULL C NULL
Reading airebo potential file CH.airebo with DATE: 2011-10-25
pair_coeff * * airebo 3 CH.airebo NULL NULL C
Reading airebo potential file CH.airebo with DATE: 2011-10-25
pair_coeff 1 2 lj/cut 0.00456 3.431
pair_coeff 1 3 lj/cut 0.00456 3.431
pair_coeff 2 3 lj/cut 0.00456 3.431

# 5------minimize -----------
min_style      sd
minimize       1.0e-4 1.0e-6 100 1000
Neighbor list info ...
  update: every = 1 steps, delay = 0 steps, check = yes
  max neighbors/atom: 2000, page size: 100000
  master list distance cutoff = 13.2
  ghost atom cutoff = 13.2
  binsize = 6.6, bins = 31 31 44
  6 neighbor lists, perpetual/occasional/extra = 6 0 0
  (1) pair airebo, perpetual, skip from (5)
      attributes: full, newton on, ghost
      pair build: skip/ghost
      stencil: none
      bin: none
  (2) pair airebo, perpetual, skip from (5)
      attributes: full, newton on, ghost
      pair build: skip/ghost
      stencil: none
      bin: none
  (3) pair airebo, perpetual, skip from (5)
      attributes: full, newton on, ghost
      pair build: skip/ghost
      stencil: none
      bin: none
  (4) pair lj/cut, perpetual, skip from (6)
      attributes: half, newton on, cut 13
      pair build: skip
      stencil: none
      bin: none
  (5) neighbor class addition, perpetual
      attributes: full, newton on, ghost
      pair build: full/bin/ghost
      stencil: full/ghost/bin/3d
      bin: standard
  (6) neighbor class addition, perpetual
      attributes: half, newton on, cut 13
      pair build: half/bin/atomonly/newton
      stencil: half/bin/3d
      bin: standard
Per MPI rank memory allocation (min/avg/max) = 13.69 | 13.98 | 14.07 Mbytes
   Step          Temp          E_pair         E_mol          TotEng         Press     
         0   0             -75948.218      0             -75948.218      3997.0868    
        24   0             -81462.316      0             -81462.316      81.021641    
Loop time of 1.58772 on 12 procs for 24 steps with 11340 atoms

79.8% CPU use with 12 MPI tasks x 1 OpenMP threads

Minimization stats:
  Stopping criterion = energy tolerance
  Energy initial, next-to-last, final = 
     -75948.2180083979   -81455.882884376  -81462.3163461476
  Force two-norm initial, final = 2209.9251 29.832243
  Force max component initial, final = 177.24911 2.7877205
  Final line search alpha, max atom move = 0.017949923 0.050039368
  Iterations, force evaluations = 24 43

MPI task timing breakdown:
Section |  min time  |  avg time  |  max time  |%varavg| %total
---------------------------------------------------------------
Pair    | 0.63738    | 0.76981    | 1.0247     |  11.3 | 48.49
Neigh   | 0          | 0          | 0          |   0.0 |  0.00
Comm    | 0.31883    | 0.57461    | 0.69762    |  12.7 | 36.19
Output  | 0          | 0          | 0          |   0.0 |  0.00
Modify  | 0          | 0          | 0          |   0.0 |  0.00
Other   |            | 0.2433     |            |       | 15.32

Nlocal:            945 ave         986 max         871 min
Histogram: 1 1 1 0 0 1 0 3 3 2
Nghost:        3866.33 ave        3935 max        3827 min
Histogram: 2 4 2 0 1 0 0 0 1 2
Neighs:              0 ave           0 max           0 min
Histogram: 12 0 0 0 0 0 0 0 0 0

Total # of neighbors = 0
Ave neighs/atom = 0
Neighbor list builds = 0
Dangerous builds = 0
#6----define computes------
variable nums equal count(all) #计算原子数目
variable toval equal 20.535*20.0413*lz #计算系统总体积，单层石墨烯厚度为0.335nm
variable vol equal ${toval} #体系的初始体积
variable vol equal 118756.179745772 
variable vatom equal v_vol/v_nums #单个原子体积
compute 1 all stress/atom NULL #计算体系中单原子应力
compute xalls all reduce sum c_1[1]
variable xstress equal (c_xalls)/(v_toval*10000)
compute yalls all reduce sum c_1[2]
variable ystress equal (c_yalls)/(v_toval*10000)
compute zalls all reduce sum c_1[3]
variable zstress equal (c_zalls)/(v_toval*10000)
#7---------relaxation-------------------------
timestep ${tstep}
timestep 0.001
velocity all create ${temperature} 231743 units box dist gaussian
velocity all create 300 231743 units box dist gaussian
dump   1 all atom 100 all-cy.lammpstrj
#fix    1 all npt temp 300 300  0.1 aniso 0 0 10 drag 1  #三个方向独立控压
fix  1 all npt temp ${temperature} ${temperature} 0.1 x ${pressure} ${pressure} 10 y ${pressure} ${pressure} 10
fix  1 all npt temp 300 ${temperature} 0.1 x ${pressure} ${pressure} 10 y ${pressure} ${pressure} 10
fix  1 all npt temp 300 300 0.1 x ${pressure} ${pressure} 10 y ${pressure} ${pressure} 10
fix  1 all npt temp 300 300 0.1 x 0 ${pressure} 10 y ${pressure} ${pressure} 10
fix  1 all npt temp 300 300 0.1 x 0 0 10 y ${pressure} ${pressure} 10
fix  1 all npt temp 300 300 0.1 x 0 0 10 y 0 ${pressure} 10
fix  1 all npt temp 300 300 0.1 x 0 0 10 y 0 0 10
compute  2 all pe/atom
compute  pe all reduce sum c_2
variable PE equal "c_pe"
fix    pe all print 100 "${PE} " file PE.txt screen no
thermo  ${thermalstep}
thermo  100
#thermo_style  custom step pe ke etotal lx ly lz
run   ${relaxtime}
run   0
Per MPI rank memory allocation (min/avg/max) = 14.32 | 14.6 | 14.7 Mbytes
   Step          Temp          E_pair         E_mol          TotEng         Press          Volume    
        24   300           -81462.316      0             -81022.612      121.71131      11542387     
Loop time of 3.03013e-05 on 12 procs for 0 steps with 11340 atoms

89.7% CPU use with 12 MPI tasks x 1 OpenMP threads

MPI task timing breakdown:
Section |  min time  |  avg time  |  max time  |%varavg| %total
---------------------------------------------------------------
Pair    | 0          | 0          | 0          |   0.0 |  0.00
Neigh   | 0          | 0          | 0          |   0.0 |  0.00
Comm    | 0          | 0          | 0          |   0.0 |  0.00
Output  | 0          | 0          | 0          |   0.0 |  0.00
Modify  | 0          | 0          | 0          |   0.0 |  0.00
Other   |            | 3.03e-05   |            |       |100.00

Nlocal:            945 ave         994 max         887 min
Histogram: 1 1 1 0 0 3 4 0 1 1
Nghost:           3868 ave        3925 max        3818 min
Histogram: 1 1 0 4 3 0 0 1 1 1
Neighs:              0 ave           0 max           0 min
Histogram: 12 0 0 0 0 0 0 0 0 0

Total # of neighbors = 0
Ave neighs/atom = 0
Neighbor list builds = 0
Dangerous builds = 0
#8 -------tension-----------------------------
unfix  1
undump  1
unfix  pe
reset_timestep 0
fix avestress all ave/atom 1 ${dumpstep} ${dumpstep} c_1[1] c_1[2] c_1[3] c_1[4] c_1[5] c_1[6]
fix avestress all ave/atom 1 1000 ${dumpstep} c_1[1] c_1[2] c_1[3] c_1[4] c_1[5] c_1[6]
fix avestress all ave/atom 1 1000 1000 c_1[1] c_1[2] c_1[3] c_1[4] c_1[5] c_1[6]

#-----calculation of strain and Cumulative compression--------
variable                tmp equal "lz"
variable                L0 equal ${tmp}
variable                L0 equal 288.559663
variable                strain equal "(lz - v_L0)/v_L0"
variable                Cumulativels equal "(lz - v_L0)/10"
fix Step all print 100 "${strain} ${Cumulativels} ${zstress}" file grapoten.txt screen no

dump 2 all custom ${dumpstep} tension.xyz type x y z f_avestress[1] f_avestress[2] f_avestress[3] f_avestress[4] f_avestress[5] f_avestress[6]
dump 2 all custom 1000 tension.xyz type x y z f_avestress[1] f_avestress[2] f_avestress[3] f_avestress[4] f_avestress[5] f_avestress[6]

fix  1 all npt temp ${temperature} ${temperature} 0.1 y ${pressure} ${pressure} 10 x ${pressure} ${pressure} 10
fix  1 all npt temp 300 ${temperature} 0.1 y ${pressure} ${pressure} 10 x ${pressure} ${pressure} 10
fix  1 all npt temp 300 300 0.1 y ${pressure} ${pressure} 10 x ${pressure} ${pressure} 10
fix  1 all npt temp 300 300 0.1 y 0 ${pressure} 10 x ${pressure} ${pressure} 10
fix  1 all npt temp 300 300 0.1 y 0 0 10 x ${pressure} ${pressure} 10
fix  1 all npt temp 300 300 0.1 y 0 0 10 x 0 ${pressure} 10
fix  1 all npt temp 300 300 0.1 y 0 0 10 x 0 0 10

thermo_style custom step pe ke etotal lx ly lz
fix   2 all deform 1 z erate ${deformrate} remap x units box
fix   2 all deform 1 z erate 0.005 remap x units box
fix   3 all ave/time 2 500 1000 v_xstress v_ystress v_zstress file pressure.out
run   ${totaltime}
run   100000
WARNING: Dump 2 includes no atom IDs and is not sorted by ID. This may complicate post-processing tasks or visualization (src/dump.cpp:221)
Per MPI rank memory allocation (min/avg/max) = 15.82 | 16.1 | 16.2 Mbytes
   Step         PotEng         KinEng         TotEng           Lx             Ly             Lz      
         0  -81462.316      439.70424     -81022.612      200            200            288.55966    
       100  -81285.023      294.31581     -80990.707      199.98385      199.98744      288.70394    
       200  -81280.214      330.18167     -80950.032      199.91564      199.92273      288.84822    
       300  -81277.073      373.1008      -80903.972      200.0044       200.01682      288.9925     
       400  -81253.507      395.86888     -80857.639      200.00235      200.02741      289.13678    
       500  -81215.425      393.13966     -80822.286      199.91148      199.9504       289.28106    
       600  -81233.043      447.38928     -80785.653      199.96086      200.01311      289.42534    
       700  -81231.029      472.84171     -80758.187      199.98755      200.04943      289.56962    
       800  -81215.024      457.70521     -80757.319      199.93079      199.99512      289.7139     
       900  -81202.886      438.8199      -80764.066      199.94317      200.01621      289.85818    
      1000  -81203.701      437.71151     -80765.989      199.95121      200.02399      290.00246    
      1100  -81214.921      438.82125     -80776.1        199.95407      200.02841      290.14674    
      1200  -81212.499      431.99156     -80780.507      199.9199       200.00967      290.29102    
      1300  -81206.291      437.07192     -80769.219      199.9298       200.0367       290.4353     
      1400  -81193.189      440.95134     -80752.238      199.94927      200.06244      290.57958    
      1500  -81192.59       439.64482     -80752.945      199.90862      200.0247       290.72386    
      1600  -81201.466      436.86119     -80764.605      199.92545      200.04739      290.86814    
      1700  -81212.968      440.40344     -80772.564      199.92095      200.04264      291.01242    
      1800  -81215.012      440.57474     -80774.438      199.9161       200.04115      291.1567     
      1900  -81208.163      439.71537     -80768.448      199.91439      200.05464      291.30098    
      2000  -81198.328      439.95922     -80758.369      199.89452      200.04212      291.44526    
      2100  -81196.556      442.04333     -80754.513      199.89937      200.05163      291.58954    
      2200  -81200.862      443.23646     -80757.625      199.89002      200.05314      291.73382    
      2300  -81207.847      443.09938     -80764.748      199.88803      200.06023      291.8781     
      2400  -81201.864      433.92706     -80767.936      199.88488      200.06176      292.02238    
      2500  -81202.428      439.61476     -80762.813      199.87903      200.05577      292.16666    
      2600  -81198.181      441.97116     -80756.21       199.88331      200.06359      292.31094    
      2700  -81196.548      442.93441     -80753.613      199.87859      200.05811      292.45522    
      2800  -81193.915      439.61117     -80754.304      199.87818      200.05346      292.5995     
      2900  -81198.845      443.06728     -80755.777      199.87837      200.05016      292.74378    
      3000  -81198.179      436.30215     -80761.877      199.87699      200.04263      292.88806    
      3100  -81197.831      433.06582     -80764.765      199.8782       200.04057      293.03234    
      3200  -81204.119      442.16437     -80761.955      199.87363      200.03595      293.17662    
      3300  -81200.775      442.74359     -80758.031      199.87053      200.03808      293.3209     
      3400  -81189.719      435.25682     -80754.462      199.86602      200.04159      293.46518    
      3500  -81189.844      441.65795     -80748.186      199.85538      200.04107      293.60946    
      3600  -81189.29       446.07231     -80743.218      199.84991      200.04041      293.75374    
      3700  -81190.591      443.86295     -80746.728      199.85124      200.03922      293.89802    
      3800  -81190.501      437.45026     -80753.05       199.85313      200.03338      294.0423     
      3900  -81186.057      433.55036     -80752.506      199.85991      200.02466      294.18658    
      4000  -81178.086      436.30441     -80741.782      199.86658      200.01484      294.33086    
      4100  -81177.482      448.0763      -80729.406      199.86733      200.00057      294.47514    
      4200  -81174.339      446.53422     -80727.805      199.86492      199.99242      294.61942    
      4300  -81172.714      437.60727     -80735.107      199.86367      199.98941      294.7637     
      4400  -81175.2        437.2682      -80737.932      199.85823      199.9874       294.90798    
      4500  -81179.878      444.31533     -80735.562      199.85126      199.98783      295.05226    
      4600  -81169.157      439.16382     -80729.993      199.84138      199.98779      295.19654    
      4700  -81160.406      440.11495     -80720.292      199.83123      199.99286      295.34082    
      4800  -81160.065      448.22387     -80711.841      199.81892      199.9979       295.48509    
      4900  -81159.478      445.67104     -80713.807      199.8048       200.00336      295.62937    
      5000  -81161.614      441.87451     -80719.74       199.78475      200.01031      295.77365    
      5100  -81156.469      432.50189     -80723.967      199.7683       200.02062      295.91793    
      5200  -81149.746      434.17961     -80715.566      199.7554       200.03317      296.06221    
      5300  -81142.603      442.31028     -80700.293      199.73621      200.0387       296.20649    
      5400  -81137.17       446.89554     -80690.274      199.72178      200.04506      296.35077    
      5500  -81133.631      443.42029     -80690.21       199.70972      200.04797      296.49505    
      5600  -81133.574      439.65813     -80693.916      199.70339      200.04744      296.63933    
      5700  -81132.014      436.35414     -80695.66       199.69633      200.03902      296.78361    
      5800  -81124.768      433.17576     -80691.592      199.69772      200.03303      296.92789    
      5900  -81124.818      446.61816     -80678.2        199.69838      200.02771      297.07217    
      6000  -81112.323      439.8726      -80672.45       199.69337      200.01974      297.21645    
      6100  -81112.626      438.66758     -80673.958      199.68845      200.00957      297.36073    
      6200  -81112.754      439.9166      -80672.837      199.68826      200.0037       297.50501    
      6300  -81109.833      440.98912     -80668.844      199.68632      200.00001      297.64929    
      6400  -81108.499      441.47798     -80667.021      199.67499      199.99569      297.79357    
      6500  -81103.64       434.15428     -80669.485      199.66363      199.9937       297.93785    
      6600  -81097.924      434.41206     -80663.512      199.6509       199.9956       298.08213    
      6700  -81086.793      435.85235     -80650.94       199.6401       199.99811      298.22641    
      6800  -81083.859      443.74222     -80640.116      199.63068      199.99828      298.37069    
      6900  -81070.849      441.29878     -80629.551      199.62322      199.9925       298.51497    
      7000  -81064.983      441.71319     -80623.269      199.61849      199.99196      298.65925    
      7100  -81057.968      435.21754     -80622.751      199.61236      199.99352      298.80353    
      7200  -81059.13       439.81228     -80619.318      199.60066      199.9864       298.94781    
      7300  -81052.637      441.21928     -80611.418      199.58919      199.97859      299.09209    
      7400  -81045.786      446.95219     -80598.834      199.5812       199.97276      299.23637    
      7500  -81040.38       447.50842     -80592.872      199.57552      199.96308      299.38065    
      7600  -81032.728      437.92518     -80594.803      199.57385      199.95127      299.52493    
      7700  -81028.707      436.90442     -80591.802      199.57653      199.93888      299.66921    
      7800  -81020.962      435.14444     -80585.817      199.57868      199.9232       299.81349    
      7900  -81015.155      442.92304     -80572.232      199.5826       199.90789      299.95777    
      8000  -81009.412      445.1174      -80564.295      199.58344      199.89528      300.10205    
      8100  -80998.821      437.6986      -80561.122      199.58343      199.88113      300.24633    
      8200  -80994.983      438.4694      -80556.513      199.5815       199.86801      300.39061    
      8300  -80991.774      441.94902     -80549.824      199.57376      199.8521       300.53489    
      8400  -80986.298      443.0851      -80543.213      199.5688       199.84298      300.67917    
      8500  -80975.797      436.20503     -80539.592      199.56646      199.83926      300.82345    
      8600  -80973.296      439.00466     -80534.291      199.55979      199.8294       300.96773    
      8700  -80965.108      438.7089      -80526.399      199.55162      199.82157      301.11201    
      8800  -80959.957      443.78946     -80516.167      199.54724      199.81598      301.25629    
      8900  -80950.158      445.63978     -80504.518      199.53854      199.80219      301.40057    
      9000  -80948.555      444.10057     -80504.454      199.53378      199.78739      301.54485    
      9100  -80949.228      445.83579     -80503.393      199.52697      199.77471      301.68913    
      9200  -80934.172      437.19793     -80496.974      199.51971      199.76367      301.83341    
      9300  -80926.605      440.86769     -80485.737      199.51068      199.75771      301.97769    
      9400  -80918.347      443.50915     -80474.838      199.49366      199.74768      302.12197    
      9500  -80910.071      445.29583     -80464.775      199.48117      199.74411      302.26625    
      9600  -80901.711      441.30723     -80460.403      199.46609      199.74335      302.41053    
      9700  -80896.309      436.02509     -80460.284      199.44783      199.73788      302.55481    
      9800  -80892.065      439.65872     -80452.406      199.43526      199.73766      302.69909    
      9900  -80881.874      441.46423     -80440.41       199.42274      199.73381      302.84337    
     10000  -80873.205      447.41537     -80425.79       199.4119       199.72539      302.98765    
     10100  -80864.307      443.88312     -80420.424      199.40644      199.71859      303.13193    
     10200  -80858.492      437.04668     -80421.446      199.3985       199.70696      303.27621    
     10300  -80850.696      435.84444     -80414.851      199.39263      199.68873      303.42049    
     10400  -80839.738      435.73119     -80404.006      199.3865       199.67564      303.56477    
     10500  -80829.354      440.69207     -80388.661      199.37869      199.66439      303.70905    
     10600  -80822.752      444.73077     -80378.022      199.37723      199.65644      303.85333    
     10700  -80816.42       442.40876     -80374.011      199.37178      199.64427      303.9976     
     10800  -80811.48       442.8297      -80368.65       199.36142      199.62569      304.14188    
     10900  -80795.677      434.50816     -80361.169      199.35592      199.60757      304.28616    
     11000  -80789.866      440.1216      -80349.745      199.34755      199.58745      304.43044    
     11100  -80779.14       441.37762     -80337.762      199.33927      199.57254      304.57472    
     11200  -80781.107      447.64759     -80333.459      199.33326      199.5621       304.719      
     11300  -80773.116      439.38598     -80333.73       199.32062      199.54753      304.86328    
     11400  -80764.215      437.87408     -80326.341      199.31102      199.53436      305.00756    
     11500  -80753.252      439.93167     -80313.32       199.30244      199.51545      305.15184    
     11600  -80737.268      440.21243     -80297.055      199.29743      199.49217      305.29612    
     11700  -80726.218      440.21597     -80286.002      199.29475      199.47462      305.4404     
     11800  -80717.623      439.40648     -80278.217      199.2866       199.46028      305.58468    
     11900  -80710.489      434.2895      -80276.199      199.27671      199.45045      305.72896    
     12000  -80705.382      436.11823     -80269.264      199.26063      199.43807      305.87324    
     12100  -80690.197      433.16438     -80257.033      199.24056      199.43102      306.01752    
     12200  -80678.637      433.21314     -80245.423      199.22107      199.42713      306.1618     
     12300  -80672.63       441.40069     -80231.229      199.20046      199.41983      306.30608    
     12400  -80659.635      442.91823     -80216.717      199.17967      199.41588      306.45036    
     12500  -80650.289      439.87613     -80210.413      199.15799      199.41162      306.59464    
     12600  -80643.748      440.58746     -80203.161      199.14234      199.40173      306.73892    
     12700  -80634.897      440.03501     -80194.862      199.1299       199.39006      306.8832     
     12800  -80626.972      440.62132     -80186.351      199.11538      199.37983      307.02748    
     12900  -80616.833      439.16209     -80177.671      199.0943       199.36855      307.17176    
     13000  -80615.036      441.09128     -80173.945      199.06774      199.35855      307.31604    
     13100  -80609.746      437.81804     -80171.928      199.04208      199.3497       307.46032    
     13200  -80599.892      438.09799     -80161.794      199.02165      199.3454       307.6046     
     13300  -80582.825      437.78518     -80145.04       198.99869      199.33988      307.74888    
     13400  -80574.2        442.59555     -80131.604      198.97938      199.33405      307.89316    
     13500  -80559.784      438.64825     -80121.135      198.95542      199.33023      308.03744    
     13600  -80550.409      441.49781     -80108.911      198.92469      199.32442      308.18172    
     13700  -80542.12       444.68659     -80097.433      198.8951       199.31852      308.326      
     13800  -80531.795      437.62739     -80094.168      198.8625       199.31205      308.47028    
     13900  -80529.401      438.85212     -80090.549      198.82743      199.306        308.61456    
     14000  -80519.04       436.91108     -80082.129      198.79962      199.30561      308.75884    
     14100  -80508.191      437.61396     -80070.577      198.77465      199.30164      308.90312    
     14200  -80497.778      445.30078     -80052.477      198.75209      199.29293      309.0474     
     14300  -80484.803      446.60884     -80038.194      198.73309      199.28156      309.19168    
     14400  -80477.741      444.6262      -80033.115      198.71425      199.26691      309.33596    
     14500  -80468.795      440.4487      -80028.346      198.69263      199.2503       309.48024    
     14600  -80462.879      439.85897     -80023.02       198.6696       199.23663      309.62452    
     14700  -80448.828      435.47521     -80013.353      198.64357      199.22518      309.7688     
     14800  -80442.099      442.04049     -80000.059      198.61861      199.21821      309.91308    
     14900  -80427.065      441.0293      -79986.035      198.59475      199.21124      310.05736    
     15000  -80410.214      438.71749     -79971.496      198.56633      199.19729      310.20164    
     15100  -80408.546      446.61216     -79961.934      198.54454      199.1859       310.34592    
     15200  -80399.992      440.25008     -79959.742      198.52671      199.17161      310.4902     
     15300  -80394.618      443.43183     -79951.186      198.50736      199.15125      310.63448    
     15400  -80385.27       442.34909     -79942.921      198.48983      199.13097      310.77876    
     15500  -80370.532      436.9038      -79933.628      198.47201      199.11031      310.92304    
     15600  -80354.908      442.67434     -79912.234      198.45263      199.08391      311.06732    
     15700  -80338.048      440.07144     -79897.976      198.43383      199.05807      311.2116     
     15800  -80331.651      443.89361     -79887.757      198.41701      199.03206      311.35588    
     15900  -80324.975      441.69589     -79883.279      198.40422      199.00676      311.50016    
     16000  -80306.897      433.8677      -79873.029      198.39662      198.98464      311.64444    
     16100  -80294.22       438.32463     -79855.896      198.39035      198.96473      311.78872    
     16200  -80277.629      438.14667     -79839.482      198.37899      198.93867      311.933      
     16300  -80262.374      438.4016      -79823.972      198.36217      198.91112      312.07728    
     16400  -80253.081      441.65519     -79811.426      198.34909      198.88961      312.22156    
     16500  -80243.396      439.30432     -79804.091      198.333        198.86016      312.36584    
     16600  -80232.714      431.9651      -79800.749      198.31905      198.83013      312.51012    
     16700  -80219.733      434.1161      -79785.617      198.30641      198.80261      312.65439    
     16800  -80199.132      433.33319     -79765.799      198.29132      198.77527      312.79867    
     16900  -80186.077      437.49315     -79748.584      198.27231      198.7516       312.94295    
     17000  -80181.307      446.94727     -79734.359      198.25124      198.73251      313.08723    
     17100  -80165.54       441.07722     -79724.463      198.22519      198.71535      313.23151    
     17200  -80164.37       442.89192     -79721.478      198.1982       198.6984       313.37579    
     17300  -80142.945      433.25649     -79709.689      198.17536      198.67976      313.52007    
     17400  -80135.334      440.87545     -79694.458      198.15044      198.65055      313.66435    
     17500  -80117.822      439.06587     -79678.756      198.12989      198.62485      313.80863    
     17600  -80103.357      442.41905     -79660.938      198.11118      198.60373      313.95291    
     17700  -80090.803      446.24553     -79644.557      198.08811      198.57862      314.09719    
     17800  -80077.835      438.15556     -79639.68       198.06328      198.56017      314.24147    
     17900  -80072.128      440.728       -79631.4        198.03559      198.54363      314.38575    
     18000  -80059.931      439.47524     -79620.456      198.00403      198.52412      314.53003    
     18100  -80045.206      437.30099     -79607.905      197.97769      198.50714      314.67431    
     18200  -80031.721      442.48469     -79589.237      197.95252      198.48497      314.81859    
     18300  -80014.545      443.07414     -79571.471      197.93106      198.46427      314.96287    
     18400  -80001.053      439.39371     -79561.66       197.9093       198.44863      315.10715    
     18500  -79994.585      439.29539     -79555.289      197.87963      198.42425      315.25143    
     18600  -79984.71       439.84013     -79544.869      197.8482       198.40169      315.39571    
     18700  -79971.719      441.49973     -79530.219      197.8195       198.38792      315.53999    
     18800  -79954.484      441.19537     -79513.288      197.78833      198.37365      315.68427    
     18900  -79937.123      442.48562     -79494.637      197.75553      198.35535      315.82855    
     19000  -79928.961      447.96554     -79480.995      197.72389      198.33363      315.97283    
     19100  -79918.507      439.63621     -79478.871      197.6968       198.31558      316.11711    
     19200  -79906.395      438.90934     -79467.486      197.66352      198.29531      316.26139    
     19300  -79888.935      436.64997     -79452.285      197.62825      198.27961      316.40567    
     19400  -79875.613      439.30508     -79436.308      197.59485      198.27278      316.54995    
     19500  -79859.879      439.00037     -79420.878      197.55863      198.25585      316.69423    
     19600  -79851.287      440.0727      -79411.214      197.52481      198.2381       316.83851    
     19700  -79843.558      438.75885     -79404.799      197.4971       198.22281      316.98279    
     19800  -79829.849      439.34776     -79390.501      197.46683      198.19612      317.12707    
     19900  -79811.44       439.39969     -79372.04       197.43964      198.17282      317.27135    
     20000  -79793.152      439.50557     -79353.646      197.40958      198.15128      317.41563    
     20100  -79780.096      443.57333     -79336.523      197.37894      198.13001      317.55991    
     20200  -79768.364      444.01824     -79324.346      197.35162      198.11285      317.70419    
     20300  -79761.961      441.4798      -79320.481      197.32082      198.08864      317.84847    
     20400  -79753.265      440.73327     -79312.532      197.29371      198.06719      317.99275    
     20500  -79737.324      434.43214     -79302.891      197.26812      198.0481       318.13703    
     20600  -79724.544      437.22031     -79287.323      197.23972      198.02168      318.28131    
     20700  -79708.275      440.76102     -79267.514      197.21505      197.99659      318.42559    
     20800  -79691.284      442.28502     -79248.999      197.19061      197.96793      318.56987    
     20900  -79679.939      442.82125     -79237.117      197.16603      197.9347       318.71415    
     21000  -79667.97       433.3504      -79234.62       197.14357      197.90499      318.85843    
     21100  -79657.44       435.54976     -79221.891      197.12067      197.88043      319.00271    
     21200  -79651.563      443.69811     -79207.865      197.09708      197.85961      319.14699    
     21300  -79638.921      444.33765     -79194.583      197.07115      197.83851      319.29127    
     21400  -79626.13       438.79432     -79187.336      197.04454      197.81889      319.43555    
     21500  -79611.11       433.61103     -79177.499      197.01465      197.7952       319.57983    
     21600  -79598.554      436.4678      -79162.087      196.9855       197.76938      319.72411    
     21700  -79582.077      441.10428     -79140.973      196.95653      197.74019      319.86839    
     21800  -79562.295      439.54195     -79122.753      196.92845      197.70704      320.01267    
     21900  -79547.513      439.70835     -79107.804      196.90399      197.67382      320.15695    
     22000  -79534.626      439.58796     -79095.038      196.88173      197.64373      320.30123    
     22100  -79524.961      438.78553     -79086.176      196.86312      197.61614      320.44551    
     22200  -79503.561      429.75855     -79073.803      196.84631      197.59046      320.58979    
     22300  -79486.527      438.30068     -79048.227      196.82852      197.56546      320.73407    
     22400  -79468.914      440.24697     -79028.667      196.81146      197.542        320.87835    
     22500  -79446.921      438.06364     -79008.857      196.79252      197.51505      321.02263    
     22600  -79433.878      444.63421     -78989.243      196.77276      197.48558      321.1669     
     22700  -79413.982      443.30395     -78970.678      196.75431      197.45736      321.31118    
     22800  -79393.121      437.30546     -78955.816      196.73446      197.42879      321.45546    
     22900  -79387.031      438.43758     -78948.593      196.71165      197.40161      321.59974    
     23000  -79374.687      438.83321     -78935.854      196.68492      197.37723      321.74402    
     23100  -79358.207      442.91815     -78915.289      196.65404      197.3585       321.8883     
     23200  -79335.925      440.29885     -78895.626      196.61927      197.34403      322.03258    
     23300  -79326.144      444.26462     -78881.879      196.58462      197.32976      322.17686    
     23400  -79315.527      443.58045     -78871.947      196.5491       197.31177      322.32114    
     23500  -79301.814      440.07598     -78861.738      196.51502      197.29236      322.46542    
     23600  -79293.025      445.17682     -78847.849      196.48284      197.26901      322.6097     
     23700  -79285.039      448.01618     -78837.023      196.45581      197.24439      322.75398    
     23800  -79267.004      438.84279     -78828.161      196.43208      197.21674      322.89826    
     23900  -79246.356      434.99847     -78811.358      196.41105      197.18684      323.04254    
     24000  -79230.331      438.41429     -78791.917      196.39327      197.16254      323.18682    
     24100  -79216.579      443.27818     -78773.301      196.37596      197.13958      323.3311     
     24200  -79199.712      442.76557     -78756.946      196.35759      197.11873      323.47538    
     24300  -79182.616      437.96541     -78744.65       196.33878      197.09835      323.61966    
     24400  -79167.731      434.52328     -78733.208      196.31956      197.07476      323.76394    
     24500  -79153.49       438.02712     -78715.463      196.30097      197.04916      323.90822    
     24600  -79132.07       439.96297     -78692.107      196.28138      197.02292      324.0525     
     24700  -79114.664      438.68229     -78675.982      196.25841      196.9937       324.19678    
     24800  -79100.103      438.99542     -78661.108      196.23585      196.96477      324.34106    
     24900  -79079.911      439.51616     -78640.395      196.21198      196.93648      324.48534    
     25000  -79059.701      442.53957     -78617.162      196.18868      196.91185      324.62962    
     25100  -79042.403      439.87436     -78602.529      196.16829      196.8908       324.7739     
     25200  -79033.928      441.9091      -78592.019      196.15032      196.86487      324.91818    
     25300  -79014.067      433.29316     -78580.774      196.13788      196.83567      325.06246    
     25400  -78999.605      439.40025     -78560.205      196.12883      196.80725      325.20674    
     25500  -78974.613      440.52577     -78534.087      196.116        196.7748       325.35102    
     25600  -78957.726      443.48487     -78514.241      196.10432      196.74875      325.4953     
     25700  -78939.18       441.26064     -78497.92       196.08904      196.72461      325.63958    
     25800  -78923.391      437.33324     -78486.057      196.06779      196.70022      325.78386    
     25900  -78912.447      439.45717     -78472.99       196.04577      196.68355      325.92814    
     26000  -78895.748      441.50514     -78454.243      196.01955      196.66551      326.07242    
     26100  -78872.713      441.66863     -78431.044      195.99388      196.64562      326.2167     
     26200  -78860.308      444.37245     -78415.936      195.97222      196.62476      326.36098    
     26300  -78849.577      440.77443     -78408.802      195.94729      196.59605      326.50526    
     26400  -78834.978      440.52654     -78394.451      195.92435      196.57421      326.64954    
     26500  -78816.439      440.40799     -78376.031      195.90245      196.55894      326.79382    
     26600  -78796.045      442.66218     -78353.383      195.8774       196.53669      326.9381     
     26700  -78780.737      445.90149     -78334.836      195.85814      196.51915      327.08238    
     26800  -78763.937      439.20487     -78324.732      195.83998      196.50103      327.22666    
     26900  -78752.723      437.5158      -78315.208      195.81867      196.47718      327.37094    
     27000  -78731.274      435.65316     -78295.621      195.80398      196.46194      327.51522    
     27100  -78712.839      439.34259     -78273.496      195.78889      196.43949      327.6595     
     27200  -78697.712      443.24707     -78254.465      195.77035      196.41421      327.80378    
     27300  -78678.528      437.92053     -78240.607      195.75349      196.40236      327.94806    
     27400  -78666.396      433.36551     -78233.03       195.72991      196.3862       328.09234    
     27500  -78653.067      435.13994     -78217.927      195.70261      196.37047      328.23662    
     27600  -78632.97       438.31502     -78194.655      195.6758       196.36164      328.3809     
     27700  -78615.939      441.72886     -78174.21       195.6442       196.3433       328.52518    
     27800  -78595.653      441.72343     -78153.929      195.61717      196.3248       328.66946    
     27900  -78574.92       442.33124     -78132.588      195.59722      196.30573      328.81374    
     28000  -78558.649      445.88119     -78112.768      195.57862      196.27574      328.95802    
     28100  -78539.453      437.26764     -78102.185      195.56887      196.25092      329.1023     
     28200  -78528.978      439.09695     -78089.881      195.56007      196.22401      329.24658    
     28300  -78509.334      439.95329     -78069.381      195.54987      196.19823      329.39086    
     28400  -78484.524      439.76322     -78044.761      195.54325      196.18214      329.53514    
     28500  -78466.615      442.15034     -78024.465      195.53268      196.15913      329.67941    
     28600  -78445.62       439.39108     -78006.229      195.52266      196.13759      329.82369    
     28700  -78427.206      439.1377      -77988.068      195.51276      196.11824      329.96797    
     28800  -78409.415      442.46563     -77966.95       195.49956      196.09239      330.11225    
     28900  -78389.568      444.9224      -77944.645      195.48615      196.06663      330.25653    
     29000  -78374.41       445.50829     -77928.902      195.46992      196.04165      330.40081    
     29100  -78356.843      437.77139     -77919.071      195.44799      196.01598      330.54509    
     29200  -78340.667      436.77219     -77903.895      195.42617      195.99929      330.68937    
     29300  -78320.57       434.74969     -77885.82       195.4043       195.98443      330.83365    
     29400  -78306.125      438.46811     -77867.657      195.38049      195.9683       330.97793    
     29500  -78289.253      441.55078     -77847.702      195.36381      195.95879      331.12221    
     29600  -78269.461      444.18778     -77825.273      195.34798      195.94156      331.26649    
     29700  -78250.918      442.05662     -77808.861      195.33441      195.92237      331.41077    
     29800  -78233.868      437.73276     -77796.135      195.32528      195.90536      331.55505    
     29900  -78221.479      438.92169     -77782.558      195.31094      195.87835      331.69933    
     30000  -78197.861      436.05282     -77761.808      195.29624      195.8544       331.84361    
     30100  -78176.188      441.79917     -77734.389      195.28249      195.83765      331.98789    
     30200  -78158.07       441.41971     -77716.651      195.26221      195.81701      332.13217    
     30300  -78140.703      436.92676     -77703.776      195.24313      195.80588      332.27645    
     30400  -78132.811      442.29237     -77690.519      195.22435      195.79749      332.42073    
     30500  -78111.351      437.71979     -77673.632      195.20133      195.78331      332.56501    
     30600  -78091.647      438.3076      -77653.34       195.18161      195.7746       332.70929    
     30700  -78066.612      441.98411     -77624.628      195.16009      195.76049      332.85357    
     30800  -78052.94       445.74443     -77607.195      195.13688      195.74409      332.99785    
     30900  -78033.773      436.77152     -77597.001      195.11575      195.72839      333.14213    
     31000  -78021.458      437.57619     -77583.881      195.09393      195.70434      333.28641    
     31100  -78001.127      435.18825     -77565.939      195.0757       195.68566      333.43069    
     31200  -77980.196      440.31903     -77539.877      195.06002      195.66948      333.57497    
     31300  -77957.624      439.4877      -77518.136      195.04697      195.6518       333.71925    
     31400  -77944.916      442.80447     -77502.112      195.04012      195.63809      333.86353    
     31500  -77928.437      440.61829     -77487.819      195.03204      195.61865      334.00781    
     31600  -77908.89       437.85339     -77471.037      195.02262      195.59837      334.15209    
     31700  -77881.675      436.54162     -77445.134      195.01255      195.57971      334.29637    
     31800  -77862.579      441.80391     -77420.775      194.9987       195.5573       334.44065    
     31900  -77841.212      438.99038     -77402.222      194.98497      195.53594      334.58493    
     32000  -77826.003      441.35023     -77384.653      194.96979      195.51252      334.72921    
     32100  -77812.336      442.18033     -77370.155      194.9534       195.4884       334.87349    
     32200  -77789.527      433.97326     -77355.554      194.94004      195.47145      335.01777    
     32300  -77768.929      437.36077     -77331.569      194.92394      195.45059      335.16205    
     32400  -77744.435      437.73773     -77306.697      194.90783      195.42987      335.30633    
     32500  -77731.86       444.16916     -77287.691      194.89526      195.41685      335.45061    
     32600  -77712.114      441.86147     -77270.253      194.87831      195.39712      335.59489    
     32700  -77694.273      435.71937     -77258.554      194.86455      195.37979      335.73917    
     32800  -77674.783      430.38548     -77244.398      194.85439      195.36498      335.88345    
     32900  -77652.255      431.74534     -77220.51       194.84051      195.34058      336.02773    
     33000  -77639.635      442.47024     -77197.165      194.82871      195.32159      336.17201    
     33100  -77613.642      439.92959     -77173.712      194.81697      195.3055       336.31629    
     33200  -77590.726      437.22077     -77153.505      194.80206      195.28532      336.46057    
     33300  -77576.09       440.27145     -77135.818      194.78842      195.27223      336.60485    
     33400  -77559.703      438.8517      -77120.851      194.77251      195.25795      336.74913    
     33500  -77545.952      441.98898     -77103.963      194.75336      195.24092      336.89341    
     33600  -77520.445      438.53662     -77081.909      194.73513      195.23111      337.03769    
     33700  -77501.21       445.0575      -77056.152      194.71142      195.21758      337.18197    
     33800  -77485.728      447.49413     -77038.233      194.68661      195.20275      337.32625    
     33900  -77467.133      442.21592     -77024.918      194.66698      195.1908       337.47053    
     34000  -77445.45       437.83096     -77007.619      194.64567      195.17055      337.61481    
     34100  -77430.548      442.54361     -76988.004      194.62728      195.15476      337.75909    
     34200  -77405.556      437.67392     -76967.882      194.61113      195.14329      337.90337    
     34300  -77390.587      443.86671     -76946.72       194.59221      195.12607      338.04765    
     34400  -77368.012      442.24807     -76925.764      194.57881      195.11399      338.19193    
     34500  -77348.362      440.44127     -76907.921      194.56643      195.09611      338.3362     
     34600  -77335.926      442.06963     -76893.856      194.55382      195.07377      338.48048    
     34700  -77316.014      438.26578     -76877.748      194.54532      195.05759      338.62476    
     34800  -77290.479      437.66204     -76852.817      194.53229      195.03535      338.76904    
     34900  -77268.377      442.42856     -76825.949      194.51822      195.01453      338.91332    
     35000  -77250.381      443.7843      -76806.596      194.50569      195.00044      339.0576     
     35100  -77232.819      441.54116     -76791.277      194.48761      194.97807      339.20188    
     35200  -77210.347      433.79395     -76776.553      194.47078      194.95718      339.34616    
     35300  -77193.462      437.81569     -76755.646      194.45731      194.93779      339.49044    
     35400  -77166.656      440.77812     -76725.877      194.44184      194.90943      339.63472    
     35500  -77145.749      441.10974     -76704.639      194.43187      194.88698      339.779      
     35600  -77125.637      440.13175     -76685.506      194.42291      194.86507      339.92328    
     35700  -77105.075      438.83354     -76666.242      194.41144      194.84019      340.06756    
     35800  -77089.467      441.73049     -76647.737      194.40203      194.82328      340.21184    
     35900  -77063.736      435.6814      -76628.055      194.38902      194.80472      340.35612    
     36000  -77046.973      443.23032     -76603.743      194.37361      194.78587      340.5004     
     36100  -77023.563      444.51674     -76579.046      194.36118      194.77519      340.64468    
     36200  -76999.834      439.42446     -76560.409      194.34595      194.75778      340.78896    
     36300  -76986.742      436.52614     -76550.216      194.32982      194.73736      340.93324    
     36400  -76969.778      437.84784     -76531.93       194.31421      194.72115      341.07752    
     36500  -76943.751      436.63856     -76507.113      194.29231      194.69983      341.2218     
     36600  -76923.745      440.68297     -76483.062      194.2696       194.67956      341.36608    
     36700  -76903.559      440.39843     -76463.161      194.24829      194.66385      341.51036    
     36800  -76883.646      436.38336     -76447.263      194.22511      194.64492      341.65464    
     36900  -76872.952      435.90285     -76437.049      194.20429      194.62895      341.79892    
     37000  -76847.287      431.22926     -76416.058      194.18468      194.61489      341.9432     
     37100  -76830.061      439.3231      -76390.738      194.16466      194.59936      342.08748    
     37200  -76808.947      442.22559     -76366.721      194.14702      194.58587      342.23176    
     37300  -76786.808      440.99196     -76345.816      194.12984      194.57034      342.37604    
     37400  -76768.72       441.35018     -76327.37       194.11248      194.5523       342.52032    
     37500  -76752.082      437.19753     -76314.884      194.09642      194.537        342.6646     
     37600  -76736.84       439.06372     -76297.777      194.07881      194.51893      342.80888    
     37700  -76713.345      440.61553     -76272.729      194.05837      194.50041      342.95316    
     37800  -76686.558      439.59968     -76246.958      194.03716      194.48476      343.09744    
     37900  -76668.099      440.71985     -76227.379      194.01465      194.46404      343.24172    
     38000  -76650.629      441.20715     -76209.422      193.99467      194.44326      343.386      
     38100  -76626.631      437.88656     -76188.744      193.9765       194.42194      343.53028    
     38200  -76611.298      447.38123     -76163.916      193.95927      194.39562      343.67456    
     38300  -76583.542      442.49844     -76141.044      193.9461       194.37211      343.81884    
     38400  -76566.143      440.89356     -76125.25       193.93281      194.34812      343.96312    
     38500  -76543.153      431.67872     -76111.474      193.92155      194.32714      344.1074     
     38600  -76524.785      435.57856     -76089.207      193.91061      194.30646      344.25168    
     38700  -76504.934      440.89618     -76064.038      193.89738      194.2857       344.39596    
     38800  -76481.775      440.00524     -76041.77       193.88438      194.26655      344.54024    
     38900  -76450.513      432.15221     -76018.361      193.87053      194.24463      344.68452    
     39000  -76431.466      437.75081     -75993.715      193.8568       194.2207       344.8288     
     39100  -76413.877      443.07239     -75970.804      193.84288      194.19372      344.97308    
     39200  -76391.042      439.38566     -75951.656      193.82716      194.16483      345.11736    
     39300  -76376.359      437.23698     -75939.122      193.80964      194.1391       345.26164    
     39400  -76359.295      437.87924     -75921.416      193.78877      194.11577      345.40592    
     39500  -76339.649      441.73642     -75897.912      193.7657       194.09572      345.5502     
     39600  -76311.679      441.07272     -75870.606      193.74119      194.08062      345.69448    
     39700  -76288.999      440.38411     -75848.615      193.71866      194.06749      345.83876    
     39800  -76270.72       440.73491     -75829.985      193.69651      194.04973      345.98304    
     39900  -76249.657      437.01799     -75812.639      193.67534      194.03315      346.12732    
     40000  -76235.153      441.68448     -75793.469      193.65735      194.01899      346.2716     
     40100  -76209.228      436.80553     -75772.422      193.63694      193.99527      346.41588    
     40200  -76192.986      441.05896     -75751.927      193.61792      193.97211      346.56016    
     40300  -76165.515      434.38094     -75731.134      193.59909      193.95116      346.70444    
     40400  -76149.173      439.60052     -75709.572      193.5758       193.92769      346.84871    
     40500  -76124.198      437.21036     -75686.988      193.55206      193.90846      346.99299    
     40600  -76111.553      445.31812     -75666.235      193.52879      193.8903       347.13727    
     40700  -76092.594      441.43259     -75651.161      193.5029       193.86848      347.28155    
     40800  -76072.055      436.26031     -75635.795      193.48014      193.85248      347.42583    
     40900  -76054.472      439.27012     -75615.202      193.45745      193.83395      347.57011    
     41000  -76025.315      437.89589     -75587.419      193.43371      193.81046      347.71439    
     41100  -76005.009      442.72389     -75562.285      193.41446      193.79228      347.85867    
     41200  -75984.991      441.47276     -75543.518      193.39432      193.76797      348.00295    
     41300  -75965.773      438.69452     -75527.079      193.37631      193.74275      348.14723    
     41400  -75948.202      439.00484     -75509.197      193.36094      193.7211       348.29151    
     41500  -75923.668      435.95089     -75487.718      193.34337      193.69459      348.43579    
     41600  -75897.533      434.64047     -75462.892      193.32823      193.67143      348.58007    
     41700  -75879.852      439.89352     -75439.958      193.31324      193.64765      348.72435    
     41800  -75852.943      434.81851     -75418.125      193.29536      193.61905      348.86863    
     41900  -75833.382      437.82019     -75395.562      193.27944      193.59293      349.01291    
     42000  -75811.41       440.81419     -75370.595      193.26212      193.5623       349.15719    
     42100  -75786.044      440.3809      -75345.663      193.24343      193.53101      349.30147    
     42200  -75766.904      436.92792     -75329.976      193.22653      193.50685      349.44575    
     42300  -75753.497      438.06858     -75315.428      193.20651      193.48004      349.59003    
     42400  -75729.382      434.97548     -75294.406      193.18608      193.45574      349.73431    
     42500  -75710.132      439.49077     -75270.641      193.16694      193.43674      349.87859    
     42600  -75682.713      440.49024     -75242.222      193.14443      193.41517      350.02287    
     42700  -75661.874      443.5716      -75218.302      193.12151      193.39545      350.16715    
     42800  -75642.565      440.23009     -75202.335      193.10053      193.37664      350.31143    
     42900  -75627.887      444.43055     -75183.456      193.07931      193.35337      350.45571    
     43000  -75601.16       437.579       -75163.581      193.0592       193.32806      350.59999    
     43100  -75580.294      438.18504     -75142.109      193.03938      193.30371      350.74427    
     43200  -75558.985      441.48187     -75117.504      193.01557      193.27725      350.88855    
     43300  -75536.658      443.89946     -75092.759      192.99079      193.25403      351.03283    
     43400  -75518.554      441.92472     -75076.629      192.96451      193.2326       351.17711    
     43500  -75497.506      434.68386     -75062.822      192.93653      193.21012      351.32139    
     43600  -75483.606      441.21567     -75042.391      192.90953      193.19095      351.46567    
     43700  -75461.965      441.49665     -75020.469      192.88312      193.17246      351.60995    
     43800  -75439.632      443.52236     -74996.11       192.85796      193.15304      351.75423    
     43900  -75416.32       445.95093     -74970.369      192.83493      193.1326       351.89851    
     44000  -75389.563      438.53109     -74951.032      192.81209      193.10791      352.04279    
     44100  -75381.221      442.5991      -74938.622      192.79142      193.08348      352.18707    
     44200  -75354.172      434.43003     -74919.742      192.77091      193.05871      352.33135    
     44300  -75335.339      439.0151      -74896.324      192.74943      193.03048      352.47563    
     44400  -75310.741      440.96513     -74869.776      192.73024      193.00514      352.61991    
     44500  -75288.298      445.95601     -74842.342      192.70968      192.97795      352.76419    
     44600  -75265.601      451.22094     -74814.38       192.68893      192.9501       352.90847    
     44700  -75235.089      442.76126     -74792.327      192.6705       192.92427      353.05275    
     44800  -75220.237      438.5517      -74781.685      192.65182      192.89391      353.19703    
     44900  -75198.875      434.03832     -74764.837      192.63315      192.86274      353.34131    
     45000  -75186.413      441.14349     -74745.269      192.61602      192.83416      353.48559    
     45100  -75155.009      434.21642     -74720.792      192.59748      192.80346      353.62987    
     45200  -75138.241      445.98689     -74692.254      192.5783       192.77489      353.77415    
     45300  -75108.166      438.95756     -74669.208      192.56071      192.75178      353.91843    
     45400  -75090.568      439.77868     -74650.789      192.54046      192.72561      354.06271    
     45500  -75071.114      438.72332     -74632.391      192.51992      192.70021      354.20699    
     45600  -75050.052      439.3373      -74610.715      192.49966      192.67624      354.35127    
     45700  -75023.974      436.38277     -74587.591      192.47763      192.64778      354.49555    
     45800  -75004.094      439.9402      -74564.154      192.45562      192.61987      354.63983    
     45900  -74983.521      442.36738     -74541.154      192.43394      192.5939       354.78411    
     46000  -74962.228      439.73532     -74522.493      192.41073      192.56808      354.92839    
     46100  -74944.89       437.83177     -74507.059      192.38645      192.54616      355.07267    
     46200  -74924.794      438.25997     -74486.534      192.36156      192.52306      355.21695    
     46300  -74900.905      441.74889     -74459.156      192.33704      192.49972      355.36122    
     46400  -74872.936      441.46222     -74431.474      192.31321      192.47945      355.5055     
     46500  -74854.318      441.60206     -74412.716      192.28754      192.45639      355.64978    
     46600  -74835.921      440.1719      -74395.75       192.26396      192.43494      355.79406    
     46700  -74816.286      439.15064     -74377.135      192.24112      192.41424      355.93834    
     46800  -74803.901      445.81552     -74358.085      192.21658      192.38918      356.08262    
     46900  -74775.069      436.92503     -74338.144      192.1937       192.36582      356.2269     
     47000  -74752.139      434.13329     -74318.006      192.17029      192.34163      356.37118    
     47100  -74730.242      435.82888     -74294.414      192.14602      192.31841      356.51546    
     47200  -74707.688      439.69766     -74267.99       192.12134      192.29503      356.65974    
     47300  -74688.937      443.08774     -74245.849      192.09613      192.27213      356.80402    
     47400  -74669.924      439.02821     -74230.896      192.07121      192.25043      356.9483     
     47500  -74647.375      434.26393     -74213.111      192.04737      192.22588      357.09258    
     47600  -74628.149      439.05792     -74189.091      192.02593      192.1989       357.23686    
     47700  -74603.497      439.68879     -74163.808      192.00744      192.17082      357.38114    
     47800  -74581.857      440.48537     -74141.372      191.99187      192.14056      357.52542    
     47900  -74557.388      437.16882     -74120.219      191.97801      192.10812      357.6697     
     48000  -74540.838      441.72339     -74099.115      191.96433      192.07905      357.81398    
     48100  -74520.403      441.22499     -74079.178      191.94927      192.05132      357.95826    
     48200  -74495.319      435.70324     -74059.616      191.93277      192.02429      358.10254    
     48300  -74474.825      441.79668     -74033.028      191.91354      191.99813      358.24682    
     48400  -74443.943      439.04355     -74004.899      191.89227      191.97451      358.3911     
     48500  -74421.785      439.78743     -73981.997      191.86986      191.95097      358.53538    
     48600  -74402.882      439.76563     -73963.117      191.84658      191.9252       358.67966    
     48700  -74384.829      435.07057     -73949.758      191.82439      191.89797      358.82394    
     48800  -74364.549      437.51373     -73927.035      191.80449      191.86812      358.96822    
     48900  -74336.765      435.73621     -73901.028      191.78478      191.83824      359.1125     
     49000  -74313.43       436.32979     -73877.1        191.76481      191.8107       359.25678    
     49100  -74297.576      443.28958     -73854.287      191.74552      191.78504      359.40106    
     49200  -74275.171      441.33432     -73833.836      191.72339      191.76148      359.54534    
     49300  -74251.585      432.88986     -73818.696      191.69998      191.74189      359.68962    
     49400  -74240.958      442.52981     -73798.428      191.67683      191.72106      359.8339     
     49500  -74208.465      438.46105     -73770.004      191.6531       191.70172      359.97818    
     49600  -74186.692      444.38309     -73742.309      191.62878      191.68289      360.12246    
     49700  -74164.879      442.19993     -73722.679      191.60445      191.66046      360.26674    
     49800  -74143.39       439.79203     -73703.598      191.58113      191.63764      360.41102    
     49900  -74121.26       436.48656     -73684.773      191.55745      191.61443      360.5553     
     50000  -74108.208      440.80983     -73667.398      191.53357      191.58838      360.69958    
     50100  -74092.079      437.71107     -73654.368      191.51121      191.56484      360.84386    
     50200  -74065.516      435.36572     -73630.15       191.48799      191.54238      360.98814    
     50300  -74039.957      437.17089     -73602.786      191.46468      191.51903      361.13242    
     50400  -74017.318      439.36578     -73577.953      191.44377      191.49927      361.2767     
     50500  -73997.01       442.20142     -73554.809      191.42211      191.47858      361.42098    
     50600  -73975.039      441.2499      -73533.789      191.40295      191.45518      361.56526    
     50700  -73954.767      436.46655     -73518.301      191.38707      191.43049      361.70954    
     50800  -73932.34       432.99108     -73499.349      191.37065      191.40461      361.85382    
     50900  -73910.716      438.46577     -73472.25       191.35469      191.37611      361.9981     
     51000  -73888.019      444.32817     -73443.691      191.34008      191.34838      362.14238    
     51100  -73859.921      438.41871     -73421.502      191.3229       191.31982      362.28666    
     51200  -73840.164      438.84153     -73401.322      191.30497      191.28976      362.43094    
     51300  -73819.567      437.75093     -73381.816      191.28817      191.26202      362.57522    
     51400  -73799.801      433.07844     -73366.723      191.26924      191.23457      362.7195     
     51500  -73777.083      430.15        -73346.933      191.25002      191.20869      362.86378    
     51600  -73757.249      441.03024     -73316.219      191.23226      191.18427      363.00806    
     51700  -73729.871      439.20151     -73290.669      191.21359      191.15875      363.15234    
     51800  -73705.672      438.77036     -73266.901      191.1953       191.13423      363.29662    
     51900  -73686.359      440.10108     -73246.258      191.17814      191.11246      363.4409     
     52000  -73667.256      437.9041      -73229.351      191.15959      191.08962      363.58518    
     52100  -73643.6        433.85714     -73209.743      191.14073      191.06727      363.72946    
     52200  -73624.693      441.92776     -73182.765      191.1222       191.04729      363.87374    
     52300  -73601.41       450.76079     -73150.649      191.10237      191.0268       364.01801    
     52400  -73576.64       446.02245     -73130.618      191.08176      191.00551      364.16229    
     52500  -73553.062      439.09874     -73113.963      191.06155      190.98698      364.30657    
     52600  -73534.716      438.7415      -73095.975      191.03968      190.96566      364.45085    
     52700  -73514.751      438.39663     -73076.355      191.01814      190.94354      364.59513    
     52800  -73493.86       437.45918     -73056.401      190.99625      190.92258      364.73941    
     52900  -73474.229      435.888       -73038.341      190.97336      190.90066      364.88369    
     53000  -73455.961      434.96691     -73020.994      190.95102      190.8787       365.02797    
     53100  -73428.338      436.38067     -72991.957      190.92865      190.85793      365.17225    
     53200  -73406.672      443.36004     -72963.312      190.90641      190.83677      365.31653    
     53300  -73382.466      440.73965     -72941.727      190.88583      190.81592      365.46081    
     53400  -73360.734      436.25667     -72924.478      190.86626      190.79578      365.60509    
     53500  -73343.28       438.78394     -72904.496      190.84846      190.7744       365.74937    
     53600  -73316.968      436.76554     -72880.203      190.8327       190.75185      365.89365    
     53700  -73291.018      436.17864     -72854.84       190.8193       190.72994      366.03793    
     53800  -73271.325      439.59176     -72831.734      190.80582      190.7039       366.18221    
     53900  -73252.201      442.51526     -72809.686      190.79245      190.67624      366.32649    
     54000  -73230.33       441.77415     -72788.555      190.77877      190.65258      366.47077    
     54100  -73204.765      435.4718      -72769.293      190.76245      190.628        366.61505    
     54200  -73182.36       431.65701     -72750.703      190.74489      190.60484      366.75933    
     54300  -73168.748      436.59985     -72732.148      190.7278       190.58318      366.90361    
     54400  -73143.805      437.13212     -72706.673      190.71003      190.5568       367.04789    
     54500  -73114.019      439.79375     -72674.226      190.69309      190.53193      367.19217    
     54600  -73089.965      440.74382     -72649.221      190.67663      190.50716      367.33645    
     54700  -73067.394      438.25505     -72629.139      190.6598       190.48017      367.48073    
     54800  -73048.367      436.61783     -72611.749      190.64462      190.4568       367.62501    
     54900  -73031.622      440.84478     -72590.777      190.63028      190.43314      367.76929    
     55000  -73003.804      438.02022     -72565.784      190.61448      190.40732      367.91357    
     55100  -72976.924      436.18275     -72540.741      190.59954      190.38913      368.05785    
     55200  -72961.627      444.34305     -72517.284      190.58275      190.37183      368.20213    
     55300  -72938.293      441.7369      -72496.556      190.56399      190.35311      368.34641    
     55400  -72915.75       436.32219     -72479.428      190.54626      190.3401       368.49069    
     55500  -72897.278      436.19782     -72461.08       190.52627      190.32158      368.63497    
     55600  -72872.531      438.08351     -72434.448      190.50564      190.2994       368.77925    
     55700  -72849.544      443.84731     -72405.697      190.48699      190.28222      368.92353    
     55800  -72826.628      443.7146      -72382.913      190.46513      190.2577       369.06781    
     55900  -72802.055      439.41307     -72362.642      190.44468      190.23523      369.21209    
     56000  -72787.871      444.41635     -72343.455      190.4253       190.21518      369.35637    
     56100  -72762.662      438.36569     -72324.297      190.40482      190.19117      369.50065    
     56200  -72741.848      439.11255     -72302.735      190.38826      190.17332      369.64493    
     56300  -72720.849      436.53077     -72284.319      190.37055      190.15488      369.78921    
     56400  -72697.506      433.08409     -72264.422      190.35293      190.13724      369.93349    
     56500  -72673.041      438.22213     -72234.819      190.33743      190.12248      370.07777    
     56600  -72649.48       444.06832     -72205.411      190.31899      190.10207      370.22205    
     56700  -72627.552      444.768       -72182.784      190.30361      190.08209      370.36633    
     56800  -72604.509      441.55948     -72162.95       190.28944      190.0604       370.51061    
     56900  -72582.172      440.7614      -72141.41       190.27373      190.03373      370.65489    
     57000  -72559.442      440.02898     -72119.413      190.26068      190.01006      370.79917    
     57100  -72539.076      439.90691     -72099.169      190.24822      189.98458      370.94345    
     57200  -72512.383      433.87982     -72078.503      190.23487      189.95639      371.08773    
     57300  -72491.105      433.42504     -72057.68       190.22349      189.93454      371.23201    
     57400  -72471.912      439.265       -72032.647      190.21012      189.91176      371.37629    
     57500  -72442.943      441.29561     -72001.647      190.19586      189.89142      371.52057    
     57600  -72421.056      446.48375     -71974.572      190.18212      189.8739       371.66485    
     57700  -72393.432      438.33134     -71955.101      190.16702      189.85207      371.80913    
     57800  -72377.739      440.91309     -71936.826      190.15222      189.83049      371.95341    
     57900  -72349.395      436.97583     -71912.42       190.13705      189.80717      372.09769    
     58000  -72325.142      438.78148     -71886.36       190.12191      189.78334      372.24197    
     58100  -72307.485      443.99538     -71863.49       190.10587      189.76132      372.38625    
     58200  -72285.487      437.34402     -71848.143      190.08815      189.741        372.53052    
     58300  -72264.344      439.12361     -71825.22       190.0708       189.72367      372.6748     
     58400  -72239.556      440.54635     -71799.01       190.05137      189.70465      372.81908    
     58500  -72217.82       444.78748     -71773.033      190.0316       189.68923      372.96336    
     58600  -72191.904      439.43146     -71752.473      190.01178      189.67498      373.10764    
     58700  -72173.007      438.2165      -71734.79       189.99095      189.65643      373.25192    
     58800  -72149.799      438.45608     -71711.343      189.97401      189.64107      373.3962     
     58900  -72126.792      439.87239     -71686.92       189.95712      189.61842      373.54048    
     59000  -72106.296      441.163       -71665.133      189.94218      189.59381      373.68476    
     59100  -72083.768      437.30992     -71646.458      189.93001      189.5725       373.82904    
     59200  -72062.568      439.89122     -71622.676      189.91441      189.54842      373.97332    
     59300  -72035.619      442.67934     -71592.94       189.89836      189.53045      374.1176     
     59400  -72005.949      445.66317     -71560.286      189.88209      189.51506      374.26188    
     59500  -71981.24       442.15813     -71539.082      189.86301      189.49381      374.40616    
     59600  -71962.391      443.77565     -71518.615      189.84669      189.47994      374.55044    
     59700  -71941.478      441.76492     -71499.713      189.83008      189.46404      374.69472    
     59800  -71919.448      439.74582     -71479.702      189.81205      189.44197      374.839      
     59900  -71896.181      439.85596     -71456.325      189.7985       189.42594      374.98328    
     60000  -71878.786      444.59884     -71434.187      189.78328      189.39924      375.12756    
     60100  -71845.499      431.68091     -71413.818      189.77063      189.37134      375.27184    
     60200  -71824.799      433.3945      -71391.405      189.76223      189.34857      375.41612    
     60300  -71799.36       433.99015     -71365.37       189.74833      189.31669      375.5604     
     60400  -71777.902      446.94519     -71330.956      189.73778      189.29568      375.70468    
     60500  -71745.009      441.65261     -71303.356      189.72615      189.27473      375.84896    
     60600  -71724.546      440.84166     -71283.704      189.71106      189.2492       375.99324    
     60700  -71706.497      444.81996     -71261.677      189.69928      189.23474      376.13752    
     60800  -71679.474      441.25138     -71238.222      189.68359      189.21566      376.2818     
     60900  -71649.372      435.50637     -71213.866      189.66633      189.19781      376.42608    
     61000  -71632.795      442.60475     -71190.19       189.65037      189.18511      376.57036    
     61100  -71614.097      440.71031     -71173.387      189.63077      189.16371      376.71464    
     61200  -71583.024      436.29023     -71146.734      189.61458      189.1451       376.85892    
     61300  -71556.361      438.7597      -71117.602      189.59941      189.1233       377.0032     
     61400  -71535.209      442.80825     -71092.401      189.58169      189.09615      377.14748    
     61500  -71516.801      442.21385     -71074.587      189.56733      189.07654      377.29176    
     61600  -71487.705      436.30103     -71051.404      189.54984      189.054        377.43604    
     61700  -71463.024      437.78333     -71025.241      189.53253      189.03587      377.58032    
     61800  -71438.572      439.54064     -70999.032      189.51611      189.02063      377.7246     
     61900  -71418.622      440.07044     -70978.552      189.49758      189.00189      377.86888    
     62000  -71394.561      438.60779     -70955.953      189.48087      188.98974      378.01316    
     62100  -71368.815      438.72723     -70930.088      189.46328      188.97227      378.15744    
     62200  -71342.722      437.71635     -70905.006      189.44685      188.9535       378.30172    
     62300  -71323.596      437.89572     -70885.7        189.43253      188.93697      378.446      
     62400  -71299.349      436.48607     -70862.863      189.41647      188.91339      378.59028    
     62500  -71270.676      437.96993     -70832.706      189.4029       188.89079      378.73456    
     62600  -71244.592      444.76863     -70799.824      189.38898      188.86637      378.87884    
     62700  -71216.917      444.80409     -70772.113      189.37348      188.84356      379.02312    
     62800  -71196.11       440.59967     -70755.511      189.35832      188.82417      379.1674     
     62900  -71175.178      443.85465     -70731.323      189.34304      188.8037       379.31168    
     63000  -71150.051      443.28025     -70706.771      189.32919      188.78393      379.45596    
     63100  -71121.943      439.39728     -70682.546      189.31534      188.76134      379.60024    
     63200  -71098.801      440.31917     -70658.482      189.3025       188.73711      379.74452    
     63300  -71067.327      432.0929      -70635.234      189.29104      188.71367      379.8888     
     63400  -71043.37       430.88599     -70612.484      189.27832      188.68941      380.03308    
     63500  -71017.952      434.85494     -70583.097      189.26582      188.66774      380.17736    
     63600  -70992.58       445.89265     -70546.688      189.25146      188.64456      380.32164    
     63700  -70961.392      444.98804     -70516.404      189.23688      188.62407      380.46592    
     63800  -70939.141      444.83139     -70494.309      189.22223      188.60805      380.6102     
     63900  -70914.57       443.90209     -70470.668      189.20471      188.58868      380.75448    
     64000  -70885.403      438.9928      -70446.41       189.18786      188.57205      380.89876    
     64100  -70863.66       440.98846     -70422.672      189.17195      188.55609      381.04303    
     64200  -70832.989      435.52808     -70397.461      189.15475      188.53429      381.18731    
     64300  -70810.255      440.73043     -70369.524      189.13966      188.51307      381.33159    
     64400  -70784.438      440.83581     -70343.603      189.12466      188.48862      381.47587    
     64500  -70757.713      440.66896     -70317.044      189.10871      188.46591      381.62015    
     64600  -70726.548      437.19511     -70289.353      189.09234      188.44672      381.76443    
     64700  -70708.855      444.72677     -70264.128      189.07425      188.42662      381.90871    
     64800  -70678.189      439.09672     -70239.092      189.05729      188.41036      382.05299    
     64900  -70651.594      439.17735     -70212.417      189.03933      188.39409      382.19727    
     65000  -70624.881      439.29367     -70185.587      189.02095      188.3778       382.34155    
     65100  -70600.299      442.61634     -70157.682      189.0047       188.36398      382.48583    
     65200  -70569.325      439.36714     -70129.958      188.98883      188.34522      382.63011    
     65300  -70541.34       439.37574     -70101.964      188.97461      188.32245      382.77439    
     65400  -70517.883      442.24349     -70075.639      188.96245      188.29848      382.91867    
     65500  -70488.484      439.62507     -70048.859      188.94906      188.27019      383.06295    
     65600  -70465.433      444.78899     -70020.644      188.93551      188.24454      383.20723    
     65700  -70436.137      443.67658     -69992.46       188.92077      188.22293      383.35151    
     65800  -70406.347      441.5382      -69964.809      188.90456      188.20106      383.49579    
     65900  -70377.042      440.74698     -69936.295      188.88991      188.18306      383.64007    
     66000  -70354.709      446.40533     -69908.303      188.87463      188.16461      383.78435    
     66100  -70321.164      441.19251     -69879.971      188.8597       188.14458      383.92863    
     66200  -70298.241      447.04597     -69851.195      188.84663      188.1253       384.07291    
     66300  -70264.741      442.59247     -69822.149      188.83342      188.1026       384.21719    
     66400  -70243.453      448.61682     -69794.836      188.82055      188.07976      384.36147    
     66500  -70211.331      444.38435     -69766.946      188.80612      188.05522      384.50575    
     66600  -70180.453      442.02222     -69738.431      188.79142      188.03041      384.65003    
     66700  -70151.148      442.05491     -69709.093      188.77638      188.00784      384.79431    
     66800  -70126.434      445.57266     -69680.861      188.75941      187.98549      384.93859    
     66900  -70097.174      446.82021     -69650.354      188.74176      187.96595      385.08287    
     67000  -70065.54       444.07133     -69621.469      188.72424      187.94985      385.22715    
     67100  -70031.42       438.06207     -69593.358      188.70604      187.93301      385.37143    
     67200  -70006.308      441.36968     -69564.939      188.68942      187.91484      385.51571    
     67300  -69978.126      441.49885     -69536.627      188.67391      187.89687      385.65999    
     67400  -69945.974      438.61252     -69507.361      188.6582       187.87562      385.80427    
     67500  -69917.074      439.04546     -69478.028      188.64324      187.85362      385.94855    
     67600  -69891.121      444.10176     -69447.02       188.62837      187.83082      386.09283    
     67700  -69860.398      443.34669     -69417.051      188.61253      187.80794      386.23711    
     67800  -69829.107      441.32972     -69387.777      188.59709      187.78864      386.38139    
     67900  -69802.317      444.52822     -69357.789      188.57894      187.76606      386.52567    
     68000  -69771.223      443.07051     -69328.153      188.56143      187.74822      386.66995    
     68100  -69737.965      441.31869     -69296.646      188.54255      187.72892      386.81423    
     68200  -69710.935      444.71994     -69266.215      188.52452      187.71011      386.95851    
     68300  -69675.621      440.66328     -69234.957      188.51056      187.69216      387.10279    
     68400  -69648.9        443.57909     -69205.321      188.49633      187.66752      387.24707    
     68500  -69620.745      446.76026     -69173.984      188.48497      187.6462       387.39135    
     68600  -69586.12       443.29828     -69142.821      188.47281      187.62218      387.53563    
     68700  -69554.357      444.33916     -69110.018      188.4597       187.59743      387.67991    
     68800  -69521.362      441.80715     -69079.555      188.44636      187.57503      387.82419    
     68900  -69487.858      440.27841     -69047.58       188.43019      187.55142      387.96847    
     69000  -69459.963      444.89478     -69015.068      188.4151       187.53236      388.11275    
     69100  -69428.478      445.1853      -68983.293      188.3992       187.51276      388.25703    
     69200  -69396.509      446.15502     -68950.354      188.38162      187.492        388.40131    
     69300  -69358.551      441.62683     -68916.924      188.36559      187.47339      388.54559    
     69400  -69330.437      445.11423     -68885.322      188.3488       187.44963      388.68987    
     69500  -69300.678      445.57576     -68855.103      188.3327       187.42607      388.83415    
     69600  -69265.758      441.80114     -68823.957      188.31598      187.40218      388.97843    
     69700  -69227.035      435.32406     -68791.711      188.29945      187.37944      389.12271    
     69800  -69204.483      446.20822     -68758.275      188.28327      187.35934      389.26699    
     69900  -69167.903      442.27163     -68725.632      188.26625      187.34029      389.41127    
     70000  -69135.564      444.07036     -68691.493      188.25085      187.32407      389.55555    
     70100  -69106.009      447.28199     -68658.727      188.23518      187.30365      389.69982    
     70200  -69073.256      447.49456     -68625.761      188.22131      187.28203      389.8441     
     70300  -69037.56       446.08634     -68591.474      188.20652      187.25948      389.98838    
     70400  -69002.209      444.95617     -68557.253      188.18992      187.23645      390.13266    
     70500  -68968.923      445.31446     -68523.609      188.17421      187.2163       390.27694    
     70600  -68938.593      448.64878     -68489.944      188.15759      187.1947       390.42122    
     70700  -68905.885      450.10889     -68455.776      188.14009      187.17299      390.5655     
     70800  -68864.202      442.53212     -68421.67       188.12227      187.15277      390.70978    
     70900  -68840.24       453.38133     -68386.858      188.10427      187.1317       390.85406    
     71000  -68799.913      449.72661     -68350.186      188.08756      187.10976      390.99834    
     71100  -68764.81       448.14619     -68316.663      188.07307      187.08745      391.14262    
     71200  -68729.836      447.41238     -68282.424      188.06056      187.06572      391.2869     
     71300  -68696.697      449.79607     -68246.901      188.04796      187.04311      391.43118    
     71400  -68660.172      446.83149     -68213.34       188.03503      187.021        391.57546    
     71500  -68624.342      446.06985     -68178.273      188.02078      186.99921      391.71974    
     71600  -68592.607      451.73043     -68140.877      188.00487      186.97594      391.86402    
     71700  -68553.83       450.62187     -68103.208      187.98867      186.95428      392.0083     
     71800  -68516.574      447.33903     -68069.235      187.97071      186.93142      392.15258    
     71900  -68485.704      450.81061     -68034.894      187.95308      186.91093      392.29686    
     72000  -68447.369      449.22339     -67998.146      187.93548      186.89028      392.44114    
     72100  -68410.488      450.14164     -67960.346      187.91938      186.86897      392.58542    
     72200  -68377.446      454.35464     -67923.092      187.90636      186.84937      392.7297     
     72300  -68339.195      455.0797      -67884.116      187.89191      186.82722      392.87398    
     72400  -68298.134      450.625       -67847.509      187.87716      186.80686      393.01826    
     72500  -68263.021      454.42581     -67808.595      187.86254      186.78597      393.16254    
     72600  -68228.276      454.77914     -67773.496      187.84631      186.76145      393.30682    
     72700  -68192.696      456.86727     -67735.829      187.83078      186.73843      393.4511     
     72800  -68158.268      457.23891     -67701.029      187.81386      186.71303      393.59538    
     72900  -68120.247      456.99814     -67663.249      187.79687      186.69054      393.73966    
     73000  -68088.934      462.20478     -67626.729      187.77947      186.67035      393.88394    
     73100  -68049.411      460.26355     -67589.148      187.76266      186.65101      394.02822    
     73200  -68010.331      459.12227     -67551.208      187.74657      186.63273      394.1725     
     73300  -67975.253      462.91118     -67512.342      187.73018      186.61361      394.31678    
     73400  -67933.06       458.52426     -67474.536      187.71525      186.59264      394.46106    
     73500  -67894.192      460.18497     -67434.007      187.70086      186.56734      394.60534    
     73600  -67854.289      461.13541     -67393.154      187.68762      186.54231      394.74962    
     73700  -67812.911      460.70389     -67352.207      187.67314      186.51647      394.8939     
     73800  -67777.136      462.031       -67315.105      187.65805      186.49282      395.03818    
     73900  -67738.952      459.52325     -67279.429      187.64213      186.47161      395.18246    
     74000  -67699.459      463.73865     -67235.721      187.62496      186.45227      395.32674    
     74100  -67661.192      469.06765     -67192.124      187.6081       186.43282      395.47102    
     74200  -67622.797      470.40601     -67152.391      187.59194      186.41151      395.6153     
     74300  -67578.201      464.87847     -67113.322      187.57634      186.38845      395.75958    
     74400  -67544.924      468.92785     -67075.996      187.56056      186.3642       395.90386    
     74500  -67498.116      463.79082     -67034.325      187.54541      186.34184      396.04814    
     74600  -67466.67       475.24678     -66991.423      187.53014      186.31897      396.19242    
     74700  -67420.237      473.19718     -66947.04       187.51434      186.29544      396.3367     
     74800  -67375.673      476.10885     -66899.564      187.4991       186.27392      396.48098    
     74900  -67337.264      476.63122     -66860.632      187.48338      186.25152      396.62526    
     75000  -67298.085      481.1923      -66816.893      187.46855      186.23032      396.76954    
     75100  -67255.277      483.59627     -66771.681      187.45377      186.20977      396.91382    
     75200  -67207.844      477.18522     -66730.659      187.4379       186.18769      397.0581     
     75300  -67176.118      486.94403     -66689.174      187.42152      186.16484      397.20238    
     75400  -67119.095      482.81868     -66636.276      187.40487      186.14188      397.34666    
     75500  -67083.134      482.21847     -66600.915      187.38831      186.1182       397.49094    
     75600  -67048.62       489.32247     -66559.297      187.373        186.09485      397.63522    
     75700  -67000.144      485.05457     -66515.089      187.35806      186.07121      397.7795     
     75800  -66955.296      489.99114     -66465.305      187.34291      186.0482       397.92378    
     75900  -66915.864      497.54487     -66418.32       187.32813      186.02562      398.06806    
     76000  -66882.54       507.89417     -66374.646      187.31301      186.00336      398.21233    
     76100  -66976.846      637.88158     -66338.964      187.29739      185.98205      398.35661    
     76200  -67393.466      991.44057     -66402.025      187.28453      185.96529      398.50089    
     76300  -68162.921      1414.1638     -66748.757      187.27586      185.95215      398.64517    
     76400  -69382.258      1875.6372     -67506.621      187.27267      185.94255      398.78945    
     76500  -70832.27       2068.1125     -68764.157      187.27736      185.95218      398.93373    
     76600  -72146.571      1937.2457     -70209.325      187.28802      185.97823      399.07801    
     76700  -73247.272      1705.7986     -71541.474      187.29252      186.01069      399.22229    
     76800  -74224.623      1515.7965     -72708.826      187.30034      186.05471      399.36657    
     76900  -75040.157      1330.8642     -73709.293      187.31603      186.10879      399.51085    
     77000  -75746.32       1187.0756     -74559.244      187.33155      186.16339      399.65513    
     77100  -76362.986      1074.311      -75288.675      187.34364      186.21541      399.79941    
     77200  -76930.731      996.70266     -75934.028      187.35529      186.26695      399.94369    
     77300  -77450.849      934.80164     -76516.047      187.36837      186.31903      400.08797    
     77400  -77932.808      884.16578     -77048.643      187.38091      186.3699       400.23225    
     77500  -78380.951      841.77083     -77539.18       187.39419      186.42147      400.37653    
     77600  -78800.05       805.66989     -77994.38       187.40829      186.47088      400.52081    
     77700  -79195.868      775.31331     -78420.555      187.42324      186.5182       400.66509    
     77800  -79574.923      751.64008     -78823.283      187.43899      186.5642       400.80937    
     77900  -79939.519      732.5         -79207.019      187.45454      186.60887      400.95365    
     78000  -80261.708      692.83827     -79568.87       187.47012      186.65395      401.09793    
     78100  -80521.8        636.35614     -79885.443      187.48533      186.70095      401.24221    
     78200  -80735.45       583.78821     -80151.662      187.49964      186.74823      401.38649    
     78300  -80907.396      536.14261     -80371.254      187.51453      186.79676      401.53077    
     78400  -81039.675      492.74419     -80546.931      187.53058      186.84791      401.67505    
     78500  -81137.432      456.53821     -80680.894      187.54681      186.90258      401.81933    
     78600  -81199.842      426.69337     -80773.148      187.56361      186.96446      401.96361    
     78700  -81223.906      406.02154     -80817.884      187.58113      187.03274      402.10789    
     78800  -81208.649      406.50702     -80802.142      187.59817      187.10219      402.25217    
     78900  -81162.642      426.54703     -80736.095      187.61234      187.16559      402.39645    
     79000  -81076.001      415.33203     -80660.669      187.62728      187.22475      402.54073    
     79100  -80958.122      384.37223     -80573.75       187.6445       187.28025      402.68501    
     79200  -80837.058      370.20126     -80466.857      187.6563       187.31686      402.82929    
     79300  -80747.502      395.207       -80352.295      187.66594      187.34044      402.97357    
     79400  -80668.627      423.4131      -80245.214      187.68839      187.33747      403.11785    
     79500  -80638.086      474.16679     -80163.919      187.72457      187.28655      403.26213    
     79600  -80612.529      460.2866      -80152.242      187.78233      187.23878      403.40641    
     79700  -80601.1        425.07246     -80176.027      187.8454       187.2131       403.55069    
     79800  -80572.234      403.84182     -80168.392      187.90801      187.21309      403.69497    
     79900  -80544.36       435.54142     -80108.819      187.96341      187.23307      403.83925    
     80000  -80519.008      466.70944     -80052.298      188.00751      187.27003      403.98353    
     80100  -80502.453      454.86723     -80047.585      188.03201      187.30882      404.12781    
     80200  -80525.065      449.03006     -80076.035      188.04131      187.36145      404.27209    
     80300  -80547.702      434.71862     -80112.983      188.05215      187.4217       404.41637    
     80400  -80542.299      414.38312     -80127.916      188.05985      187.47918      404.56065    
     80500  -80541.39       440.41142     -80100.979      188.05962      187.5312       404.70493    
     80600  -80552.001      469.62494     -80082.376      188.06216      187.57694      404.84921    
     80700  -80559.916      441.56139     -80118.354      188.07195      187.61514      404.99349    
     80800  -80578.08       420.43593     -80157.644      188.08702      187.64796      405.13777    
     80900  -80590.666      425.05737     -80165.609      188.10838      187.68351      405.28205    
     81000  -80601.887      449.96217     -80151.925      188.1295       187.71466      405.42633    
     81100  -80611.63       458.60468     -80153.026      188.15025      187.73613      405.57061    
     81200  -80630.795      442.84037     -80187.954      188.17187      187.757        405.71489    
     81300  -80658.671      428.33001     -80230.341      188.18906      187.78272      405.85917    
     81400  -80678.845      424.03376     -80254.812      188.19955      187.80977      406.00345    
     81500  -80684.849      432.82858     -80252.02       188.20114      187.84367      406.14773    
     81600  -80698.928      455.52283     -80243.405      188.19762      187.8689       406.29201    
     81700  -80715.652      453.24988     -80262.402      188.19825      187.90181      406.43629    
     81800  -80738.731      436.95199     -80301.779      188.19174      187.93724      406.58057    
     81900  -80768.39       429.21728     -80339.173      188.17068      187.96965      406.72484    
     82000  -80800.846      435.8532      -80364.993      188.14624      188.00696      406.86912    
     82100  -80814.295      433.33466     -80380.96       188.12218      188.0386       407.0134     
     82200  -80834.137      446.16394     -80387.973      188.10102      188.06975      407.15768    
     82300  -80852.164      445.90983     -80406.254      188.08442      188.10684      407.30196    
     82400  -80871.27       439.59634     -80431.673      188.06529      188.14213      407.44624    
     82500  -80882.232      430.7578      -80451.474      188.04955      188.18008      407.59052    
     82600  -80893.408      436.85438     -80456.554      188.03688      188.21736      407.7348     
     82700  -80902.736      441.08926     -80461.647      188.02039      188.24554      407.87908    
     82800  -80913.12       441.47016     -80471.649      188.00431      188.27785      408.02336    
     82900  -80919.817      436.09494     -80483.722      187.99335      188.31628      408.16764    
     83000  -80925.91       434.85562     -80491.054      187.97966      188.35018      408.31192    
     83100  -80928.098      435.61517     -80492.483      187.97019      188.38978      408.4562     
     83200  -80914.181      430.94229     -80483.239      187.95605      188.42692      408.60048    
     83300  -80893.486      434.73159     -80458.754      187.9387       188.45569      408.74476    
     83400  -80867.64       440.65008     -80426.99       187.9315       188.48892      408.88904    
     83500  -80853.668      452.11427     -80401.553      187.92533      188.52331      409.03332    
     83600  -80852.065      456.01039     -80396.054      187.91708      188.5498       409.1776     
     83700  -80847.259      432.0089      -80415.25       187.91471      188.57998      409.32188    
     83800  -80849.393      428.84191     -80420.551      187.91099      188.60972      409.46616    
     83900  -80851.063      443.8713      -80407.192      187.90854      188.63778      409.61044    
     84000  -80858.403      457.49437     -80400.909      187.9067       188.66323      409.75472    
     84100  -80870.037      445.76604     -80424.271      187.90186      188.68823      409.899      
     84200  -80900.528      437.62849     -80462.899      187.89283      188.71815      410.04328    
     84300  -80908.476      418.21366     -80490.262      187.88201      188.74484      410.18756    
     84400  -80915.008      430.34151     -80484.667      187.8765       188.76934      410.33184    
     84500  -80916.877      454.61342     -80462.264      187.87618      188.7914       410.47612    
     84600  -80901.231      443.56446     -80457.667      187.88235      188.81767      410.6204     
     84700  -80895.238      433.70483     -80461.534      187.89086      188.84087      410.76468    
     84800  -80877.501      423.90839     -80453.593      187.90024      188.86196      410.90896    
     84900  -80863.633      439.72125     -80423.912      187.90555      188.87883      411.05324    
     85000  -80837.69       445.32367     -80392.366      187.90614      188.89345      411.19752    
     85100  -80816.744      445.32217     -80371.422      187.91673      188.91439      411.3418     
     85200  -80824.209      452.65603     -80371.553      187.9284       188.93796      411.48608    
     85300  -80834.969      438.3699      -80396.599      187.9471       188.9611       411.63036    
     85400  -80855.098      432.0763      -80423.022      187.97133      188.98549      411.77464    
     85500  -80858.72       428.3953      -80430.324      187.98851      189.00494      411.91892    
     85600  -80860.642      442.45992     -80418.182      188.01157      189.02643      412.0632     
     85700  -80861.289      450.92709     -80410.362      188.03137      189.04616      412.20748    
     85800  -80864.096      442.07115     -80422.025      188.05187      189.0645       412.35176    
     85900  -80866.731      428.76055     -80437.97       188.0826       189.09213      412.49604    
     86000  -80866.95       428.67071     -80438.28       188.1091       189.11589      412.64032    
     86100  -80863.007      439.8817      -80423.126      188.13158      189.13686      412.7846     
     86200  -80847.239      441.90984     -80405.329      188.15576      189.16376      412.92888    
     86300  -80836.48       443.90128     -80392.579      188.17027      189.18702      413.07316    
     86400  -80829.965      440.56195     -80389.403      188.18689      189.22018      413.21744    
     86500  -80821.982      435.26018     -80386.721      188.20325      189.25789      413.36172    
     86600  -80816.976      442.20639     -80374.769      188.20843      189.28779      413.506      
     86700  -80813.475      447.2942      -80366.181      188.21779      189.32428      413.65028    
     86800  -80823.598      449.21675     -80374.381      188.21932      189.35232      413.79456    
     86900  -80831.112      435.92994     -80395.182      188.22027      189.38018      413.93884    
     87000  -80842.743      436.90641     -80405.837      188.2256       189.41808      414.08312    
     87100  -80847.855      440.31024     -80407.545      188.22289      189.4488       414.2274     
     87200  -80854.716      443.56309     -80411.153      188.21942      189.48548      414.37168    
     87300  -80859.472      439.29284     -80420.179      188.2136       189.52679      414.51596    
     87400  -80861.022      434.37743     -80426.644      188.20761      189.56284      414.66024    
     87500  -80853.983      430.59138     -80423.392      188.20476      189.59831      414.80452    
     87600  -80845.442      436.17719     -80409.265      188.20688      189.63613      414.9488     
     87700  -80839.211      445.76254     -80393.449      188.20673      189.67015      415.09308    
     87800  -80822.046      435.66122     -80386.385      188.20604      189.70317      415.23736    
     87900  -80825.598      440.4905      -80385.107      188.20873      189.73896      415.38163    
     88000  -80815.966      434.64991     -80381.316      188.20803      189.76609      415.52591    
     88100  -80812.364      439.80767     -80372.557      188.20837      189.79172      415.67019    
     88200  -80812.139      446.94447     -80365.194      188.21738      189.81899      415.81447    
     88300  -80816.507      446.50493     -80370.002      188.22526      189.84306      415.95875    
     88400  -80826.75       439.57022     -80387.18       188.23399      189.86988      416.10303    
     88500  -80837.382      434.62684     -80402.755      188.24362      189.89663      416.24731    
     88600  -80846.101      435.48275     -80410.618      188.25003      189.92139      416.39159    
     88700  -80848.154      437.54823     -80410.605      188.25924      189.95069      416.53587    
     88800  -80852.267      444.25348     -80408.014      188.27133      189.98245      416.68015    
     88900  -80845.889      440.28422     -80405.605      188.28196      190.00968      416.82443    
     89000  -80836.746      438.99222     -80397.754      188.29697      190.03965      416.96871    
     89100  -80828.405      439.05041     -80389.354      188.31311      190.07187      417.11299    
     89200  -80827.59       442.68028     -80384.91       188.32423      190.10188      417.25727    
     89300  -80824.995      440.50685     -80384.488      188.33581      190.14008      417.40155    
     89400  -80824.116      439.28216     -80384.834      188.34742      190.17929      417.54583    
     89500  -80823.569      440.6919      -80382.877      188.35598      190.21805      417.69011    
     89600  -80822.432      440.64699     -80381.785      188.36858      190.25624      417.83439    
     89700  -80828.364      444.10924     -80384.254      188.3828       190.29107      417.97867    
     89800  -80836.302      441.86768     -80394.434      188.39892      190.3251       418.12295    
     89900  -80839.919      431.1715      -80408.748      188.41559      190.35947      418.26723    
     90000  -80838.808      430.19606     -80408.612      188.43311      190.39507      418.41151    
     90100  -80834.291      438.06619     -80396.225      188.44909      190.43226      418.55579    
     90200  -80831.678      447.459       -80384.219      188.46619      190.47191      418.70007    
     90300  -80831.785      446.35153     -80385.433      188.48925      190.51339      418.84435    
     90400  -80833.509      436.32086     -80397.188      188.50867      190.55019      418.98863    
     90500  -80838.849      432.58223     -80406.267      188.53123      190.58852      419.13291    
     90600  -80823.79       425.41275     -80398.377      188.54797      190.62987      419.27719    
     90700  -80814.329      441.46346     -80372.866      188.55625      190.66843      419.42147    
     90800  -80802.473      452.73496     -80349.738      188.56413      190.71033      419.56575    
     90900  -80800.263      451.33523     -80348.928      188.56684      190.74962      419.71003    
     91000  -80802.169      435.65164     -80366.517      188.56982      190.78703      419.85431    
     91100  -80814.115      433.55663     -80380.558      188.58567      190.82831      419.99859    
     91200  -80815.612      434.20666     -80381.405      188.59971      190.86285      420.14287    
     91300  -80821.538      450.97058     -80370.568      188.61407      190.89558      420.28715    
     91400  -80810.967      446.71573     -80364.252      188.63354      190.93649      420.43143    
     91500  -80818.62       445.17695     -80373.443      188.64394      190.97014      420.57571    
     91600  -80822.89       432.70204     -80390.188      188.65245      191.00472      420.71999    
     91700  -80829.775      430.93594     -80398.839      188.66363      191.04085      420.86427    
     91800  -80828.549      435.04794     -80393.501      188.67046      191.06997      421.00855    
     91900  -80822.508      442.79236     -80379.716      188.68148      191.10359      421.15283    
     92000  -80822.071      450.66823     -80371.403      188.69429      191.13859      421.29711    
     92100  -80812.3        436.50551     -80375.794      188.70274      191.1692       421.44139    
     92200  -80817.741      435.3342      -80382.407      188.71688      191.20436      421.58567    
     92300  -80822.001      437.51212     -80384.489      188.73165      191.23769      421.72995    
     92400  -80821.148      437.16076     -80383.988      188.74178      191.2665       421.87423    
     92500  -80820.278      439.17864     -80381.099      188.75395      191.29712      422.01851    
     92600  -80821.761      443.87115     -80377.89       188.76526      191.32688      422.16279    
     92700  -80823.414      442.60302     -80380.811      188.77624      191.35551      422.30707    
     92800  -80827.414      437.82048     -80389.594      188.79483      191.38856      422.45135    
     92900  -80830.658      434.71235     -80395.946      188.81001      191.41756      422.59563    
     93000  -80831.791      435.82398     -80395.967      188.82778      191.44711      422.73991    
     93100  -80827.292      437.83098     -80389.461      188.84831      191.4786       422.88419    
     93200  -80821.379      440.37502     -80381.004      188.86491      191.50722      423.02847    
     93300  -80820.15       440.22613     -80379.924      188.88699      191.53691      423.17275    
     93400  -80824.183      437.30524     -80386.878      188.90515      191.56387      423.31703    
     93500  -80825.685      431.93801     -80393.747      188.92561      191.59255      423.46131    
     93600  -80825.316      434.51613     -80390.8        188.94935      191.61788      423.60559    
     93700  -80815.422      439.17503     -80376.247      188.96905      191.63816      423.74987    
     93800  -80808.068      443.2846      -80364.784      188.99766      191.66585      423.89414    
     93900  -80807.628      442.48208     -80365.146      189.02568      191.69001      424.03842    
     94000  -80812.46       435.62725     -80376.833      189.04406      191.71388      424.1827     
     94100  -80815.717      429.57148     -80386.145      189.06663      191.74264      424.32698    
     94200  -80817.161      434.81841     -80382.343      189.08514      191.76731      424.47126    
     94300  -80813.56       440.34658     -80373.213      189.0957       191.78786      424.61554    
     94400  -80811.183      441.96959     -80369.213      189.11155      191.80902      424.75982    
     94500  -80816.274      442.89798     -80373.376      189.12948      191.83355      424.9041     
     94600  -80818.706      436.61932     -80382.087      189.14627      191.85714      425.04838    
     94700  -80821.679      434.67656     -80387.003      189.16399      191.88417      425.19266    
     94800  -80817.949      434.36475     -80383.584      189.1795       191.9137       425.33694    
     94900  -80813.513      439.7302      -80373.783      189.18892      191.9396       425.48122    
     95000  -80811.094      443.68636     -80367.408      189.19929      191.96988      425.6255     
     95100  -80817.629      447.8733      -80369.755      189.20894      192.00073      425.76978    
     95200  -80817.326      437.80584     -80379.52       189.22339      192.02919      425.91406    
     95300  -80820.697      435.1867      -80385.51       189.24093      192.05878      426.05834    
     95400  -80813.431      434.10975     -80379.322      189.25611      192.08395      426.20262    
     95500  -80813.379      445.58929     -80367.789      189.27066      192.10871      426.3469     
     95600  -80814.9        451.24997     -80363.65       189.27968      192.13185      426.49118    
     95700  -80818.51       444.59635     -80373.914      189.28569      192.15254      426.63546    
     95800  -80823.199      434.32736     -80388.872      189.29514      192.17585      426.77974    
     95900  -80830.565      435.90702     -80394.658      189.3021       192.19925      426.92402    
     96000  -80823.642      437.58552     -80386.056      189.31049      192.22217      427.0683     
     96100  -80820.127      447.62085     -80372.506      189.32122      192.24789      427.21258    
     96200  -80812.014      443.98703     -80368.027      189.3341       192.27438      427.35686    
     96300  -80825.068      446.6076      -80378.46       189.34436      192.29653      427.50114    
     96400  -80830.355      436.28286     -80394.072      189.35148      192.31516      427.64542    
     96500  -80829.356      431.17495     -80398.181      189.36199      192.33492      427.7897     
     96600  -80825.278      436.58749     -80388.691      189.36971      192.35517      427.93398    
     96700  -80822.905      447.62448     -80375.28       189.37597      192.37715      428.07826    
     96800  -80817.182      444.99494     -80372.187      189.3862       192.40294      428.22254    
     96900  -80827.51       445.34378     -80382.166      189.39698      192.42786      428.36682    
     97000  -80829.039      436.38314     -80392.656      189.40647      192.4519       428.5111     
     97100  -80831.423      436.97324     -80394.449      189.42306      192.4808       428.65538    
     97200  -80830.194      440.25958     -80389.934      189.43523      192.50143      428.79966    
     97300  -80823.594      438.21316     -80385.381      189.4474       192.52339      428.94394    
     97400  -80824.886      442.26912     -80382.617      189.46553      192.54398      429.08822    
     97500  -80833.008      446.51843     -80386.49       189.47844      192.55852      429.2325     
     97600  -80833.827      437.10813     -80396.719      189.49231      192.57934      429.37678    
     97700  -80837.135      437.19541     -80399.94       189.50588      192.60273      429.52106    
     97800  -80825.705      433.87453     -80391.83       189.51298      192.62401      429.66534    
     97900  -80824.002      443.41529     -80380.587      189.52518      192.6526       429.80962    
     98000  -80819.629      444.86264     -80374.767      189.54115      192.67753      429.9539     
     98100  -80818.283      437.94718     -80380.336      189.55232      192.69609      430.09818    
     98200  -80832.237      441.78849     -80390.448      189.56944      192.72332      430.24246    
     98300  -80828.485      433.05619     -80395.429      189.58417      192.74682      430.38674    
     98400  -80823.688      433.13976     -80390.548      189.59565      192.76779      430.53102    
     98500  -80827.365      447.21698     -80380.148      189.61216      192.79477      430.6753     
     98600  -80824.585      447.23131     -80377.353      189.62157      192.81661      430.81958    
     98700  -80829.653      443.1145      -80386.539      189.63079      192.8404       430.96386    
     98800  -80824.787      427.45032     -80397.337      189.6441       192.86758      431.10814    
     98900  -80828.88       430.34002     -80398.54       189.65061      192.88959      431.25242    
     99000  -80828.257      441.21146     -80387.046      189.66192      192.91652      431.3967     
     99100  -80822.944      449.12502     -80373.819      189.67726      192.94654      431.54098    
     99200  -80819.915      446.69043     -80373.224      189.68531      192.97001      431.68526    
     99300  -80826.503      439.80538     -80386.698      189.70114      192.99684      431.82954    
     99400  -80832.826      433.23743     -80399.589      189.71372      193.02062      431.97382    
     99500  -80834.319      433.32902     -80400.99       189.72112      193.03869      432.1181     
     99600  -80835.487      443.88889     -80391.598      189.7365       193.06579      432.26238    
     99700  -80822.495      440.55837     -80381.937      189.74509      193.0884       432.40666    
     99800  -80828.437      446.21029     -80382.226      189.75168      193.11241      432.55093    
     99900  -80828.195      437.18581     -80391.009      189.76505      193.14283      432.69521    
    100000  -80834.408      433.93141     -80400.477      189.77323      193.16631      432.83949    
Loop time of 33710.4 on 12 procs for 100000 steps with 11340 atoms

Performance: 0.256 ns/day, 93.640 hours/ns, 2.966 timesteps/s, 33.639 katom-step/s
40.3% CPU use with 12 MPI tasks x 1 OpenMP threads

MPI task timing breakdown:
Section |  min time  |  avg time  |  max time  |%varavg| %total
---------------------------------------------------------------
Pair    | 2697.5     | 3295.7     | 3933.5     | 608.7 |  9.78
Neigh   | 28.71      | 42.047     | 51.604     | 131.5 |  0.12
Comm    | 4987.7     | 5803.5     | 6651.9     | 583.5 | 17.22
Output  | 92.639     | 94.894     | 97.156     |  15.3 |  0.28
Modify  | 21526      | 21769      | 21979      | 108.8 | 64.58
Other   |            | 2706       |            |       |  8.03

Nlocal:            945 ave        1467 max         162 min
Histogram: 1 0 2 0 2 0 2 1 1 3
Nghost:           3255 ave        4939 max        1360 min
Histogram: 3 1 0 0 0 1 2 2 2 1
Neighs:              0 ave           0 max           0 min
Histogram: 12 0 0 0 0 0 0 0 0 0

Total # of neighbors = 0
Ave neighs/atom = 0
Neighbor list builds = 847
Dangerous builds = 0
Total wall time: 9:21:52
