LAMMPS (2 Aug 2023 - Update 3)
OMP_NUM_THREADS environment is not set. Defaulting to 1 thread. (src/comm.cpp:98)
  using 1 OpenMP thread(s) per MPI task

# 1------general---------------
units                             metal      #单位为lammps 中的metel 类型
dimension                    3          #模拟的维度 三维
boundary                    p p p      #周期边界条件
atom_style                  atomic   #原子类型自动
atom_modify              map array sort 100 2.0
neighbor                    3.0 bin
neigh_modify            every 1 delay 0 check yes
#2 -----global variable-------定义全局变量，方便统一修改；
variable temperature equal 300
variable tstep equal 0.001
variable pressure equal 0
variable thermalstep equal 100
variable dumpstep equal 1000
variable relaxtime equal 0
variable totaltime equal 100000
variable deformrate equal 5e-3
#3 -------model------------
#box tilt large
read_data     1.lmp
Reading data file ...
  orthogonal box = (-100 -100 -2.3312515) to (100 100 46.166171)
  8 by 8 by 1 MPI processor grid
  reading atoms ...
  1480 atoms
  read_data CPU = 0.006 seconds

write_data z.data
System init for write_data ...
WARNING: Communication cutoff is 0.0. No ghost atoms will be generated. Atoms may get lost. (src/comm_brick.cpp:210)
pair_style hybrid airebo 3.0 airebo 3.0 airebo 3.0 lj/cut 10
pair_coeff * * airebo 1 CH.airebo C NULL NULL
Reading airebo potential file CH.airebo with DATE: 2011-10-25
pair_coeff * * airebo 2 CH.airebo NULL C NULL
Reading airebo potential file CH.airebo with DATE: 2011-10-25
pair_coeff * * airebo 3 CH.airebo NULL NULL C
Reading airebo potential file CH.airebo with DATE: 2011-10-25
pair_coeff 1 2 lj/cut 0.00456 3.431
pair_coeff 1 3 lj/cut 0.00456 3.431
pair_coeff 2 3 lj/cut 0.00456 3.431

# 5------minimize -----------
min_style      sd
minimize       1.0e-4 1.0e-6 100 1000
Neighbor list info ...
  update: every = 1 steps, delay = 0 steps, check = yes
  max neighbors/atom: 2000, page size: 100000
  master list distance cutoff = 13.2
  ghost atom cutoff = 13.2
  binsize = 6.6, bins = 31 31 8
  6 neighbor lists, perpetual/occasional/extra = 6 0 0
  (1) pair airebo, perpetual, skip from (5)
      attributes: full, newton on, ghost
      pair build: skip/ghost
      stencil: none
      bin: none
  (2) pair airebo, perpetual, skip from (5)
      attributes: full, newton on, ghost
      pair build: skip/ghost
      stencil: none
      bin: none
  (3) pair airebo, perpetual, skip from (5)
      attributes: full, newton on, ghost
      pair build: skip/ghost
      stencil: none
      bin: none
  (4) pair lj/cut, perpetual, skip from (6)
      attributes: half, newton on, cut 13
      pair build: skip
      stencil: none
      bin: none
  (5) neighbor class addition, perpetual
      attributes: full, newton on, ghost
      pair build: full/bin/ghost
      stencil: full/ghost/bin/3d
      bin: standard
  (6) neighbor class addition, perpetual
      attributes: half, newton on, cut 13
      pair build: half/bin/atomonly/newton
      stencil: half/bin/3d
      bin: standard
Per MPI rank memory allocation (min/avg/max) = 9.689 | 9.772 | 11.09 Mbytes
   Step          Temp          E_pair         E_mol          TotEng         Press     
         0   0             -10741.016      0             -10741.016      378.42796    
         4   0             -10767.587      0             -10767.587      50.287364    
Loop time of 0.0494031 on 64 procs for 4 steps with 1480 atoms

98.6% CPU use with 64 MPI tasks x 1 OpenMP threads

Minimization stats:
  Stopping criterion = energy tolerance
  Energy initial, next-to-last, final = 
     -10741.0158421855  -10766.9306435539  -10767.5874841826
  Force two-norm initial, final = 53.329107 8.5444687
  Force max component initial, final = 3.434546 0.53009031
  Final line search alpha, max atom move = 0.13584282 0.072008965
  Iterations, force evaluations = 4 8

MPI task timing breakdown:
Section |  min time  |  avg time  |  max time  |%varavg| %total
---------------------------------------------------------------
Pair    | 6.755e-06  | 0.0028631  | 0.047152   |  20.7 |  5.80
Neigh   | 0          | 0          | 0          |   0.0 |  0.00
Comm    | 2.484e-06  | 0.00012714 | 0.0030013  |   0.0 |  0.26
Output  | 0          | 0          | 0          |   0.0 |  0.00
Modify  | 0          | 0          | 0          |   0.0 |  0.00
Other   |            | 0.04641    |            |       | 93.95

Nlocal:         23.125 ave         390 max           0 min
Histogram: 60 0 0 0 0 0 0 0 1 3
Nghost:          118.5 ave        1916 max           0 min
Histogram: 60 0 0 0 0 0 0 0 0 4
Neighs:              0 ave           0 max           0 min
Histogram: 64 0 0 0 0 0 0 0 0 0

Total # of neighbors = 0
Ave neighs/atom = 0
Neighbor list builds = 0
Dangerous builds = 0
#6----define computes------
variable nums equal count(all) #计算原子数目
variable toval equal 18.7166*18.7166*lz #计算系统总体积，单层石墨烯厚度为0.335nm
variable vol equal ${toval} #体系的初始体积
variable vol equal 16989.1863529152 
variable vatom equal v_vol/v_nums #单个原子体积
compute 1 all stress/atom NULL #计算体系中单原子应力
compute xalls all reduce sum c_1[1]
variable xstress equal (c_xalls)/(v_toval*10000)
compute yalls all reduce sum c_1[2]
variable ystress equal (c_yalls)/(v_toval*10000)
compute zalls all reduce sum c_1[3]
variable zstress equal (c_zalls)/(v_toval*10000)
#7---------relaxation-------------------------
timestep ${tstep}
timestep 0.001
velocity all create ${temperature} 231743 units box dist gaussian
velocity all create 300 231743 units box dist gaussian
dump   1 all atom 100 all-cy.lammpstrj
#fix    1 all npt temp 300 300  0.1 aniso 0 0 10 drag 1  #三个方向独立控压
fix  1 all npt temp ${temperature} ${temperature} 0.1 x ${pressure} ${pressure} 10 y ${pressure} ${pressure} 10
fix  1 all npt temp 300 ${temperature} 0.1 x ${pressure} ${pressure} 10 y ${pressure} ${pressure} 10
fix  1 all npt temp 300 300 0.1 x ${pressure} ${pressure} 10 y ${pressure} ${pressure} 10
fix  1 all npt temp 300 300 0.1 x 0 ${pressure} 10 y ${pressure} ${pressure} 10
fix  1 all npt temp 300 300 0.1 x 0 0 10 y ${pressure} ${pressure} 10
fix  1 all npt temp 300 300 0.1 x 0 0 10 y 0 ${pressure} 10
fix  1 all npt temp 300 300 0.1 x 0 0 10 y 0 0 10
compute  2 all pe/atom
compute  pe all reduce sum c_2
variable PE equal "c_pe"
fix    pe all print 100 "${PE} " file PE.txt screen no
thermo  ${thermalstep}
thermo  100
#thermo_style  custom step pe ke etotal lx ly lz
run   ${relaxtime}
run   0
Per MPI rank memory allocation (min/avg/max) = 10.31 | 10.4 | 11.72 Mbytes
   Step          Temp          E_pair         E_mol          TotEng         Press          Volume    
         4   300           -10767.587      0             -10710.235      81.866083      1939896.9    
Loop time of 0.000137597 on 64 procs for 0 steps with 1480 atoms

66.4% CPU use with 64 MPI tasks x 1 OpenMP threads

MPI task timing breakdown:
Section |  min time  |  avg time  |  max time  |%varavg| %total
---------------------------------------------------------------
Pair    | 0          | 0          | 0          |   0.0 |  0.00
Neigh   | 0          | 0          | 0          |   0.0 |  0.00
Comm    | 0          | 0          | 0          |   0.0 |  0.00
Output  | 0          | 0          | 0          |   0.0 |  0.00
Modify  | 0          | 0          | 0          |   0.0 |  0.00
Other   |            | 0.0001376  |            |       |100.00

Nlocal:         23.125 ave         373 max           0 min
Histogram: 60 0 0 0 0 0 0 0 0 4
Nghost:          118.5 ave        1899 max           0 min
Histogram: 60 0 0 0 0 0 0 0 0 4
Neighs:              0 ave           0 max           0 min
Histogram: 64 0 0 0 0 0 0 0 0 0

Total # of neighbors = 0
Ave neighs/atom = 0
Neighbor list builds = 0
Dangerous builds = 0
#8 -------tension-----------------------------
unfix  1
undump  1
unfix  pe
reset_timestep 0
fix avestress all ave/atom 1 ${dumpstep} ${dumpstep} c_1[1] c_1[2] c_1[3] c_1[4] c_1[5] c_1[6]
fix avestress all ave/atom 1 1000 ${dumpstep} c_1[1] c_1[2] c_1[3] c_1[4] c_1[5] c_1[6]
fix avestress all ave/atom 1 1000 1000 c_1[1] c_1[2] c_1[3] c_1[4] c_1[5] c_1[6]

#-----calculation of strain and Cumulative compression--------
variable                tmp equal "lz"
variable                L0 equal ${tmp}
variable                L0 equal 48.497423
variable                strain equal "(lz - v_L0)/v_L0"
variable                Cumulativels equal "(lz - v_L0)/10"
fix Step all print 100 "${strain} ${Cumulativels} ${zstress}" file grapoten.txt screen no

dump 2 all custom ${dumpstep} tension.xyz type x y z f_avestress[1] f_avestress[2] f_avestress[3] f_avestress[4] f_avestress[5] f_avestress[6]
dump 2 all custom 1000 tension.xyz type x y z f_avestress[1] f_avestress[2] f_avestress[3] f_avestress[4] f_avestress[5] f_avestress[6]

fix  1 all npt temp ${temperature} ${temperature} 0.1 y ${pressure} ${pressure} 10 x ${pressure} ${pressure} 10
fix  1 all npt temp 300 ${temperature} 0.1 y ${pressure} ${pressure} 10 x ${pressure} ${pressure} 10
fix  1 all npt temp 300 300 0.1 y ${pressure} ${pressure} 10 x ${pressure} ${pressure} 10
fix  1 all npt temp 300 300 0.1 y 0 ${pressure} 10 x ${pressure} ${pressure} 10
fix  1 all npt temp 300 300 0.1 y 0 0 10 x ${pressure} ${pressure} 10
fix  1 all npt temp 300 300 0.1 y 0 0 10 x 0 ${pressure} 10
fix  1 all npt temp 300 300 0.1 y 0 0 10 x 0 0 10

thermo_style custom step pe ke etotal lx ly lz
fix   2 all deform 1 z erate ${deformrate} remap x units box
fix   2 all deform 1 z erate 0.005 remap x units box
fix   3 all ave/time 2 500 1000 v_xstress v_ystress v_zstress file pressure.out
run   ${totaltime}
run   100000
WARNING: Dump 2 includes no atom IDs and is not sorted by ID. This may complicate post-processing tasks or visualization (src/dump.cpp:221)
Per MPI rank memory allocation (min/avg/max) = 11.81 | 11.9 | 13.22 Mbytes
   Step         PotEng         KinEng         TotEng           Lx             Ly             Lz      
         0  -10767.587      57.352726     -10710.235      200            200            48.497423    
       100  -10734.373      29.88047      -10704.493      200.00571      199.9886       48.521672    
       200  -10736.043      40.020458     -10696.023      200.02004      199.97433      48.54592     
       300  -10728.682      42.712507     -10685.97       200.04979      199.96477      48.570169    
       400  -10724.34       48.955142     -10675.385      200.07039      199.93989      48.594418    
       500  -10720.354      55.094142     -10665.26       200.11239      199.93177      48.618667    
       600  -10718.011      60.727649     -10657.284      200.15831      199.91786      48.642915    
       700  -10714.771      60.848834     -10653.922      200.18854      199.88303      48.667164    
       800  -10715.799      59.428521     -10656.371      200.24692      199.85433      48.691413    
       900  -10716.755      54.886254     -10661.868      200.28618      199.80538      48.715661    
      1000  -10718.857      53.921078     -10664.936      200.32257      199.75411      48.73991     
      1100  -10717.931      54.524664     -10663.407      200.36953      199.71515      48.764159    
      1200  -10716.592      57.940783     -10658.651      200.39401      199.67714      48.788408    
      1300  -10716.816      61.360772     -10655.455      200.42184      199.65345      48.812656    
      1400  -10714.901      57.85068      -10657.05       200.45368      199.6414       48.836905    
      1500  -10718.582      57.5855       -10660.996      200.45835      199.62683      48.861154    
      1600  -10719.055      56.462233     -10662.593      200.46816      199.6236       48.885402    
      1700  -10716.393      56.157194     -10660.236      200.46784      199.63417      48.909651    
      1800  -10715.224      58.039571     -10657.184      200.45088      199.64745      48.9339      
      1900  -10712.826      58.060299     -10654.766      200.45115      199.68431      48.958149    
      2000  -10711.798      57.844274     -10653.954      200.40792      199.71124      48.982397    
      2100  -10713.997      57.539109     -10656.458      200.38252      199.74922      49.006646    
      2200  -10715.369      55.332073     -10660.037      200.37698      199.79108      49.030895    
      2300  -10715.048      54.515353     -10660.532      200.34979      199.82285      49.055143    
      2400  -10713.671      57.135448     -10656.535      200.32889      199.85024      49.079392    
      2500  -10712.588      59.764031     -10652.824      200.30348      199.86952      49.103641    
      2600  -10711.521      58.946416     -10652.574      200.27591      199.88142      49.127889    
      2700  -10710.712      56.488755     -10654.223      200.27535      199.90219      49.152138    
      2800  -10712.576      57.127279     -10655.448      200.26118      199.91613      49.176387    
      2900  -10713.882      58.388791     -10655.493      200.23982      199.92497      49.200636    
      3000  -10709.453      54.455664     -10654.997      200.24226      199.9396       49.224884    
      3100  -10710.266      57.32738      -10652.939      200.228        199.9354       49.249133    
      3200  -10708.363      58.180533     -10650.183      200.23564      199.935        49.273382    
      3300  -10707.487      58.195535     -10649.292      200.25161      199.93054      49.29763     
      3400  -10707.907      56.766351     -10651.141      200.25029      199.91686      49.321879    
      3500  -10709.471      56.315595     -10653.155      200.2702       199.9108       49.346128    
      3600  -10708.6        55.046846     -10653.553      200.28177      199.90464      49.370377    
      3700  -10707.227      56.529312     -10650.698      200.25868      199.88643      49.394625    
      3800  -10708.188      60.197702     -10647.99       200.26896      199.88653      49.418874    
      3900  -10706.256      58.421595     -10647.834      200.25692      199.88315      49.443123    
      4000  -10707.458      58.126228     -10649.332      200.24103      199.88787      49.467371    
      4100  -10707.526      57.814946     -10649.711      200.24265      199.90944      49.49162     
      4200  -10704.547      57.030603     -10647.517      200.20735      199.92788      49.515869    
      4300  -10700.845      57.152865     -10643.692      200.17818      199.96329      49.540118    
      4400  -10702.775      58.590437     -10644.184      200.14996      200.00216      49.564366    
      4500  -10702.928      56.917309     -10646.011      200.10739      200.03862      49.588615    
      4600  -10702.781      56.467633     -10646.313      200.08611      200.0823       49.612864    
      4700  -10701.64       56.595001     -10645.045      200.05505      200.11426      49.637112    
      4800  -10699.179      57.963733     -10641.216      200.02256      200.13891      49.661361    
      4900  -10698.596      58.725607     -10639.87       200.00768      200.16584      49.68561     
      5000  -10697.215      56.884266     -10640.331      199.97605      200.18164      49.709859    
      5100  -10695.882      54.487387     -10641.395      199.94851      200.19635      49.734107    
      5200  -10698.776      57.562952     -10641.213      199.93935      200.21561      49.758356    
      5300  -10696.691      58.077184     -10638.614      199.91053      200.22231      49.782605    
      5400  -10694.081      59.123906     -10634.957      199.89064      200.22927      49.806853    
      5500  -10693.439      58.512223     -10634.927      199.88368      200.23886      49.831102    
      5600  -10693.211      56.747638     -10636.463      199.87708      200.24088      49.855351    
      5700  -10693.846      57.056885     -10636.789      199.88244      200.24294      49.8796      
      5800  -10692.112      55.761691     -10636.351      199.89353      200.24294      49.903848    
      5900  -10691.632      56.140568     -10635.491      199.89428      200.23834      49.928097    
      6000  -10691.365      56.9116       -10634.453      199.89001      200.229        49.952346    
      6100  -10690.69       57.625988     -10633.064      199.88811      200.21929      49.976594    
      6200  -10690.094      57.075805     -10633.019      199.87596      200.20212      50.000843    
      6300  -10690.978      56.792149     -10634.186      199.86972      200.18805      50.025092    
      6400  -10689.676      56.321175     -10633.355      199.86847      200.17713      50.049341    
      6500  -10688.493      58.850689     -10629.643      199.8711       200.17064      50.073589    
      6600  -10687.295      59.257893     -10628.037      199.88133      200.17164      50.097838    
      6700  -10687.037      58.938806     -10628.098      199.87708      200.17421      50.122087    
      6800  -10685.673      57.535524     -10628.138      199.8676       200.18644      50.146335    
      6900  -10684.554      56.758687     -10627.795      199.83903      200.20449      50.170584    
      7000  -10684.651      57.025224     -10627.625      199.80015      200.2241       50.194833    
      7100  -10683.1        55.646594     -10627.454      199.76793      200.24865      50.219082    
      7200  -10684.187      58.268865     -10625.919      199.73062      200.26878      50.24333     
      7300  -10681.14       57.727525     -10623.412      199.69464      200.29059      50.267579    
      7400  -10677.847      56.712213     -10621.135      199.66895      200.31816      50.291828    
      7500  -10678.382      58.566994     -10619.815      199.63578      200.34114      50.316076    
      7600  -10677.964      56.173367     -10621.79       199.60551      200.36559      50.340325    
      7700  -10679.052      56.495984     -10622.556      199.57643      200.38719      50.364574    
      7800  -10678.002      57.490095     -10620.512      199.53672      200.39863      50.388822    
      7900  -10676.081      58.919503     -10617.161      199.51765      200.41342      50.413071    
      8000  -10672.837      57.416327     -10615.42       199.49776      200.42213      50.43732     
      8100  -10672.173      57.310587     -10614.862      199.48118      200.42509      50.461569    
      8200  -10672.017      56.206089     -10615.811      199.47716      200.43035      50.485817    
      8300  -10672.956      55.505094     -10617.451      199.45732      200.42328      50.510066    
      8400  -10671.295      55.688129     -10615.606      199.44358      200.41499      50.534315    
      8500  -10669.442      56.234104     -10613.208      199.44029      200.40595      50.558563    
      8600  -10669.006      58.031543     -10610.974      199.42872      200.39139      50.582812    
      8700  -10667.249      58.037141     -10609.212      199.41644      200.38063      50.607061    
      8800  -10664.463      56.510155     -10607.953      199.40005      200.37627      50.63131     
      8900  -10664.392      57.390946     -10607.001      199.35943      200.37004      50.655558    
      9000  -10662.365      55.665706     -10606.699      199.32664      200.37624      50.679807    
      9100  -10662.471      57.103054     -10605.368      199.30434      200.39789      50.704056    
      9200  -10661.09       58.039381     -10603.05       199.26784      200.42107      50.728304    
      9300  -10661.282      59.686641     -10601.595      199.24607      200.45526      50.752553    
      9400  -10660.357      58.375159     -10601.982      199.20064      200.48691      50.776802    
      9500  -10659.985      57.124379     -10602.861      199.13542      200.51565      50.801051    
      9600  -10656.255      55.275073     -10600.98       199.08173      200.54919      50.825299    
      9700  -10655.488      58.31853      -10597.17       199.02782      200.57705      50.849548    
      9800  -10653.141      57.54255      -10595.599      198.99186      200.60315      50.873797    
      9900  -10651.975      57.509194     -10594.465      198.96099      200.62081      50.898045    
     10000  -10651.936      58.149757     -10593.787      198.91915      200.62375      50.922294    
     10100  -10652.156      57.187601     -10594.969      198.88708      200.62608      50.946543    
     10200  -10650.865      55.517113     -10595.348      198.858        200.62319      50.970792    
     10300  -10649.253      56.863607     -10592.39       198.82755      200.61496      50.99504     
     10400  -10646.241      56.374478     -10589.866      198.80016      200.60539      51.019289    
     10500  -10646.263      58.116838     -10588.146      198.76974      200.59493      51.043538    
     10600  -10643.963      57.498354     -10586.465      198.74368      200.58949      51.067786    
     10700  -10642.872      57.782345     -10585.09       198.71097      200.58863      51.092035    
     10800  -10641.004      58.281172     -10582.722      198.66788      200.59363      51.116284    
     10900  -10639.133      58.799527     -10580.333      198.62675      200.60395      51.140533    
     11000  -10638.131      57.511141     -10580.62       198.57638      200.61777      51.164781    
     11100  -10637.935      56.388841     -10581.546      198.5185       200.63548      51.18903     
     11200  -10634.771      55.123104     -10579.647      198.4615       200.66422      51.213279    
     11300  -10635.531      58.307242     -10577.223      198.39568      200.69565      51.237527    
     11400  -10632.434      57.052363     -10575.381      198.32608      200.7311       51.261776    
     11500  -10630.371      56.344448     -10574.026      198.26753      200.76912      51.286025    
     11600  -10630.092      57.366522     -10572.725      198.19755      200.79519      51.310274    
     11700  -10628.821      57.257292     -10571.564      198.1349       200.81616      51.334522    
     11800  -10627.03       56.886936     -10570.143      198.08408      200.8377       51.358771    
     11900  -10626.61       58.978226     -10567.632      198.01677      200.84808      51.38302     
     12000  -10622.618      58.173579     -10564.444      197.9621       200.86063      51.407268    
     12100  -10622.681      58.413892     -10564.267      197.90364      200.86537      51.431517    
     12200  -10621.67       56.151635     -10565.518      197.8427       200.86558      51.455766    
     12300  -10621.226      57.304244     -10563.922      197.79055      200.86864      51.480015    
     12400  -10618.579      57.404168     -10561.175      197.72462      200.86864      51.504263    
     12500  -10616.6        58.65501      -10557.945      197.66875      200.87235      51.528512    
     12600  -10613.595      59.401604     -10554.193      197.61634      200.8799       51.552761    
     12700  -10610.076      59.073333     -10551.003      197.54862      200.89048      51.577009    
     12800  -10611.618      59.132854     -10552.485      197.47242      200.91131      51.601258    
     12900  -10610.459      57.471887     -10552.987      197.37682      200.93313      51.625507    
     13000  -10609.849      57.280922     -10552.568      197.28866      200.96237      51.649755    
     13100  -10609.183      57.405872     -10551.777      197.20953      200.99657      51.674004    
     13200  -10606.4        56.570659     -10549.83       197.12133      201.02502      51.698253    
     13300  -10603.594      58.514286     -10545.079      197.03636      201.05688      51.722502    
     13400  -10601.657      58.867291     -10542.789      196.9506       201.08826      51.74675     
     13500  -10599.463      56.387785     -10543.075      196.84981      201.11078      51.770999    
     13600  -10600.347      57.454719     -10542.892      196.75454      201.13379      51.795248    
     13700  -10598.823      57.929452     -10540.894      196.66527      201.15728      51.819496    
     13800  -10594.891      56.419108     -10538.472      196.57579      201.17747      51.843745    
     13900  -10593.515      57.668839     -10535.846      196.49153      201.19815      51.867994    
     14000  -10591.84       60.557029     -10531.283      196.39911      201.20979      51.892243    
     14100  -10588.451      58.964838     -10529.486      196.30495      201.21925      51.916491    
     14200  -10588.337      57.391774     -10530.945      196.21528      201.23275      51.94074     
     14300  -10587.997      57.38587      -10530.611      196.12417      201.24561      51.964989    
     14400  -10586.298      56.696466     -10529.602      196.03081      201.2549       51.989237    
     14500  -10583.942      56.304171     -10527.638      195.94715      201.26492      52.013486    
     14600  -10581.185      58.119679     -10523.066      195.85433      201.27238      52.037735    
     14700  -10580.403      59.853054     -10520.55       195.75461      201.28335      52.061984    
     14800  -10578.024      57.497423     -10520.527      195.6542       201.30696      52.086232    
     14900  -10577.795      57.7774       -10520.018      195.53344      201.32693      52.110481    
     15000  -10575.019      56.908992     -10518.11       195.41686      201.35228      52.13473     
     15100  -10572.517      57.422634     -10515.094      195.30652      201.38107      52.158978    
     15200  -10569.664      58.132892     -10511.532      195.19109      201.40549      52.183227    
     15300  -10567.484      59.810086     -10507.674      195.0835       201.43442      52.207476    
     15400  -10565.165      59.001436     -10506.163      194.97295      201.46191      52.231725    
     15500  -10565.156      57.396647     -10507.76       194.85917      201.48624      52.255973    
     15600  -10564.803      57.470836     -10507.332      194.74763      201.51155      52.280222    
     15700  -10562.993      57.129292     -10505.864      194.62717      201.53108      52.304471    
     15800  -10561.279      58.296943     -10502.982      194.513        201.55696      52.328719    
     15900  -10556.857      58.356092     -10498.501      194.40157      201.58546      52.352968    
     16000  -10555.268      58.972816     -10496.296      194.27151      201.60171      52.377217    
     16100  -10554.661      57.482872     -10497.178      194.15533      201.62199      52.401466    
     16200  -10553.22       56.807923     -10496.412      194.03642      201.63313      52.425714    
     16300  -10551.3        56.887507     -10494.412      193.90948      201.63356      52.449963    
     16400  -10549.481      58.232795     -10491.248      193.80479      201.64457      52.474212    
     16500  -10546.152      58.071777     -10488.08       193.70013      201.6568       52.49846     
     16600  -10544.795      57.974656     -10486.82       193.5871       201.67024      52.522709    
     16700  -10544.784      56.840703     -10487.943      193.47395      201.69171      52.546958    
     16800  -10543.311      56.886934     -10486.424      193.35078      201.71477      52.571207    
     16900  -10540.388      57.53811      -10482.85       193.21834      201.73313      52.595455    
     17000  -10537.002      58.173139     -10478.829      193.08725      201.75244      52.619704    
     17100  -10537.121      59.851347     -10477.27       192.95521      201.77355      52.643953    
     17200  -10534.499      58.173675     -10476.325      192.82268      201.79602      52.668201    
     17300  -10531.512      56.613719     -10474.898      192.69478      201.82291      52.69245     
     17400  -10529.33       56.816888     -10472.513      192.5687       201.85137      52.716699    
     17500  -10529.51       60.637705     -10468.872      192.44079      201.88388      52.740948    
     17600  -10525.534      59.213568     -10466.32       192.31604      201.91712      52.765196    
     17700  -10524.095      57.276513     -10466.818      192.18924      201.94813      52.789445    
     17800  -10523.581      57.352409     -10466.229      192.05448      201.96945      52.813694    
     17900  -10520.149      56.39126      -10463.757      191.91968      201.98741      52.837942    
     18000  -10517.184      57.326538     -10459.857      191.78935      202.00523      52.862191    
     18100  -10515.095      59.10031      -10455.995      191.66352      202.02072      52.88644     
     18200  -10511.672      59.77206      -10451.9        191.5424       202.03618      52.910688    
     18300  -10510.348      60.546237     -10449.801      191.43038      202.05606      52.934937    
     18400  -10510.114      58.767371     -10451.347      191.31253      202.0673       52.959186    
     18500  -10507.983      56.459884     -10451.523      191.19842      202.07834      52.983435    
     18600  -10506.262      56.195609     -10450.067      191.08014      202.09456      53.007683    
     18700  -10502.649      55.823811     -10446.825      190.94196      202.10227      53.031932    
     18800  -10500.638      57.938071     -10442.7        190.81823      202.11751      53.056181    
     18900  -10498.88       58.97936      -10439.901      190.70009      202.13423      53.080429    
     19000  -10497.668      57.42545      -10440.243      190.57628      202.14299      53.104678    
     19100  -10496.872      56.775023     -10440.097      190.46931      202.16462      53.128927    
     19200  -10493.491      56.663459     -10436.827      190.35682      202.18629      53.153176    
     19300  -10492.077      59.47757      -10432.599      190.23282      202.20901      53.177424    
     19400  -10488.73       58.393385     -10430.336      190.10817      202.23132      53.201673    
     19500  -10488.791      59.02444      -10429.766      189.98587      202.25069      53.225922    
     19600  -10485.517      57.379037     -10428.138      189.86258      202.26972      53.25017     
     19700  -10482.049      56.356108     -10425.693      189.74815      202.29572      53.274419    
     19800  -10480.226      57.434421     -10422.792      189.62838      202.31232      53.298668    
     19900  -10478.406      58.78074      -10419.625      189.51042      202.31843      53.322917    
     20000  -10476.475      59.848213     -10416.626      189.4067       202.33089      53.347165    
     20100  -10473.292      57.643109     -10415.649      189.29927      202.34033      53.371414    
     20200  -10472.004      56.112062     -10415.892      189.19041      202.35079      53.395663    
     20300  -10470.377      56.584385     -10413.793      189.08963      202.37072      53.419911    
     20400  -10465.919      56.523929     -10409.395      188.97631      202.38273      53.44416     
     20500  -10462.12       57.144185     -10404.975      188.85714      202.39065      53.468409    
     20600  -10461.818      58.348059     -10403.47       188.74943      202.40109      53.492658    
     20700  -10459.791      57.15263      -10402.638      188.63361      202.40016      53.516906    
     20800  -10458.61       57.078719     -10401.531      188.53328      202.40903      53.541155    
     20900  -10455.192      55.954117     -10399.238      188.44395      202.4255       53.565404    
     21000  -10453.571      58.875423     -10394.695      188.3455       202.43483      53.589652    
     21100  -10447.979      57.091679     -10390.887      188.25003      202.45095      53.613901    
     21200  -10448.708      59.066877     -10389.641      188.14107      202.46577      53.63815     
     21300  -10447.275      56.961598     -10390.314      188.01863      202.47963      53.662399    
     21400  -10445.211      56.854883     -10388.356      187.90799      202.49961      53.686647    
     21500  -10441.727      56.999233     -10384.728      187.80647      202.52005      53.710896    
     21600  -10439.132      58.258938     -10380.873      187.70646      202.53651      53.735145    
     21700  -10435.711      57.098164     -10378.613      187.60945      202.55413      53.759393    
     21800  -10435.741      55.807156     -10379.933      187.50406      202.56263      53.783642    
     21900  -10434.301      55.779421     -10378.521      187.39899      202.56964      53.807891    
     22000  -10430.256      55.970363     -10374.285      187.29843      202.57839      53.83214     
     22100  -10427.27       57.39145      -10369.878      187.20175      202.58866      53.856388    
     22200  -10425.15       58.373309     -10366.777      187.10905      202.60179      53.880637    
     22300  -10422.79       57.953322     -10364.837      187.0173       202.61479      53.904886    
     22400  -10421.178      56.445634     -10364.732      186.92498      202.62842      53.929134    
     22500  -10420.28       55.427782     -10364.852      186.83036      202.6402       53.953383    
     22600  -10417.445      56.372872     -10361.072      186.73635      202.64833      53.977632    
     22700  -10413.759      57.103217     -10356.656      186.64118      202.65232      54.001881    
     22800  -10410.175      57.12607      -10353.049      186.54712      202.65448      54.026129    
     22900  -10407.668      57.468419     -10350.2        186.45972      202.6602       54.050378    
     23000  -10407.227      58.51571      -10348.712      186.37066      202.66343      54.074627    
     23100  -10405.586      56.972082     -10348.614      186.28504      202.66985      54.098875    
     23200  -10402.581      55.970955     -10346.61       186.20457      202.68113      54.123124    
     23300  -10399.198      58.062142     -10341.135      186.11824      202.68995      54.147373    
     23400  -10393.64       55.955046     -10337.685      186.03545      202.70159      54.171621    
     23500  -10393.768      57.904985     -10335.863      185.95301      202.71458      54.19587     
     23600  -10390.778      55.975701     -10334.802      185.86723      202.7195       54.220119    
     23700  -10389.538      55.552621     -10333.985      185.7849       202.72227      54.244368    
     23800  -10387.808      55.110075     -10332.697      185.70461      202.72797      54.268616    
     23900  -10384.376      56.320526     -10328.055      185.62094      202.73114      54.292865    
     24000  -10381.713      58.710532     -10323.002      185.54273      202.73633      54.317114    
     24100  -10378.089      58.09648      -10319.992      185.47276      202.74654      54.341362    
     24200  -10376.624      58.121758     -10318.502      185.38857      202.74764      54.365611    
     24300  -10375.378      57.041379     -10318.336      185.30694      202.75386      54.38986     
     24400  -10372.514      56.164929     -10316.349      185.22794      202.76269      54.414109    
     24500  -10368.739      58.131464     -10310.608      185.14456      202.76432      54.438357    
     24600  -10364.108      57.597818     -10306.51       185.06725      202.76905      54.462606    
     24700  -10362.083      56.921637     -10305.162      184.9924       202.77691      54.486855    
     24800  -10360.235      55.743798     -10304.492      184.91357      202.78059      54.511103    
     24900  -10359.808      57.01365      -10302.794      184.84237      202.79053      54.535352    
     25000  -10357.818      58.06019      -10299.758      184.77147      202.80008      54.559601    
     25100  -10350.7        56.534563     -10294.166      184.69171      202.80415      54.58385     
     25200  -10349.23       58.095715     -10291.135      184.62057      202.81874      54.608098    
     25300  -10348.136      57.810121     -10290.326      184.54158      202.8243       54.632347    
     25400  -10346.684      56.649184     -10290.034      184.46112      202.82671      54.656596    
     25500  -10344.638      57.050938     -10287.587      184.38873      202.83686      54.680844    
     25600  -10339.428      55.166063     -10284.262      184.30845      202.83926      54.705093    
     25700  -10337.722      56.832826     -10280.889      184.23765      202.8468       54.729342    
     25800  -10335.604      58.192003     -10277.412      184.17517      202.85526      54.753591    
     25900  -10332.289      59.40495      -10272.884      184.10384      202.85302      54.777839    
     26000  -10328.701      60.388113     -10268.313      184.03536      202.85837      54.802088    
     26100  -10325.917      57.841799     -10268.075      183.96075      202.86054      54.826337    
     26200  -10326.093      58.401514     -10267.691      183.88462      202.86422      54.850585    
     26300  -10322.098      56.450079     -10265.648      183.81871      202.8768       54.874834    
     26400  -10319.212      56.660537     -10262.551      183.74728      202.88052      54.899083    
     26500  -10317.236      58.585702     -10258.65       183.68109      202.88733      54.923332    
     26600  -10312.771      58.622481     -10254.149      183.61869      202.89483      54.94758     
     26700  -10310.736      59.362602     -10251.374      183.54674      202.8885       54.971829    
     26800  -10307.885      55.749883     -10252.135      183.48031      202.88822      54.996078    
     26900  -10305.141      55.147807     -10249.993      183.41154      202.88939      55.020326    
     27000  -10303.251      56.694696     -10246.557      183.34205      202.89331      55.044575    
     27100  -10299.574      57.159045     -10242.415      183.27981      202.90441      55.068824    
     27200  -10295.218      58.000105     -10237.218      183.21072      202.9049       55.093073    
     27300  -10295.119      60.775652     -10234.343      183.1463       202.90486      55.117321    
     27400  -10293.972      58.430171     -10235.542      183.08262      202.90466      55.14157     
     27500  -10289.457      55.817507     -10233.64       183.01564      202.90636      55.165819    
     27600  -10286.95       56.353845     -10230.596      182.94639      202.90892      55.190067    
     27700  -10284.805      58.617823     -10226.187      182.87221      202.90624      55.214316    
     27800  -10280.862      58.545327     -10222.317      182.8063       202.9123       55.238565    
     27900  -10279.543      58.328346     -10221.215      182.7401       202.91565      55.262814    
     28000  -10278.217      56.863155     -10221.354      182.67603      202.9201       55.287062    
     28100  -10274.033      55.218223     -10218.815      182.62159      202.93362      55.311311    
     28200  -10271.112      57.137439     -10213.974      182.55551      202.92734      55.33556     
     28300  -10268.595      58.681873     -10209.913      182.49464      202.92663      55.359808    
     28400  -10265.745      58.406157     -10207.339      182.43151      202.9273       55.384057    
     28500  -10261.321      56.021186     -10205.3        182.35672      202.91841      55.408306    
     28600  -10260.567      56.422215     -10204.145      182.29668      202.93481      55.432554    
     28700  -10259.168      55.207401     -10203.96       182.23064      202.94239      55.456803    
     28800  -10255.62       55.468912     -10200.151      182.16608      202.9434       55.481052    
     28900  -10250.679      56.750502     -10193.928      182.11194      202.95226      55.505301    
     29000  -10248.458      57.838654     -10190.62       182.04391      202.93919      55.529549    
     29100  -10246.061      58.149534     -10187.911      181.98246      202.93717      55.553798    
     29200  -10242.777      56.551175     -10186.226      181.92781      202.95078      55.578047    
     29300  -10241.28       56.558733     -10184.721      181.85558      202.94573      55.602295    
     29400  -10238.822      56.567164     -10182.255      181.79045      202.95324      55.626544    
     29500  -10235.447      58.289239     -10177.158      181.72147      202.95769      55.650793    
     29600  -10230.695      58.294902     -10172.4        181.64889      202.95313      55.675042    
     29700  -10225.892      56.083228     -10169.809      181.59067      202.96687      55.69929     
     29800  -10226.561      57.451567     -10169.11       181.5292       202.97006      55.723539    
     29900  -10224.522      56.168784     -10168.353      181.46675      202.96794      55.747788    
     30000  -10219.625      54.497207     -10165.128      181.4121       202.97291      55.772036    
     30100  -10217.791      56.269528     -10161.521      181.34859      202.96471      55.796285    
     30200  -10215.343      57.921359     -10157.422      181.28625      202.96341      55.820534    
     30300  -10211.855      58.400483     -10153.454      181.22777      202.97115      55.844783    
     30400  -10209.134      59.51654      -10149.618      181.16209      202.96955      55.869031    
     30500  -10205.046      58.227456     -10146.819      181.10253      202.97467      55.89328     
     30600  -10204.499      57.631546     -10146.867      181.04533      202.97843      55.917529    
     30700  -10200.601      55.693742     -10144.907      180.98504      202.96957      55.941777    
     30800  -10197.312      56.752117     -10140.56       180.9296       202.96913      55.966026    
     30900  -10193.71       57.918804     -10135.791      180.87315      202.96681      55.990275    
     31000  -10191.837      59.013245     -10132.824      180.81107      202.95574      56.014524    
     31100  -10187.311      56.500473     -10130.811      180.75303      202.95443      56.038772    
     31200  -10185.566      56.980591     -10128.585      180.69376      202.94954      56.063021    
     31300  -10182.448      56.845018     -10125.603      180.63378      202.94354      56.08727     
     31400  -10179.785      58.681667     -10121.104      180.57951      202.95116      56.111518    
     31500  -10175.451      59.207185     -10116.244      180.52089      202.94771      56.135767    
     31600  -10172.839      59.048814     -10113.79       180.46456      202.93992      56.160016    
     31700  -10170.376      56.374032     -10114.002      180.41418      202.94266      56.184265    
     31800  -10168.666      57.140684     -10111.525      180.35462      202.93275      56.208513    
     31900  -10164.15       56.347783     -10107.802      180.29576      202.9279       56.232762    
     32000  -10161.645      58.278837     -10103.366      180.23851      202.93208      56.257011    
     32100  -10157.237      59.282963     -10097.954      180.1768       202.92603      56.281259    
     32200  -10154.598      59.86429      -10094.733      180.11631      202.92519      56.305508    
     32300  -10152.556      56.742445     -10095.813      180.06001      202.92586      56.329757    
     32400  -10150.31       56.44351      -10093.867      180.00452      202.91889      56.354006    
     32500  -10148.794      58.102169     -10090.692      179.95467      202.91615      56.378254    
     32600  -10144.495      58.585049     -10085.91       179.90159      202.91223      56.402503    
     32700  -10140.662      59.583072     -10081.079      179.84377      202.90555      56.426752    
     32800  -10137.697      59.04496      -10078.652      179.79064      202.90351      56.451       
     32900  -10135.796      56.482226     -10079.313      179.7342       202.89476      56.475249    
     33000  -10132.968      56.415116     -10076.553      179.67736      202.88422      56.499498    
     33100  -10128.706      56.640425     -10072.065      179.62418      202.88157      56.523747    
     33200  -10125.79       58.37843      -10067.412      179.57253      202.87155      56.547995    
     33300  -10122.308      58.241053     -10064.067      179.52166      202.85986      56.572244    
     33400  -10120.935      57.480458     -10063.455      179.47225      202.85251      56.596493    
     33500  -10119.786      56.999874     -10062.786      179.42021      202.83851      56.620741    
     33600  -10113.644      54.913766     -10058.73       179.37097      202.82442      56.64499     
     33700  -10109.629      56.12227      -10053.507      179.32042      202.81139      56.669239    
     33800  -10109.214      59.235046     -10049.979      179.26519      202.8005       56.693487    
     33900  -10104.897      57.626675     -10047.27       179.20992      202.79404      56.717736    
     34000  -10102.724      57.33467      -10045.389      179.15698      202.7891       56.741985    
     34100  -10100.284      55.196059     -10045.088      179.10475      202.78164      56.766234    
     34200  -10097.474      56.133802     -10041.341      179.05245      202.77259      56.790482    
     34300  -10092.182      56.572561     -10035.61       179.00156      202.76397      56.814731    
     34400  -10089.717      57.694419     -10032.022      178.9496       202.75253      56.83898     
     34500  -10087.02       58.132893     -10028.887      178.89809      202.74158      56.863228    
     34600  -10084.758      58.656223     -10026.102      178.84551      202.7305       56.887477    
     34700  -10081.691      57.193841     -10024.497      178.79069      202.72213      56.911726    
     34800  -10078.768      55.808659     -10022.959      178.73777      202.71488      56.935975    
     34900  -10074.859      55.342173     -10019.516      178.68512      202.70292      56.960223    
     35000  -10071.458      58.190929     -10013.267      178.63307      202.68992      56.984472    
     35100  -10067.802      58.349949     -10009.452      178.58539      202.67779      57.008721    
     35200  -10064.904      57.247659     -10007.656      178.54001      202.66091      57.032969    
     35300  -10063.57       57.241493     -10006.329      178.49328      202.64383      57.057218    
     35400  -10059.897      56.077283     -10003.82       178.44519      202.63141      57.081467    
     35500  -10057.113      58.536745     -9998.5759      178.39475      202.62181      57.105716    
     35600  -10051.467      58.391324     -9993.0756      178.3386       202.60852      57.129964    
     35700  -10048.167      57.5589       -9990.6078      178.28309      202.59942      57.154213    
     35800  -10046.073      56.032102     -9990.0407      178.23122      202.5915       57.178462    
     35900  -10045.238      57.370073     -9987.8681      178.17696      202.56656      57.20271     
     36000  -10039.714      55.636481     -9984.0778      178.1276       202.54855      57.226959    
     36100  -10037.231      58.199862     -9979.0308      178.08297      202.54211      57.251208    
     36200  -10032.24       59.564966     -9972.6746      178.02884      202.51797      57.275457    
     36300  -10030.576      60.231166     -9970.345       177.97796      202.50817      57.299705    
     36400  -10026.02       56.674577     -9969.3457      177.93057      202.49736      57.323954    
     36500  -10026.283      58.264132     -9968.019       177.87734      202.46532      57.348203    
     36600  -10024.374      58.596318     -9965.7774      177.83186      202.45202      57.372451    
     36700  -10019.146      57.097866     -9962.0477      177.7864       202.44027      57.3967      
     36800  -10014.701      59.026474     -9955.6745      177.73441      202.41486      57.420949    
     36900  -10010.437      58.094697     -9952.3421      177.68752      202.40536      57.445198    
     37000  -10009.991      58.990534     -9951.0001      177.63629      202.38636      57.469446    
     37100  -10006.228      56.808792     -9949.4195      177.58273      202.35855      57.493695    
     37200  -10003.269      56.920791     -9946.3478      177.53447      202.34414      57.517944    
     37300  -9999.3936      56.854517     -9942.539       177.48164      202.32877      57.542192    
     37400  -9995.5994      57.082016     -9938.5174      177.42845      202.31753      57.566441    
     37500  -9993.0075      59.901339     -9933.1061      177.37773      202.30489      57.59069     
     37600  -9986.2853      58.183477     -9928.1018      177.32516      202.28364      57.614939    
     37700  -9985.7394      58.370589     -9927.3688      177.27174      202.26166      57.639187    
     37800  -9982.8608      56.547087     -9926.3137      177.22038      202.23697      57.663436    
     37900  -9981.0708      57.360261     -9923.7105      177.17234      202.20793      57.687685    
     38000  -9978.1898      57.656907     -9920.5328      177.12775      202.18657      57.711933    
     38100  -9975.7725      58.363022     -9917.4095      177.0824       202.16768      57.736182    
     38200  -9971.9479      58.55802      -9913.3899      177.03161      202.14114      57.760431    
     38300  -9967.5645      58.78537      -9908.7792      176.98315      202.11934      57.78468     
     38400  -9967.2964      61.299975     -9905.9964      176.93173      202.0928       57.808928    
     38500  -9961.7617      56.171367     -9905.5904      176.87894      202.06341      57.833177    
     38600  -9960.2676      57.094101     -9903.1735      176.83269      202.04387      57.857426    
     38700  -9956.2069      57.359872     -9898.8471      176.78624      202.01633      57.881674    
     38800  -9950.8356      56.819364     -9894.0162      176.73945      201.98761      57.905923    
     38900  -9948.841       58.175084     -9890.6659      176.69252      201.96625      57.930172    
     39000  -9946.4423      58.519862     -9887.9224      176.63918      201.93706      57.95442     
     39100  -9944.3101      58.49734      -9885.8127      176.58606      201.91064      57.978669    
     39200  -9939.4822      56.010973     -9883.4712      176.53493      201.88976      58.002918    
     39300  -9934.8208      55.013784     -9879.807       176.4817       201.85946      58.027167    
     39400  -9932.1179      57.889388     -9874.2285      176.43108      201.83157      58.051415    
     39500  -9928.5073      58.823594     -9869.6837      176.38356      201.81041      58.075664    
     39600  -9925.4953      57.863482     -9867.6318      176.33404      201.78423      58.099913    
     39700  -9924.1022      56.492357     -9867.6098      176.28457      201.7563       58.124161    
     39800  -9922.0942      57.533913     -9864.5603      176.2367       201.732        58.14841     
     39900  -9917.1172      57.096759     -9860.0205      176.18598      201.70368      58.172659    
     40000  -9914.0915      58.987343     -9855.1042      176.13136      201.672        58.196908    
     40100  -9910.6941      59.427715     -9851.2664      176.08011      201.64557      58.221156    
     40200  -9906.9706      57.843265     -9849.1274      176.02899      201.61446      58.245405    
     40300  -9905.2864      56.045964     -9849.2405      175.97583      201.57753      58.269654    
     40400  -9901.1751      55.739514     -9845.4356      175.92537      201.55194      58.293902    
     40500  -9897.1333      57.322589     -9839.8107      175.876        201.5306       58.318151    
     40600  -9891.0432      55.212855     -9835.8304      175.82184      201.50169      58.3424      
     40700  -9890.6768      58.114803     -9832.562       175.76992      201.47909      58.366649    
     40800  -9885.226       55.409562     -9829.8165      175.7167       201.45264      58.390897    
     40900  -9884.5276      55.093527     -9829.4341      175.65873      201.41255      58.415146    
     41000  -9881.3061      54.706868     -9826.5992      175.6032       201.3794       58.439395    
     41100  -9877.9442      57.21652      -9820.7277      175.5464       201.3475       58.463643    
     41200  -9874.2236      57.971554     -9816.252       175.48938      201.31318      58.487892    
     41300  -9868.6099      55.925591     -9812.6843      175.43694      201.28638      58.512141    
     41400  -9868.0187      57.739384     -9810.2793      175.38728      201.25774      58.53639     
     41500  -9864.9379      55.312311     -9809.6256      175.33629      201.22191      58.560638    
     41600  -9862.7097      55.540832     -9807.1688      175.28967      201.19078      58.584887    
     41700  -9858.0028      56.901551     -9801.1012      175.238        201.15397      58.609136    
     41800  -9853.672       56.981448     -9796.6906      175.18215      201.11789      58.633384    
     41900  -9850.7311      57.180931     -9793.5502      175.12989      201.09155      58.657633    
     42000  -9848.799       57.607842     -9791.1911      175.07425      201.05574      58.681882    
     42100  -9847.1087      57.759091     -9789.3496      175.02117      201.01928      58.706131    
     42200  -9843.1312      56.292505     -9786.8387      174.97055      200.98706      58.730379    
     42300  -9838.9428      57.107752     -9781.835       174.91586      200.94896      58.754628    
     42400  -9833.8128      57.773149     -9776.0396      174.8614       200.91525      58.778877    
     42500  -9830.9751      58.185685     -9772.7895      174.80489      200.88619      58.803125    
     42600  -9827.5499      55.944917     -9771.605       174.74475      200.85174      58.827374    
     42700  -9825.9259      56.426411     -9769.4994      174.68521      200.81801      58.851623    
     42800  -9820.4503      54.70511      -9765.7452      174.62413      200.78512      58.875872    
     42900  -9818.3532      56.566564     -9761.7866      174.5601       200.74773      58.90012     
     43000  -9814.3983      56.448707     -9757.9496      174.50228      200.71959      58.924369    
     43100  -9811.6732      57.431932     -9754.2412      174.44446      200.68842      58.948618    
     43200  -9808.6008      58.167777     -9750.4331      174.38827      200.65178      58.972866    
     43300  -9803.7583      57.198294     -9746.56        174.33309      200.6124       58.997115    
     43400  -9803.109       59.22835      -9743.8806      174.27503      200.56738      59.021364    
     43500  -9799.0199      56.103441     -9742.9165      174.21722      200.52818      59.045613    
     43600  -9795.6542      55.074963     -9740.5792      174.1598       200.49783      59.069861    
     43700  -9792.4702      57.073636     -9735.3966      174.10135      200.46852      59.09411     
     43800  -9788.511       58.455098     -9730.0559      174.04353      200.43664      59.118359    
     43900  -9784.1285      57.131514     -9726.997       173.98455      200.39537      59.142607    
     44000  -9783.3571      58.517223     -9724.8399      173.92347      200.34841      59.166856    
     44100  -9779.1149      55.99095      -9723.1239      173.86218      200.303        59.191105    
     44200  -9776.515       56.932028     -9719.583       173.79962      200.26128      59.215353    
     44300  -9772.5984      59.921138     -9712.6772      173.7371       200.22705      59.239602    
     44400  -9767.8546      58.582959     -9709.2716      173.6767       200.20126      59.263851    
     44500  -9767.8266      60.182359     -9707.6443      173.61357      200.16875      59.2881      
     44600  -9762.2196      56.466225     -9705.7534      173.54683      200.13103      59.312348    
     44700  -9758.7622      56.114189     -9702.648       173.47961      200.09339      59.336597    
     44800  -9754.6683      56.05516      -9698.6131      173.41061      200.04837      59.360846    
     44900  -9751.1447      56.611612     -9694.5331      173.34638      200.00315      59.385094    
     45000  -9749.4549      58.153937     -9691.301       173.28696      199.96118      59.409343    
     45100  -9745.8176      57.436014     -9688.3816      173.22672      199.9171       59.433592    
     45200  -9742.5346      56.919675     -9685.615       173.16815      199.87893      59.457841    
     45300  -9738.9742      56.268164     -9682.706       173.10528      199.84001      59.482089    
     45400  -9736.3437      57.454664     -9678.889       173.0374       199.79762      59.506338    
     45500  -9732.5976      59.001271     -9673.5963      172.97459      199.75841      59.530587    
     45600  -9727.3183      58.191945     -9669.1264      172.91031      199.70908      59.554835    
     45700  -9725.0194      57.494152     -9667.5253      172.84829      199.65848      59.579084    
     45800  -9723.2911      56.544005     -9666.7471      172.79456      199.61991      59.603333    
     45900  -9719.172       56.254099     -9662.9179      172.73456      199.57352      59.627582    
     46000  -9715.5206      57.808928     -9657.7117      172.67398      199.52755      59.65183     
     46100  -9711.1124      57.752276     -9653.3601      172.61437      199.48794      59.676079    
     46200  -9708.4008      58.013348     -9650.3874      172.54375      199.43532      59.700328    
     46300  -9704.2657      56.805227     -9647.4605      172.47332      199.38588      59.724576    
     46400  -9703.0018      58.446698     -9644.5551      172.40925      199.34855      59.748825    
     46500  -9700.3132      58.524299     -9641.7889      172.33617      199.30461      59.773074    
     46600  -9695.689       57.146592     -9638.5424      172.2645       199.26185      59.797323    
     46700  -9689.6335      56.099937     -9633.5336      172.1997       199.22298      59.821571    
     46800  -9688.4451      59.358871     -9629.0862      172.12982      199.17372      59.84582     
     46900  -9684.4211      56.949689     -9627.4715      172.06407      199.12333      59.870069    
     47000  -9682.9654      56.88726      -9626.0781      172.00254      199.0752       59.894317    
     47100  -9679.1978      56.422648     -9622.7752      171.9386       199.0266       59.918566    
     47200  -9675.8163      57.767989     -9618.0483      171.87155      198.98087      59.942815    
     47300  -9669.9831      58.831583     -9611.1515      171.80488      198.93893      59.967064    
     47400  -9667.6559      59.771109     -9607.8848      171.73689      198.89656      59.991312    
     47500  -9666.048       59.421708     -9606.6263      171.66915      198.85604      60.015561    
     47600  -9661.3731      56.652456     -9604.7206      171.60068      198.80918      60.03981     
     47700  -9657.3795      55.847004     -9601.5325      171.53485      198.76047      60.064058    
     47800  -9656.4277      58.936359     -9597.4913      171.47058      198.70991      60.088307    
     47900  -9650.2554      57.892314     -9592.3631      171.40219      198.65506      60.112556    
     48000  -9646.1841      58.415412     -9587.7687      171.33909      198.60658      60.136805    
     48100  -9645.3355      58.699908     -9586.6356      171.27511      198.55838      60.161053    
     48200  -9641.7005      56.385904     -9585.3146      171.20727      198.51086      60.185302    
     48300  -9638.0117      56.443482     -9581.5682      171.13842      198.46709      60.209551    
     48400  -9634.6598      57.797291     -9576.8625      171.06434      198.42069      60.233799    
     48500  -9629.4796      57.984302     -9571.4953      170.99003      198.37257      60.258048    
     48600  -9625.7557      59.770252     -9565.9855      170.92153      198.32366      60.282297    
     48700  -9622.0103      58.519631     -9563.4907      170.85139      198.26556      60.306546    
     48800  -9619.4993      56.178262     -9563.3211      170.78603      198.20961      60.330794    
     48900  -9617.9271      56.746841     -9561.1802      170.726        198.16109      60.355043    
     49000  -9616.2787      57.997648     -9558.2811      170.65738      198.10856      60.379292    
     49100  -9610.6376      56.311958     -9554.3257      170.58925      198.06134      60.40354     
     49200  -9606.3772      57.633583     -9548.7436      170.52525      198.02324      60.427789    
     49300  -9604.7758      60.31959      -9544.4562      170.4521       197.97861      60.452038    
     49400  -9600.4451      56.594502     -9543.8506      170.38101      197.93354      60.476286    
     49500  -9597.7334      56.011875     -9541.7215      170.3144       197.88948      60.500535    
     49600  -9595.5106      57.941148     -9537.5694      170.24209      197.83932      60.524784    
     49700  -9588.5454      55.918721     -9532.6267      170.17503      197.79118      60.549033    
     49800  -9586.7936      59.413602     -9527.38        170.11361      197.74233      60.573281    
     49900  -9582.5006      59.915021     -9522.5856      170.04691      197.6895       60.59753     
     50000  -9578.8462      58.060841     -9520.7854      169.97668      197.63999      60.621779    
     50100  -9577.701       57.614969     -9520.086       169.90367      197.59392      60.646027    
     50200  -9574.268       56.420859     -9517.8472      169.82581      197.54361      60.670276    
     50300  -9570.3946      55.990244     -9514.4044      169.75123      197.49779      60.694525    
     50400  -9567.5584      58.746799     -9508.8116      169.67946      197.45321      60.718774    
     50500  -9562.7093      59.308721     -9503.4006      169.60737      197.40406      60.743022    
     50600  -9559.5206      58.322615     -9501.198       169.53877      197.35775      60.767271    
     50700  -9557.8074      58.366254     -9499.4411      169.46963      197.31138      60.79152     
     50800  -9552.8769      56.667502     -9496.2094      169.39866      197.26157      60.815768    
     50900  -9548.8291      56.271564     -9492.5576      169.32981      197.21478      60.840017    
     51000  -9546.552       58.052548     -9488.4995      169.2631       197.17171      60.864266    
     51100  -9542.1797      57.677258     -9484.5025      169.19634      197.1305       60.888515    
     51200  -9539.8629      58.700099     -9481.1628      169.12346      197.08714      60.912763    
     51300  -9537.4021      58.068236     -9479.3338      169.04835      197.04133      60.937012    
     51400  -9534.0387      56.493374     -9477.5454      168.97918      196.99658      60.961261    
     51500  -9530.0024      55.956782     -9474.0456      168.91331      196.95007      60.985509    
     51600  -9526.9804      59.770628     -9467.2098      168.84963      196.90115      61.009758    
     51700  -9522.2527      59.381804     -9462.8709      168.79065      196.85213      61.034007    
     51800  -9517.9712      57.219667     -9460.7516      168.73398      196.79986      61.058256    
     51900  -9516.1338      57.496982     -9458.6368      168.67187      196.74533      61.082504    
     52000  -9514.5111      58.561002     -9455.9501      168.60322      196.6929       61.106753    
     52100  -9508.164       56.247344     -9451.9166      168.53563      196.64524      61.131002    
     52200  -9502.9815      58.461802     -9444.5197      168.46528      196.59625      61.15525     
     52300  -9501.8906      60.652776     -9441.2379      168.39657      196.54899      61.179499    
     52400  -9498.0536      57.700454     -9440.3532      168.33333      196.50432      61.203748    
     52500  -9495.0805      56.998987     -9438.0815      168.27141      196.45721      61.227997    
     52600  -9492.3998      57.518459     -9434.8813      168.20745      196.4103       61.252245    
     52700  -9488.6776      57.753388     -9430.9242      168.1484       196.3717       61.276494    
     52800  -9484.5145      58.738202     -9425.7763      168.08646      196.32954      61.300743    
     52900  -9479.9317      58.730384     -9421.2014      168.02225      196.2831       61.324991    
     53000  -9477.7592      58.103531     -9419.6557      167.9641       196.24633      61.34924     
     53100  -9475.7722      57.515543     -9418.2567      167.89708      196.20569      61.373489    
     53200  -9471.3001      56.748994     -9414.5511      167.82818      196.16281      61.397738    
     53300  -9466.661       56.915498     -9409.7455      167.77321      196.12522      61.421986    
     53400  -9463.059       59.011817     -9404.0471      167.71352      196.07659      61.446235    
     53500  -9457.8119      60.119841     -9397.692       167.6537       196.02253      61.470484    
     53600  -9454.172       59.536653     -9394.6354      167.60126      195.97644      61.494732    
     53700  -9453.6811      58.83445      -9394.8467      167.54105      195.92588      61.518981    
     53800  -9450.5583      57.635197     -9392.9231      167.48407      195.8774       61.54323     
     53900  -9445.9936      55.980091     -9390.0135      167.43402      195.8377       61.567478    
     54000  -9443.4179      57.280771     -9386.1371      167.37551      195.79441      61.591727    
     54100  -9438.4947      57.134076     -9381.3606      167.31838      195.7522       61.615976    
     54200  -9435.6863      59.931274     -9375.755       167.26625      195.7126       61.640225    
     54300  -9432.6337      59.438999     -9373.1947      167.20766      195.66895      61.664473    
     54400  -9430.8279      58.186643     -9372.6412      167.15125      195.62852      61.688722    
     54500  -9426.3722      57.408632     -9368.9635      167.09683      195.58806      61.712971    
     54600  -9422.0992      57.904868     -9364.1943      167.04222      195.54838      61.737219    
     54700  -9417.4867      58.52299      -9358.9637      166.99025      195.51564      61.761468    
     54800  -9414.1598      58.694048     -9355.4658      166.93444      195.48352      61.785717    
     54900  -9411.1319      56.108808     -9355.0231      166.8821       195.45219      61.809966    
     55000  -9410.8344      58.645888     -9352.1885      166.8298       195.41801      61.834214    
     55100  -9405.3162      57.503764     -9347.8124      166.7728       195.38126      61.858463    
     55200  -9400.2151      58.155752     -9342.0593      166.71831      195.3432       61.882712    
     55300  -9394.8297      58.196634     -9336.6331      166.66688      195.30203      61.90696     
     55400  -9394.2349      59.365803     -9334.8691      166.6172       195.26054      61.931209    
     55500  -9389.2611      55.190471     -9334.0706      166.57438      195.22276      61.955458    
     55600  -9388.0543      57.473289     -9330.581       166.52947      195.18335      61.979707    
     55700  -9384.1961      58.477312     -9325.7188      166.48686      195.14574      62.003955    
     55800  -9379.5347      58.938525     -9320.5961      166.44399      195.10905      62.028204    
     55900  -9375.977       58.646261     -9317.3307      166.39633      195.06833      62.052453    
     56000  -9374.8867      57.788364     -9317.0983      166.35043      195.03066      62.076701    
     56100  -9369.9795      55.964015     -9314.0155      166.30429      194.99554      62.10095     
     56200  -9366.3857      57.409387     -9308.9763      166.25466      194.96081      62.125199    
     56300  -9361.3239      58.040661     -9303.2833      166.20821      194.92956      62.149448    
     56400  -9357.432       58.118329     -9299.3136      166.16321      194.89759      62.173696    
     56500  -9355.7453      56.243538     -9299.5017      166.11995      194.86663      62.197945    
     56600  -9353.8376      57.310251     -9296.5273      166.08079      194.83743      62.222194    
     56700  -9347.3637      56.143603     -9291.2201      166.04232      194.80878      62.246442    
     56800  -9343.4705      57.62144      -9285.849       165.99973      194.77944      62.270691    
     56900  -9340.3253      58.171655     -9282.1537      165.96007      194.75224      62.29494     
     57000  -9339.1963      57.47964      -9281.7167      165.91722      194.72326      62.319189    
     57100  -9334.6923      55.795806     -9278.8965      165.87019      194.69109      62.343437    
     57200  -9329.3051      55.131954     -9274.1732      165.82735      194.65949      62.367686    
     57300  -9327.2122      58.929215     -9268.283       165.78717      194.62753      62.391935    
     57400  -9322.8485      59.711243     -9263.1373      165.75269      194.59664      62.416183    
     57500  -9320.5731      58.148049     -9262.425       165.71759      194.56472      62.440432    
     57600  -9317.5019      56.673762     -9260.8281      165.68253      194.53291      62.464681    
     57700  -9313.4988      56.319908     -9257.1789      165.64484      194.50169      62.48893     
     57800  -9309.6904      57.709726     -9251.9807      165.60857      194.47335      62.513178    
     57900  -9305.975       59.681085     -9246.2939      165.57048      194.44573      62.537427    
     58000  -9300.9379      58.121581     -9242.8163      165.53362      194.41951      62.561676    
     58100  -9299.3641      56.689017     -9242.6751      165.49623      194.39314      62.585924    
     58200  -9294.8887      55.47978      -9239.4089      165.46342      194.37233      62.610173    
     58300  -9291.2494      56.648946     -9234.6005      165.42307      194.34624      62.634422    
     58400  -9286.0019      57.161448     -9228.8405      165.38865      194.3237       62.658671    
     58500  -9281.4185      57.825749     -9223.5927      165.35922      194.30563      62.682919    
     58600  -9281.2987      58.391003     -9222.9077      165.31689      194.28144      62.707168    
     58700  -9278.7982      57.983326     -9220.8149      165.28484      194.26043      62.731417    
     58800  -9275.4425      57.910817     -9217.5317      165.25233      194.23683      62.755665    
     58900  -9269.8615      56.459547     -9213.4019      165.21435      194.21112      62.779914    
     59000  -9266.414       59.124945     -9207.289       165.18889      194.19191      62.804163    
     59100  -9263.0714      60.485569     -9202.5859      165.15356      194.16393      62.828411    
     59200  -9261.2272      59.517245     -9201.7099      165.12319      194.13642      62.85266     
     59300  -9256.3169      57.043506     -9199.2734      165.10347      194.11447      62.876909    
     59400  -9251.5481      56.145981     -9195.4021      165.06339      194.08487      62.901158    
     59500  -9246.709       56.348753     -9190.3603      165.02934      194.06252      62.925406    
     59600  -9242.5266      58.065695     -9184.4609      165.00195      194.04586      62.949655    
     59700  -9239.4207      59.275013     -9180.1456      164.96702      194.02295      62.973904    
     59800  -9236.427       56.896606     -9179.5304      164.9384       194.00419      62.998152    
     59900  -9233.4785      56.580205     -9176.8983      164.90774      193.98859      63.022401    
     60000  -9229.6137      56.339011     -9173.2747      164.86888      193.97098      63.04665     
     60100  -9226.5071      57.286181     -9169.2209      164.83582      193.95789      63.070899    
     60200  -9221.87        57.807303     -9164.0627      164.80047      193.94507      63.095147    
     60300  -9217.0356      58.629814     -9158.4058      164.76801      193.93152      63.119396    
     60400  -9212.7195      57.148921     -9155.5706      164.74093      193.91767      63.143645    
     60500  -9211.8006      57.355689     -9154.4449      164.71083      193.89972      63.167893    
     60600  -9208.0868      57.192504     -9150.8943      164.68008      193.88054      63.192142    
     60700  -9203.9919      57.058223     -9146.9337      164.65391      193.86253      63.216391    
     60800  -9199.6639      56.216278     -9143.4477      164.6253       193.84063      63.24064     
     60900  -9197.4667      57.38465      -9140.082       164.6018       193.81935      63.264888    
     61000  -9194.1286      57.127742     -9137.0009      164.57889      193.79792      63.289137    
     61100  -9189.2255      55.668303     -9133.5572      164.55106      193.77629      63.313386    
     61200  -9184.9124      56.30595      -9128.6064      164.52177      193.75535      63.337634    
     61300  -9179.7875      57.982588     -9121.8049      164.49901      193.73839      63.361883    
     61400  -9176.9399      59.22025      -9117.7196      164.47456      193.72173      63.386132    
     61500  -9173.8093      57.800432     -9116.0089      164.44127      193.70473      63.410381    
     61600  -9172.152       59.585086     -9112.5669      164.41666      193.69361      63.434629    
     61700  -9166.5075      57.405779     -9109.1018      164.38764      193.68014      63.458878    
     61800  -9162.5611      56.632228     -9105.9289      164.35449      193.66486      63.483127    
     61900  -9161.3876      58.449921     -9102.9377      164.32954      193.65411      63.507375    
     62000  -9157.4813      56.751302     -9100.73        164.30322      193.64094      63.531624    
     62100  -9151.0386      54.353225     -9096.6853      164.27893      193.62801      63.555873    
     62200  -9146.0328      56.794411     -9089.2384      164.25456      193.6154       63.580122    
     62300  -9142.5037      58.589327     -9083.9144      164.226        193.60361      63.60437     
     62400  -9138.5841      57.696327     -9080.8878      164.1956       193.59122      63.628619    
     62500  -9135.1994      56.631781     -9078.5676      164.16785      193.57749      63.652868    
     62600  -9131.793       56.619378     -9075.1736      164.13624      193.55898      63.677116    
     62700  -9128.075       57.213549     -9070.8615      164.11634      193.54321      63.701365    
     62800  -9125.2966      59.03649      -9066.2601      164.09583      193.52538      63.725614    
     62900  -9119.742       57.794116     -9061.9478      164.07517      193.50513      63.749863    
     63000  -9116.1726      56.73086      -9059.4417      164.06153      193.48841      63.774111    
     63100  -9115.1895      57.625195     -9057.5643      164.03709      193.46902      63.79836     
     63200  -9108.6137      56.518768     -9052.095       164.01651      193.45203      63.822609    
     63300  -9104.162       58.547212     -9045.6148      163.99744      193.43894      63.846857    
     63400  -9100.0202      58.883729     -9041.1365      163.96062      193.42082      63.871106    
     63500  -9095.7985      55.757472     -9040.041       163.93569      193.41409      63.895355    
     63600  -9093.114       56.199546     -9036.9145      163.9086       193.4057       63.919604    
     63700  -9090.5361      59.238727     -9031.2974      163.87897      193.39288      63.943852    
     63800  -9082.5245      57.666019     -9024.8585      163.86169      193.3835       63.968101    
     63900  -9079.7647      59.66226      -9020.1024      163.837        193.36876      63.99235     
     64000  -9077.7572      58.650311     -9019.1069      163.81952      193.35649      64.016598    
     64100  -9071.4338      55.924616     -9015.5091      163.79881      193.34308      64.040847    
     64200  -9067.7823      56.911752     -9010.8706      163.77243      193.32586      64.065096    
     64300  -9062.535       57.283595     -9005.2514      163.75029      193.31321      64.089344    
     64400  -9058.6983      59.347456     -8999.3509      163.72492      193.29855      64.113593    
     64500  -9054.943       58.811446     -8996.1316      163.70197      193.28672      64.137842    
     64600  -9051.7701      57.31917      -8994.4509      163.67767      193.27657      64.162091    
     64700  -9046.6592      56.092825     -8990.5664      163.6508       193.26418      64.186339    
     64800  -9041.4102      56.099169     -8985.311       163.63057      193.25176      64.210588    
     64900  -9038.2443      58.689892     -8979.5544      163.61327      193.23661      64.234837    
     65000  -9031.866       57.078657     -8974.7873      163.59115      193.21804      64.259085    
     65100  -9030.3687      57.712743     -8972.656       163.57345      193.20493      64.283334    
     65200  -9025.0301      55.674128     -8969.356       163.55289      193.19239      64.307583    
     65300  -9023.0701      58.094686     -8964.9755      163.52829      193.17805      64.331832    
     65400  -9017.895       57.662497     -8960.2325      163.50891      193.16765      64.35608     
     65500  -9013.3513      57.288384     -8956.0629      163.48343      193.15632      64.380329    
     65600  -9011.7874      58.737891     -8953.0495      163.45654      193.14585      64.404578    
     65700  -9005.0458      56.121972     -8948.9239      163.43306      193.13455      64.428826    
     65800  -9000.4035      56.803945     -8943.5995      163.41021      193.11945      64.453075    
     65900  -8994.9615      58.690436     -8936.271       163.39417      193.10598      64.477324    
     66000  -8989.3337      59.018363     -8930.3154      163.37174      193.09057      64.501573    
     66100  -8986.8033      58.684083     -8928.1192      163.35584      193.07968      64.525821    
     66200  -8980.9412      56.417784     -8924.5235      163.33671      193.06885      64.55007     
     66300  -8978.5125      57.836996     -8920.6755      163.30737      193.05561      64.574319    
     66400  -8973.3768      56.574681     -8916.8022      163.27904      193.04571      64.598567    
     66500  -8968.7345      55.517772     -8913.2168      163.25036      193.03476      64.622816    
     66600  -8966.6087      56.897504     -8909.7112      163.22491      193.02166      64.647065    
     66700  -8964.1665      57.261518     -8906.9049      163.20425      193.00918      64.671314    
     66800  -8956.1493      55.118959     -8901.0303      163.18484      192.99552      64.695562    
     66900  -8949.652       57.132641     -8892.5193      163.16986      192.97924      64.719811    
     67000  -8946.8473      59.517721     -8887.3296      163.15304      192.95825      64.74406     
     67100  -8940.6162      57.368115     -8883.2481      163.13452      192.94034      64.768308    
     67200  -8937.3751      57.520512     -8879.8545      163.11249      192.92444      64.792557    
     67300  -8934.0681      58.865237     -8875.2028      163.08873      192.91182      64.816806    
     67400  -8926.9384      56.351128     -8870.5872      163.06031      192.89944      64.841055    
     67500  -8923.6138      56.967598     -8866.6462      163.03327      192.88852      64.865303    
     67600  -8919.6844      55.788293     -8863.8961      163.01013      192.87966      64.889552    
     67700  -8916.2427      56.237979     -8860.0047      162.98521      192.86795      64.913801    
     67800  -8909.6656      55.781952     -8853.8837      162.9651       192.85628      64.938049    
     67900  -8905.1999      57.902425     -8847.2975      162.94604      192.84336      64.962298    
     68000  -8898.6555      57.720483     -8840.935       162.92247      192.82772      64.986547    
     68100  -8894.5575      58.108714     -8836.4488      162.90168      192.81542      65.010796    
     68200  -8893.7812      59.098478     -8834.6827      162.87678      192.80219      65.035044    
     68300  -8884.9581      55.80353      -8829.1545      162.84977      192.78946      65.059293    
     68400  -8880.9953      57.596952     -8823.3983      162.82489      192.77734      65.083542    
     68500  -8876.6535      57.780509     -8818.873       162.79797      192.76052      65.10779     
     68600  -8870.7533      54.935764     -8815.8175      162.77717      192.74411      65.132039    
     68700  -8866.4848      56.462508     -8810.0223      162.75329      192.72499      65.156288    
     68800  -8860.4687      57.114691     -8803.354       162.73007      192.70477      65.180537    
     68900  -8854.5358      59.499062     -8795.0367      162.71068      192.68676      65.204785    
     69000  -8850.0634      60.501327     -8789.562       162.69182      192.66749      65.229034    
     69100  -8846.191       58.688882     -8787.5021      162.67552      192.65221      65.253283    
     69200  -8841.2834      57.633059     -8783.6503      162.65521      192.63864      65.277531    
     69300  -8837.8921      58.233101     -8779.659       162.63136      192.62676      65.30178     
     69400  -8831.3651      56.755558     -8774.6095      162.60494      192.61597      65.326029    
     69500  -8828.5227      59.389625     -8769.133       162.57596      192.60617      65.350277    
     69600  -8822.2995      57.466808     -8764.8327      162.54409      192.59605      65.374526    
     69700  -8816.7         56.75177      -8759.9483      162.51594      192.58632      65.398775    
     69800  -8810.2592      56.642518     -8753.6166      162.48873      192.57253      65.423024    
     69900  -8806.7155      58.875725     -8747.8398      162.46836      192.55974      65.447272    
     70000  -8799.6718      56.185093     -8743.4867      162.44884      192.54425      65.471521    
     70100  -8796.5615      57.844985     -8738.7165      162.42893      192.52427      65.49577     
     70200  -8792.3282      59.027501     -8733.3007      162.41261      192.50527      65.520018    
     70300  -8786.7827      59.213825     -8727.5689      162.3886       192.48348      65.544267    
     70400  -8779.343       57.412517     -8721.9305      162.36517      192.46394      65.568516    
     70500  -8773.0745      57.788552     -8715.286       162.34203      192.44796      65.592765    
     70600  -8768.4104      58.046759     -8710.3637      162.31004      192.42804      65.617013    
     70700  -8763.9358      58.906238     -8705.0295      162.28356      192.41306      65.641262    
     70800  -8757.4294      57.324163     -8700.1052      162.25541      192.398        65.665511    
     70900  -8752.5666      58.076768     -8694.4898      162.22662      192.38295      65.689759    
     71000  -8748.8681      59.271439     -8689.5966      162.20552      192.37282      65.714008    
     71100  -8741.8052      57.822379     -8683.9829      162.17994      192.35913      65.738257    
     71200  -8736.1277      57.956064     -8678.1716      162.15675      192.34519      65.762506    
     71300  -8729.4184      56.622956     -8672.7955      162.1358       192.33093      65.786754    
     71400  -8726.4182      58.913125     -8667.5051      162.10578      192.31265      65.811003    
     71500  -8721.017       58.580634     -8662.4364      162.07981      192.29831      65.835252    
     71600  -8716.292       58.556224     -8657.7358      162.05138      192.28287      65.8595      
     71700  -8711.0589      59.047216     -8652.0117      162.0206       192.26459      65.883749    
     71800  -8704.3283      58.501601     -8645.8267      161.99662      192.2467       65.907998    
     71900  -8697.6649      58.537087     -8639.1278      161.96697      192.22266      65.932247    
     72000  -8691.1759      58.662175     -8632.5137      161.94222      192.20022      65.956495    
     72100  -8685.3448      58.637453     -8626.7073      161.92233      192.18024      65.980744    
     72200  -8682.1528      58.947506     -8623.2053      161.89595      192.15568      66.004993    
     72300  -8677.2441      59.257484     -8617.9866      161.87616      192.13876      66.029241    
     72400  -8671.0337      58.306042     -8612.7277      161.84913      192.12277      66.05349     
     72500  -8664.7622      57.773195     -8606.989       161.81337      192.10581      66.077739    
     72600  -8660.6926      60.482014     -8600.2106      161.78495      192.09527      66.101988    
     72700  -8652.8112      57.949485     -8594.8618      161.74839      192.07922      66.126236    
     72800  -8646.7024      58.936769     -8587.7657      161.71333      192.0609       66.150485    
     72900  -8641.7696      59.180292     -8582.5893      161.68702      192.04488      66.174734    
     73000  -8635.1734      59.122534     -8576.0509      161.65558      192.0223       66.198982    
     73100  -8630.4266      59.509552     -8570.9171      161.62961      192.00024      66.223231    
     73200  -8622.7338      57.724473     -8565.0093      161.60761      191.97861      66.24748     
     73300  -8619.8374      59.864706     -8559.9727      161.57919      191.95144      66.271729    
     73400  -8612.8058      58.637439     -8554.1683      161.55691      191.9285       66.295977    
     73500  -8608.9049      61.842112     -8547.0628      161.52842      191.90408      66.320226    
     73600  -8602.4191      62.048098     -8540.371       161.49331      191.88128      66.344475    
     73700  -8591.8718      57.512851     -8534.3589      161.46129      191.86448      66.368723    
     73800  -8588.2842      60.203996     -8528.0802      161.42272      191.84462      66.392972    
     73900  -8581.8828      60.585308     -8521.2975      161.3892       191.82702      66.417221    
     74000  -8574.5084      58.067877     -8516.4405      161.35722      191.80982      66.44147     
     74100  -8572.7684      62.752417     -8510.016       161.32186      191.78971      66.465718    
     74200  -8564.6824      61.50375      -8503.1786      161.29289      191.77237      66.489967    
     74300  -8557.8405      60.071897     -8497.7686      161.25953      191.74962      66.514216    
     74400  -8551.5921      59.522642     -8492.0695      161.22514      191.72611      66.538464    
     74500  -8544.9119      59.720157     -8485.1918      161.19611      191.70519      66.562713    
     74600  -8540.2046      62.553919     -8477.6507      161.16047      191.67929      66.586962    
     74700  -8530.4566      59.395276     -8471.0613      161.12652      191.65561      66.61121     
     74800  -8528.6608      63.234236     -8465.4265      161.09378      191.63297      66.635459    
     74900  -8521.1767      60.740617     -8460.4361      161.0548       191.60614      66.659708    
     75000  -8515.4529      61.093921     -8454.359       161.02142      191.58228      66.683957    
     75100  -8507.4773      59.195591     -8448.2817      160.9852       191.55686      66.708205    
     75200  -8502.35        60.56505      -8441.785       160.94829      191.53073      66.732454    
     75300  -8496.513       61.429518     -8435.0835      160.91648      191.50732      66.756703    
     75400  -8489.4519      60.581581     -8428.8703      160.87929      191.48125      66.780951    
     75500  -8482.241       60.44676      -8421.7942      160.84198      191.45678      66.8052      
     75600  -8474.8932      59.146759     -8415.7465      160.80584      191.43424      66.829449    
     75700  -8469.1376      61.486043     -8407.6516      160.76474      191.40894      66.853698    
     75800  -8461.4061      61.083914     -8400.3222      160.72546      191.38465      66.877946    
     75900  -8457.9041      64.293018     -8393.6111      160.68657      191.36108      66.902195    
     76000  -8449.4634      61.842736     -8387.6207      160.64323      191.3341       66.926444    
     76100  -8442.3698      64.978704     -8377.3911      160.60293      191.30689      66.950692    
     76200  -8435.4912      66.475401     -8369.0158      160.56339      191.27908      66.974941    
     76300  -8424.2819      63.651614     -8360.6303      160.52025      191.24887      66.99919     
     76400  -8418.5252      67.689406     -8350.8358      160.47974      191.21929      67.023439    
     76500  -8411.3674      66.593714     -8344.7737      160.44128      191.18927      67.047687    
     76600  -8406.1594      67.377946     -8338.7814      160.39875      191.1585       67.071936    
     76700  -8398.5684      66.920259     -8331.6482      160.35644      191.1295       67.096185    
     76800  -8390.4635      66.776883     -8323.6866      160.3144       191.10117      67.120433    
     76900  -8386.6886      69.69331      -8316.9953      160.26679      191.07063      67.144682    
     77000  -8378.9583      66.677147     -8312.2811      160.22331      191.04323      67.168931    
     77100  -8374.2446      65.751452     -8308.4931      160.17687      191.01302      67.19318     
     77200  -8366.2073      65.097566     -8301.1097      160.12848      190.98081      67.217428    
     77300  -8363.0714      67.680567     -8295.3908      160.08287      190.95075      67.241677    
     77400  -8355.7448      68.429968     -8287.3149      160.03419      190.91793      67.265926    
     77500  -8345.9969      67.442947     -8278.5539      159.98511      190.88425      67.290174    
     77600  -8337.7922      66.845941     -8270.9463      159.93781      190.85182      67.314423    
     77700  -8329.4444      64.838654     -8264.6057      159.88761      190.8177       67.338672    
     77800  -8324.1201      67.173936     -8256.9461      159.83828      190.78333      67.362921    
     77900  -8315.945       64.628932     -8251.316       159.7898       190.74992      67.387169    
     78000  -8311.0743      66.988229     -8244.0861      159.73728      190.71507      67.411418    
     78100  -8300.1582      67.243592     -8232.9147      159.68304      190.67989      67.435667    
     78200  -8294.9818      68.918273     -8226.0635      159.631        190.64527      67.459915    
     78300  -8302.2833      83.42188      -8218.8615      159.57621      190.60912      67.484164    
     78400  -8481.6325      224.1377      -8257.4948      159.52212      190.57254      67.508413    
     78500  -8953.3326      396.55067     -8556.7819      159.4899       190.54188      67.532662    
     78600  -9519.1585      425.31904     -9093.8394      159.45311      190.51432      67.55691     
     78700  -9988.6823      351.82888     -9636.8534      159.44829      190.52005      67.581159    
     78800  -10212.772      199.52517     -10013.246      159.46214      190.54585      67.605408    
     78900  -10299.134      125.17066     -10173.963      159.46121      190.53387      67.629656    
     79000  -10346.601      85.078297     -10261.522      159.44973      190.5256       67.653905    
     79100  -10363.562      60.623416     -10302.939      159.43798      190.52673      67.678154    
     79200  -10376.848      52.374346     -10324.474      159.44083      190.54539      67.702403    
     79300  -10381.981      47.902136     -10334.078      159.4462       190.57764      67.726651    
     79400  -10381.741      51.055699     -10330.685      159.41188      190.58718      67.7509      
     79500  -10374.995      59.609099     -10315.386      159.39585      190.61082      67.775149    
     79600  -10368.247      63.963192     -10304.284      159.38397      190.62731      67.799397    
     79700  -10369.14       62.272876     -10306.867      159.35604      190.6271       67.823646    
     79800  -10376.228      55.972509     -10320.256      159.35308      190.6421       67.847895    
     79900  -10380.667      52.990697     -10327.676      159.33326      190.64416      67.872143    
     80000  -10378.306      53.131189     -10325.175      159.3248       190.65344      67.896392    
     80100  -10378.457      60.55         -10317.907      159.33518      190.67015      67.920641    
     80200  -10374.651      60.574934     -10314.076      159.32692      190.67426      67.94489     
     80300  -10377.105      59.718727     -10317.386      159.32125      190.67782      67.969138    
     80400  -10380.155      57.001512     -10323.153      159.32202      190.68282      67.993387    
     80500  -10378.423      53.079087     -10325.343      159.31564      190.67827      68.017636    
     80600  -10377.173      55.538772     -10321.634      159.31751      190.67317      68.041884    
     80700  -10376.87       59.71514      -10317.155      159.32483      190.67335      68.066133    
     80800  -10376.439      59.054795     -10317.384      159.30993      190.66455      68.090382    
     80900  -10378.714      56.451085     -10322.262      159.30076      190.66371      68.114631    
     81000  -10378.586      53.423458     -10325.162      159.29211      190.66558      68.138879    
     81100  -10379.622      55.294781     -10324.327      159.2768       190.66849      68.163128    
     81200  -10378.624      56.914014     -10321.71       159.27812      190.68021      68.187377    
     81300  -10382.428      62.643239     -10319.785      159.27695      190.68275      68.211625    
     81400  -10381.482      58.785765     -10322.696      159.27548      190.68266      68.235874    
     81500  -10382.203      54.709121     -10327.494      159.27911      190.68219      68.260123    
     81600  -10385.836      56.638306     -10329.197      159.2742       190.6761       68.284372    
     81700  -10387.172      57.86612      -10329.306      159.26096      190.6725       68.30862     
     81800  -10386.482      56.622299     -10329.86       159.25149      190.67216      68.332869    
     81900  -10387.727      57.071492     -10330.656      159.23238      190.66548      68.357118    
     82000  -10388.434      57.826338     -10330.607      159.22731      190.66342      68.381366    
     82100  -10389.208      60.197551     -10329.01       159.23509      190.6604       68.405615    
     82200  -10388.365      58.94294      -10329.422      159.24442      190.65841      68.429864    
     82300  -10386.887      55.90844      -10330.979      159.25183      190.65402      68.454113    
     82400  -10389.756      58.907454     -10330.848      159.23613      190.63419      68.478361    
     82500  -10387.092      57.325237     -10329.766      159.2162       190.61567      68.50261     
     82600  -10387.766      59.315503     -10328.45       159.20788      190.6037       68.526859    
     82700  -10387.317      57.192811     -10330.125      159.19914      190.5897       68.551107    
     82800  -10391.052      57.67429      -10333.378      159.18957      190.57231      68.575356    
     82900  -10392.546      56.754193     -10335.791      159.18314      190.55158      68.599605    
     83000  -10391.986      56.190088     -10335.796      159.16598      190.52657      68.623854    
     83100  -10390.207      57.094746     -10333.112      159.1727       190.51942      68.648102    
     83200  -10389.023      59.732678     -10329.29       159.15909      190.50994      68.672351    
     83300  -10387.936      59.566063     -10328.37       159.14268      190.50197      68.6966      
     83400  -10389.914      59.532412     -10330.382      159.13185      190.49132      68.720848    
     83500  -10389.309      55.187846     -10334.121      159.10453      190.47822      68.745097    
     83600  -10391.194      54.984345     -10336.209      159.08221      190.47954      68.769346    
     83700  -10393.421      59.048422     -10334.373      159.06659      190.48801      68.793595    
     83800  -10388.149      56.186567     -10331.963      159.04418      190.49525      68.817843    
     83900  -10387.759      57.914258     -10329.845      159.00564      190.50081      68.842092    
     84000  -10390.145      60.16239      -10329.983      158.95999      190.50354      68.866341    
     84100  -10389.908      57.292224     -10332.615      158.92161      190.51312      68.890589    
     84200  -10389.357      53.712655     -10335.644      158.88078      190.52012      68.914838    
     84300  -10390.131      54.154875     -10335.976      158.84033      190.52827      68.939087    
     84400  -10388.994      57.304026     -10331.69       158.81022      190.5425       68.963336    
     84500  -10387.004      59.974961     -10327.029      158.76326      190.54412      68.987584    
     84600  -10388.223      60.776093     -10327.447      158.72         190.5441       69.011833    
     84700  -10388.792      57.642843     -10331.149      158.69029      190.55249      69.036082    
     84800  -10389.384      54.277731     -10335.106      158.6482       190.55174      69.06033     
     84900  -10390.035      54.814278     -10335.22       158.59697      190.55698      69.084579    
     85000  -10387.773      57.599142     -10330.174      158.55304      190.56021      69.108828    
     85100  -10383.579      59.086891     -10324.492      158.50383      190.5526       69.133076    
     85200  -10384.987      60.755117     -10324.232      158.46016      190.55698      69.157325    
     85300  -10386.761      58.345252     -10328.416      158.40206      190.56042      69.181574    
     85400  -10388.448      55.213547     -10333.235      158.34544      190.56171      69.205823    
     85500  -10389.751      54.443874     -10335.308      158.2968       190.56755      69.230071    
     85600  -10386.079      53.531946     -10332.547      158.24334      190.56918      69.25432     
     85700  -10383.949      57.548255     -10326.401      158.1986       190.57998      69.278569    
     85800  -10382.371      59.905557     -10322.466      158.14026      190.58493      69.302817    
     85900  -10384.53       59.866521     -10324.664      158.08669      190.59277      69.327066    
     86000  -10386.43       56.384086     -10330.046      158.03374      190.5914       69.351315    
     86100  -10387.206      54.578943     -10332.627      157.98425      190.58218      69.375564    
     86200  -10386.989      56.743159     -10330.246      157.92756      190.55778      69.399812    
     86300  -10384.79       58.749815     -10326.04       157.87492      190.53794      69.424061    
     86400  -10382.486      58.509055     -10323.977      157.82544      190.52482      69.44831     
     86500  -10383.445      58.421856     -10325.023      157.77514      190.50629      69.472558    
     86600  -10384.687      57.061294     -10327.626      157.73095      190.49584      69.496807    
     86700  -10384.695      55.992585     -10328.702      157.67913      190.47748      69.521056    
     86800  -10383.863      56.351725     -10327.511      157.63121      190.46033      69.545305    
     86900  -10382.359      58.038561     -10324.32       157.57616      190.43485      69.569553    
     87000  -10381.679      59.756796     -10321.922      157.52032      190.40696      69.593802    
     87100  -10383.547      59.101443     -10324.446      157.47421      190.38297      69.618051    
     87200  -10386.752      56.073896     -10330.679      157.42581      190.35444      69.642299    
     87300  -10387.267      53.02944      -10334.237      157.39013      190.33421      69.666548    
     87400  -10387.346      55.179286     -10332.166      157.34499      190.3021       69.690797    
     87500  -10385.021      59.182019     -10325.839      157.29678      190.26637      69.715046    
     87600  -10381.887      60.669407     -10321.218      157.25202      190.23178      69.739294    
     87700  -10384.075      61.490829     -10322.584      157.20452      190.1919       69.763543    
     87800  -10386.585      58.078052     -10328.507      157.15653      190.15225      69.787792    
     87900  -10389.5        56.316786     -10333.183      157.112        190.11669      69.81204     
     88000  -10387.307      53.862445     -10333.445      157.05626      190.07831      69.836289    
     88100  -10384.308      55.78033      -10328.527      156.99276      190.04289      69.860538    
     88200  -10382.127      59.869076     -10322.258      156.93331      190.01927      69.884787    
     88300  -10380.219      59.768997     -10320.45       156.87424      189.99796      69.909035    
     88400  -10382.591      58.570806     -10324.02       156.81443      189.97657      69.933284    
     88500  -10384.249      55.099668     -10329.149      156.75996      189.9561       69.957533    
     88600  -10387.061      55.723771     -10331.337      156.6906       189.92602      69.981781    
     88700  -10383.625      54.95646      -10328.668      156.63265      189.90053      70.00603     
     88800  -10381.113      58.502105     -10322.611      156.58271      189.86867      70.030279    
     88900  -10377.588      58.429998     -10319.158      156.52149      189.82936      70.054528    
     89000  -10378.465      57.341562     -10321.124      156.45683      189.8023       70.078776    
     89100  -10382.603      56.688113     -10325.915      156.37651      189.77376      70.103025    
     89200  -10385.075      56.419221     -10328.656      156.2975       189.7506       70.127274    
     89300  -10382.213      55.741629     -10326.471      156.22048      189.72923      70.151522    
     89400  -10380.083      58.971226     -10321.112      156.13734      189.704        70.175771    
     89500  -10376.756      58.988656     -10317.767      156.05703      189.6864       70.20002     
     89600  -10378.635      59.479049     -10319.156      155.97375      189.66867      70.224269    
     89700  -10380.676      56.746551     -10323.929      155.88685      189.65046      70.248517    
     89800  -10382.903      56.040781     -10326.862      155.80001      189.62642      70.272766    
     89900  -10382.215      56.808229     -10325.406      155.7164       189.60004      70.297015    
     90000  -10377.826      56.653554     -10321.173      155.62818      189.57503      70.321263    
     90100  -10377.654      60.515941     -10317.138      155.54245      189.55517      70.345512    
     90200  -10374.53       57.610351     -10316.92       155.45221      189.52782      70.369761    
     90300  -10376.143      55.878172     -10320.265      155.36368      189.49693      70.394009    
     90400  -10379.616      56.278927     -10323.337      155.28362      189.473        70.418258    
     90500  -10380.674      56.809989     -10323.864      155.19416      189.44717      70.442507    
     90600  -10378.115      56.171376     -10321.943      155.10488      189.42379      70.466756    
     90700  -10376.536      56.997168     -10319.538      155.00942      189.3946       70.491004    
     90800  -10376.307      58.423263     -10317.884      154.91493      189.3649       70.515253    
     90900  -10377.021      58.325634     -10318.695      154.82277      189.33917      70.539502    
     91000  -10379.273      58.390338     -10320.883      154.72645      189.31249      70.56375     
     91100  -10378.557      55.858312     -10322.698      154.6369       189.28318      70.587999    
     91200  -10376.79       55.034392     -10321.755      154.54752      189.25154      70.612248    
     91300  -10375.281      56.726677     -10318.554      154.45527      189.22015      70.636497    
     91400  -10374.028      57.813185     -10316.215      154.35802      189.19019      70.660745    
     91500  -10377.188      59.632146     -10317.556      154.25971      189.16255      70.684994    
     91600  -10379.922      58.369025     -10321.553      154.15764      189.13634      70.709243    
     91700  -10379.459      55.562473     -10323.896      154.06021      189.1129       70.733491    
     91800  -10377.253      55.328315     -10321.924      153.96561      189.08671      70.75774     
     91900  -10373.852      57.260093     -10316.591      153.87244      189.05944      70.781989    
     92000  -10373.358      61.008028     -10312.35       153.77363      189.02093      70.806238    
     92100  -10371.313      57.29392      -10314.02       153.68198      188.98849      70.830486    
     92200  -10374.902      56.165766     -10318.736      153.59328      188.95219      70.854735    
     92300  -10376.898      55.481419     -10321.416      153.50988      188.91506      70.878984    
     92400  -10375.998      55.663043     -10320.335      153.42856      188.87748      70.903232    
     92500  -10374.139      57.551947     -10316.587      153.34305      188.8381       70.927481    
     92600  -10372.836      59.38976      -10313.446      153.26033      188.80051      70.95173     
     92700  -10370.777      57.519935     -10313.257      153.17735      188.76146      70.975979    
     92800  -10370.989      55.081435     -10315.907      153.10126      188.72689      71.000227    
     92900  -10373.254      55.284516     -10317.969      153.02264      188.68929      71.024476    
     93000  -10372.721      54.843103     -10317.878      152.93299      188.65031      71.048725    
     93100  -10372.874      57.76097      -10315.113      152.84265      188.61644      71.072973    
     93200  -10371.254      58.795386     -10312.458      152.7581       188.5849       71.097222    
     93300  -10371.849      57.817118     -10314.031      152.66919      188.55161      71.121471    
     93400  -10373.75       56.479542     -10317.27       152.58259      188.51623      71.14572     
     93500  -10376.891      57.680331     -10319.211      152.49986      188.48316      71.169968    
     93600  -10373.183      56.073836     -10317.109      152.41274      188.44999      71.194217    
     93700  -10370.57       57.452822     -10313.117      152.3293       188.42202      71.218466    
     93800  -10370.211      59.50487      -10310.707      152.24717      188.39525      71.242714    
     93900  -10368.934      57.64141      -10311.292      152.16253      188.36117      71.266963    
     94000  -10372.451      57.144016     -10315.307      152.08642      188.32338      71.291212    
     94100  -10372.906      54.571553     -10318.334      152.01713      188.28244      71.315461    
     94200  -10371.898      54.680237     -10317.218      151.95002      188.24848      71.339709    
     94300  -10370.279      57.177395     -10313.101      151.87512      188.21636      71.363958    
     94400  -10368.529      59.575131     -10308.954      151.78765      188.17697      71.388207    
     94500  -10368.493      59.830131     -10308.663      151.70155      188.14436      71.412455    
     94600  -10369.207      57.387019     -10311.82       151.61862      188.11726      71.436704    
     94700  -10370.777      55.492487     -10315.284      151.53605      188.08764      71.460953    
     94800  -10370.417      54.662136     -10315.755      151.45586      188.05461      71.485202    
     94900  -10370.476      57.611138     -10312.865      151.37597      188.01895      71.50945     
     95000  -10368.899      59.51317      -10309.386      151.29976      187.98724      71.533699    
     95100  -10368.844      60.634552     -10308.209      151.21976      187.95857      71.557948    
     95200  -10367.665      57.870584     -10309.795      151.14241      187.93353      71.582196    
     95300  -10369.911      57.133059     -10312.778      151.06809      187.91057      71.606445    
     95400  -10369.547      56.287405     -10313.26       150.98735      187.88401      71.630694    
     95500  -10367.26       56.207887     -10311.052      150.91561      187.86448      71.654942    
     95600  -10366.491      59.010219     -10307.481      150.83368      187.83586      71.679191    
     95700  -10364.821      58.811782     -10306.009      150.74812      187.8026       71.70344     
     95800  -10366.282      58.704453     -10307.578      150.66949      187.77471      71.727689    
     95900  -10368.105      57.597569     -10310.507      150.59098      187.74693      71.751937    
     96000  -10366.928      55.557336     -10311.371      150.51595      187.72143      71.776186    
     96100  -10366.558      57.007903     -10309.55       150.43454      187.6979       71.800435    
     96200  -10365.345      58.361533     -10306.983      150.35972      187.6808       71.824683    
     96300  -10363.303      58.644134     -10304.659      150.28424      187.66335      71.848932    
     96400  -10363.047      58.245636     -10304.801      150.20587      187.64001      71.873181    
     96500  -10365.334      57.664094     -10307.67       150.13305      187.61343      71.89743     
     96600  -10366.364      56.615173     -10309.749      150.06467      187.5835       71.921678    
     96700  -10366.603      57.886327     -10308.717      149.99594      187.54771      71.945927    
     96800  -10364.647      58.536077     -10306.111      149.92765      187.5121       71.970176    
     96900  -10363.65       59.070977     -10304.579      149.86415      187.48155      71.994424    
     97000  -10362.273      57.932543     -10304.341      149.79515      187.44724      72.018673    
     97100  -10364.194      58.329774     -10305.864      149.72983      187.42013      72.042922    
     97200  -10365.569      58.072584     -10307.496      149.658        187.38941      72.067171    
     97300  -10363.238      55.079371     -10308.159      149.59497      187.36815      72.091419    
     97400  -10364.736      57.623651     -10307.113      149.52815      187.34735      72.115668    
     97500  -10362.616      57.740655     -10304.875      149.46588      187.32878      72.139917    
     97600  -10361.21       58.193306     -10303.017      149.40111      187.30673      72.164165    
     97700  -10360.396      57.903235     -10302.493      149.33557      187.28342      72.188414    
     97800  -10360.919      56.810082     -10304.109      149.27671      187.2645       72.212663    
     97900  -10361.33       55.516283     -10305.814      149.20368      187.23745      72.236912    
     98000  -10362.303      56.630117     -10305.673      149.14272      187.22094      72.26116     
     98100  -10360.415      56.668782     -10303.746      149.07789      187.20021      72.285409    
     98200  -10359.218      58.051574     -10301.166      149.00906      187.17587      72.309658    
     98300  -10358.537      58.782562     -10299.754      148.95479      187.16073      72.333906    
     98400  -10360.185      59.144566     -10301.04       148.89419      187.13542      72.358155    
     98500  -10357.95       55.065976     -10302.885      148.83725      187.10863      72.382404    
     98600  -10359.778      56.80708      -10302.971      148.78998      187.08436      72.406653    
     98700  -10358.188      56.852671     -10301.336      148.73429      187.05121      72.430901    
     98800  -10356.893      57.779849     -10299.113      148.6931       187.02445      72.45515     
     98900  -10356.028      58.143601     -10297.884      148.6537       186.99311      72.479399    
     99000  -10356.439      56.951352     -10299.488      148.59893      186.95392      72.503647    
     99100  -10358.074      56.035341     -10302.038      148.54408      186.91982      72.527896    
     99200  -10359.205      56.481251     -10302.724      148.48895      186.88013      72.552145    
     99300  -10358.793      57.690276     -10301.103      148.43635      186.8467       72.576394    
     99400  -10356.206      57.37184      -10298.834      148.39001      186.81554      72.600642    
     99500  -10356.296      59.059698     -10297.237      148.34692      186.78258      72.624891    
     99600  -10356.974      59.313704     -10297.66       148.30156      186.74838      72.64914     
     99700  -10356.77       56.718391     -10300.052      148.25473      186.72279      72.673388    
     99800  -10357.938      56.59702      -10301.341      148.21078      186.70574      72.697637    
     99900  -10355.247      53.783293     -10301.464      148.15622      186.68308      72.721886    
    100000  -10354.756      56.126775     -10298.629      148.10569      186.6654       72.746134    
Loop time of 655.293 on 64 procs for 100000 steps with 1480 atoms

Performance: 13.185 ns/day, 1.820 hours/ns, 152.603 timesteps/s, 225.853 katom-step/s
99.1% CPU use with 64 MPI tasks x 1 OpenMP threads

MPI task timing breakdown:
Section |  min time  |  avg time  |  max time  |%varavg| %total
---------------------------------------------------------------
Pair    | 0.063198   | 35.83      | 599.27     |2302.6 |  5.47
Neigh   | 0.0016748  | 0.22774    | 3.5687     | 176.6 |  0.03
Comm    | 0.03533    | 4.2316     | 93.553     | 822.0 |  0.65
Output  | 0.16467    | 0.1813     | 0.23828    |   3.1 |  0.03
Modify  | 15.01      | 613.45     | 653.65     | 623.7 | 93.62
Other   |            | 1.367      |            |       |  0.21

Nlocal:         23.125 ave         410 max           0 min
Histogram: 60 0 0 0 0 0 0 1 1 2
Nghost:        141.469 ave        1784 max           0 min
Histogram: 56 0 2 2 0 0 0 0 0 4
Neighs:              0 ave           0 max           0 min
Histogram: 64 0 0 0 0 0 0 0 0 0

Total # of neighbors = 0
Ave neighs/atom = 0
Neighbor list builds = 402
Dangerous builds = 0
Total wall time: 0:10:55
