LAMMPS (2 Aug 2023 - Update 3)
OMP_NUM_THREADS environment is not set. Defaulting to 1 thread. (src/comm.cpp:98)
  using 1 OpenMP thread(s) per MPI task

# 1------general---------------
units                             metal      #单位为lammps 中的metel 类型
dimension                    3          #模拟的维度 三维
boundary                    p p p      #周期边界条件
atom_style                  atomic   #原子类型自动
atom_modify              map array sort 100 2.0
neighbor                    3.0 bin
neigh_modify            every 1 delay 0 check yes
#2 -----global variable-------定义全局变量，方便统一修改；
variable temperature equal 300
variable tstep equal 0.001
variable pressure equal 0
variable thermalstep equal 100
variable dumpstep equal 1000
variable relaxtime equal 0
variable totaltime equal 100000
variable deformrate equal 5e-3
#3 -------model------------
#box tilt large
read_data     1.lmp
Reading data file ...
  orthogonal box = (-100 -100 -2.1416495) to (100 100 39.081159)
  4 by 4 by 1 MPI processor grid
  reading atoms ...
  1620 atoms
  read_data CPU = 0.608 seconds
group SR type 2 3
600 atoms in group SR
delete_atoms group SR
Deleted 600 atoms, new total = 1020
replicate 1 1 19
Replication is creating a 1x1x19 = 19 times larger system...
  orthogonal box = (-100 -100 -2.1416495) to (100 100 781.09172)
  2 by 2 by 4 MPI processor grid
  19380 atoms
  replicate CPU = 0.596 seconds
write_data h.data
System init for write_data ...
WARNING: Communication cutoff is 0.0. No ghost atoms will be generated. Atoms may get lost. (src/comm_brick.cpp:210)
pair_style hybrid airebo 3.0 airebo 3.0 airebo 3.0 lj/cut 10
pair_coeff * * airebo 1 CH.airebo C NULL NULL
Reading airebo potential file CH.airebo with DATE: 2011-10-25
pair_coeff * * airebo 2 CH.airebo NULL C NULL
Reading airebo potential file CH.airebo with DATE: 2011-10-25
pair_coeff * * airebo 3 CH.airebo NULL NULL C
Reading airebo potential file CH.airebo with DATE: 2011-10-25
pair_coeff 1 2 lj/cut 0.00456 3.431
pair_coeff 1 3 lj/cut 0.00456 3.431
pair_coeff 2 3 lj/cut 0.00456 3.431

# 5------minimize -----------
min_style      sd
minimize       1.0e-4 1.0e-6 100 1000
Neighbor list info ...
  update: every = 1 steps, delay = 0 steps, check = yes
  max neighbors/atom: 2000, page size: 100000
  master list distance cutoff = 13.2
  ghost atom cutoff = 13.2
  binsize = 6.6, bins = 31 31 119
  6 neighbor lists, perpetual/occasional/extra = 6 0 0
  (1) pair airebo, perpetual, skip from (5)
      attributes: full, newton on, ghost
      pair build: skip/ghost
      stencil: none
      bin: none
  (2) pair airebo, perpetual, skip from (5)
      attributes: full, newton on, ghost
      pair build: skip/ghost
      stencil: none
      bin: none
  (3) pair airebo, perpetual, skip from (5)
      attributes: full, newton on, ghost
      pair build: skip/ghost
      stencil: none
      bin: none
  (4) pair lj/cut, perpetual, skip from (6)
      attributes: half, newton on, cut 13
      pair build: skip
      stencil: none
      bin: none
  (5) neighbor class addition, perpetual
      attributes: full, newton on, ghost
      pair build: full/bin/ghost
      stencil: full/ghost/bin/3d
      bin: standard
  (6) neighbor class addition, perpetual
      attributes: half, newton on, cut 13
      pair build: half/bin/atomonly/newton
      stencil: half/bin/3d
      bin: standard
Per MPI rank memory allocation (min/avg/max) = 13.1 | 13.68 | 13.87 Mbytes
   Step          Temp          E_pair         E_mol          TotEng         Press     
         0   0             -143689.85      0             -143689.85     -58.353665    
         1   0             -143690.01      0             -143690.01     -58.244675    
Loop time of 0.625003 on 16 procs for 1 steps with 19380 atoms

43.7% CPU use with 16 MPI tasks x 1 OpenMP threads

Minimization stats:
  Stopping criterion = energy tolerance
  Energy initial, next-to-last, final = 
     -143689.848908475  -143689.848908475  -143690.010963801
  Force two-norm initial, final = 6.4352298 1.2558783
  Force max component initial, final = 0.046231127 0.0090219153
  Final line search alpha, max atom move = 1 0.0090219153
  Iterations, force evaluations = 1 2

MPI task timing breakdown:
Section |  min time  |  avg time  |  max time  |%varavg| %total
---------------------------------------------------------------
Pair    | 0.07495    | 0.082129   | 0.10214    |   2.4 | 13.14
Neigh   | 0          | 0          | 0          |   0.0 |  0.00
Comm    | 0.11332    | 0.14472    | 0.17151    |   5.2 | 23.15
Output  | 0          | 0          | 0          |   0.0 |  0.00
Modify  | 0          | 0          | 0          |   0.0 |  0.00
Other   |            | 0.3982     |            |       | 63.70

Nlocal:        1211.25 ave        1296 max        1127 min
Histogram: 4 0 0 0 4 4 0 0 0 4
Nghost:        4293.75 ave        4386 max        4202 min
Histogram: 2 2 0 0 4 4 0 0 2 2
Neighs:              0 ave           0 max           0 min
Histogram: 16 0 0 0 0 0 0 0 0 0

Total # of neighbors = 0
Ave neighs/atom = 0
Neighbor list builds = 0
Dangerous builds = 0
#6----define computes------
variable nums equal count(all) #计算原子数目
variable toval equal 20.535*20.0413*lz #计算系统总体积，单层石墨烯厚度为0.335nm
variable vol equal ${toval} #体系的初始体积
variable vol equal 322338.202167095 
variable vatom equal v_vol/v_nums #单个原子体积
compute 1 all stress/atom NULL #计算体系中单原子应力
compute xalls all reduce sum c_1[1]
variable xstress equal (c_xalls)/(v_toval*10000)
compute yalls all reduce sum c_1[2]
variable ystress equal (c_yalls)/(v_toval*10000)
compute zalls all reduce sum c_1[3]
variable zstress equal (c_zalls)/(v_toval*10000)
#7---------relaxation-------------------------
timestep ${tstep}
timestep 0.001
velocity all create ${temperature} 231743 units box dist gaussian
velocity all create 300 231743 units box dist gaussian
dump   1 all atom 100 all-cy.lammpstrj
#fix    1 all npt temp 300 300  0.1 aniso 0 0 10 drag 1  #三个方向独立控压
fix  1 all npt temp ${temperature} ${temperature} 0.1 x ${pressure} ${pressure} 10 y ${pressure} ${pressure} 10
fix  1 all npt temp 300 ${temperature} 0.1 x ${pressure} ${pressure} 10 y ${pressure} ${pressure} 10
fix  1 all npt temp 300 300 0.1 x ${pressure} ${pressure} 10 y ${pressure} ${pressure} 10
fix  1 all npt temp 300 300 0.1 x 0 ${pressure} 10 y ${pressure} ${pressure} 10
fix  1 all npt temp 300 300 0.1 x 0 0 10 y ${pressure} ${pressure} 10
fix  1 all npt temp 300 300 0.1 x 0 0 10 y 0 ${pressure} 10
fix  1 all npt temp 300 300 0.1 x 0 0 10 y 0 0 10
compute  2 all pe/atom
compute  pe all reduce sum c_2
variable PE equal "c_pe"
fix    pe all print 100 "${PE} " file PE.txt screen no
thermo  ${thermalstep}
thermo  100
#thermo_style  custom step pe ke etotal lx ly lz
run   ${relaxtime}
run   0
Per MPI rank memory allocation (min/avg/max) = 14.49 | 14.49 | 14.49 Mbytes
   Step          Temp          E_pair         E_mol          TotEng         Press          Volume    
         1   300           -143690.01      0             -142938.53     -32.624318      31329335     
Loop time of 0.023995 on 16 procs for 0 steps with 19380 atoms

35.4% CPU use with 16 MPI tasks x 1 OpenMP threads

MPI task timing breakdown:
Section |  min time  |  avg time  |  max time  |%varavg| %total
---------------------------------------------------------------
Pair    | 0          | 0          | 0          |   0.0 |  0.00
Neigh   | 0          | 0          | 0          |   0.0 |  0.00
Comm    | 0          | 0          | 0          |   0.0 |  0.00
Output  | 0          | 0          | 0          |   0.0 |  0.00
Modify  | 0          | 0          | 0          |   0.0 |  0.00
Other   |            | 0.02399    |            |       |100.00

Nlocal:        1211.25 ave        1296 max        1127 min
Histogram: 8 0 0 0 0 0 0 0 0 8
Nghost:        4293.75 ave        4386 max        4202 min
Histogram: 4 4 0 0 0 0 0 0 4 4
Neighs:              0 ave           0 max           0 min
Histogram: 16 0 0 0 0 0 0 0 0 0

Total # of neighbors = 0
Ave neighs/atom = 0
Neighbor list builds = 0
Dangerous builds = 0
#8 -------tension-----------------------------
unfix  1
undump  1
unfix  pe
reset_timestep 0
fix avestress all ave/atom 1 ${dumpstep} ${dumpstep} c_1[1] c_1[2] c_1[3] c_1[4] c_1[5] c_1[6]
fix avestress all ave/atom 1 1000 ${dumpstep} c_1[1] c_1[2] c_1[3] c_1[4] c_1[5] c_1[6]
fix avestress all ave/atom 1 1000 1000 c_1[1] c_1[2] c_1[3] c_1[4] c_1[5] c_1[6]

#-----calculation of strain and Cumulative compression--------
variable                tmp equal "lz"
variable                L0 equal ${tmp}
variable                L0 equal 783.233371
variable                strain equal "(lz - v_L0)/v_L0"
variable                Cumulativels equal "(lz - v_L0)/10"
fix Step all print 100 "${strain} ${Cumulativels} ${zstress}" file grapoten.txt screen no

dump 2 all custom ${dumpstep} tension.xyz type x y z f_avestress[1] f_avestress[2] f_avestress[3] f_avestress[4] f_avestress[5] f_avestress[6]
dump 2 all custom 1000 tension.xyz type x y z f_avestress[1] f_avestress[2] f_avestress[3] f_avestress[4] f_avestress[5] f_avestress[6]

fix  1 all npt temp ${temperature} ${temperature} 0.1 y ${pressure} ${pressure} 10 x ${pressure} ${pressure} 10
fix  1 all npt temp 300 ${temperature} 0.1 y ${pressure} ${pressure} 10 x ${pressure} ${pressure} 10
fix  1 all npt temp 300 300 0.1 y ${pressure} ${pressure} 10 x ${pressure} ${pressure} 10
fix  1 all npt temp 300 300 0.1 y 0 ${pressure} 10 x ${pressure} ${pressure} 10
fix  1 all npt temp 300 300 0.1 y 0 0 10 x ${pressure} ${pressure} 10
fix  1 all npt temp 300 300 0.1 y 0 0 10 x 0 ${pressure} 10
fix  1 all npt temp 300 300 0.1 y 0 0 10 x 0 0 10

thermo_style custom step pe ke etotal lx ly lz
fix   2 all deform 1 z erate ${deformrate} remap x units box
fix   2 all deform 1 z erate 0.005 remap x units box
fix   3 all ave/time 2 500 1000 v_xstress v_ystress v_zstress file pressure.out
run   ${totaltime}
run   100000
WARNING: Dump 2 includes no atom IDs and is not sorted by ID. This may complicate post-processing tasks or visualization (src/dump.cpp:221)
Per MPI rank memory allocation (min/avg/max) = 15.99 | 15.99 | 15.99 Mbytes
   Step         PotEng         KinEng         TotEng           Lx             Ly             Lz      
         0  -143690.01      751.4797      -142938.53      200            200            783.23337    
       100  -143256.67      368.05549     -142888.62      199.99197      199.99171      783.62499    
       200  -143276.55      454.91472     -142821.64      199.98713      199.98674      784.0166     
       300  -143215.09      473.59668     -142741.49      199.99572      199.99538      784.40822    
       400  -143175.4       521.77837     -142653.63      199.98742      199.9864       784.79984    
       500  -143129.24      568.92446     -142560.31      199.98356      199.98169      785.19145    
       600  -143081.78      617.54764     -142464.23      199.9925       199.99062      785.58307    
       700  -143031.94      662.31981     -142369.62      199.98377      199.9809       785.97469    
       800  -142980.74      699.08264     -142281.66      199.97926      199.97447      786.3663     
       900  -142951.68      745.06511     -142206.61      199.99018      199.98372      786.75792    
      1000  -142913.78      758.7331      -142155.05      199.98266      199.97398      787.14954    
      1100  -142918.69      778.67263     -142140.01      199.97608      199.96395      787.54115    
      1200  -142916.04      755.72085     -142160.32      199.98437      199.9694       787.93277    
      1300  -142931.87      744.43985     -142187.43      199.97874      199.95939      788.32439    
      1400  -142937.41      739.73331     -142197.67      199.97518      199.9509       788.716      
      1500  -142918.95      740.23068     -142178.72      199.98208      199.95314      789.10762    
      1600  -142910.58      763.40702     -142147.18      199.97856      199.94374      789.49924    
      1700  -142901.44      771.92367     -142129.52      199.97523      199.93348      789.89085    
      1800  -142893.17      758.23179     -142134.94      199.98103      199.93247      790.28247    
      1900  -142896.38      744.56729     -142151.81      199.97941      199.92299      790.67409    
      2000  -142899.84      737.354       -142162.49      199.97745      199.91254      791.0657     
      2100  -142901.09      749.70294     -142151.39      199.98065      199.90717      791.45732    
      2200  -142875.83      752.34216     -142123.48      199.97946      199.89684      791.84894    
      2300  -142860.54      758.99778     -142101.54      199.97945      199.88641      792.24055    
      2400  -142858.32      759.9809      -142098.34      199.98259      199.8787       792.63217    
      2500  -142863.47      752.28814     -142111.18      199.98262      199.86828      793.02379    
      2600  -142864.24      741.51254     -142122.72      199.98225      199.85713      793.4154     
      2700  -142860.13      744.03691     -142116.09      199.98318      199.84633      793.80702    
      2800  -142845.79      755.77232     -142090.02      199.98312      199.83459      794.19864    
      2900  -142823.34      758.29467     -142065.05      199.98447      199.82501      794.59025    
      3000  -142813.19      756.63611     -142056.56      199.98373      199.81278      794.98187    
      3100  -142822.15      758.25133     -142063.9       199.98191      199.79916      795.37349    
      3200  -142813.99      742.99305     -142071         199.98287      199.78856      795.7651     
      3300  -142806.05      741.43894     -142064.61      199.98185      199.77652      796.15672    
      3400  -142798.2       753.91083     -142044.29      199.97941      199.76268      796.54834    
      3500  -142779.39      758.29691     -142021.1       199.98027      199.75239      796.93995    
      3600  -142766.99      758.29045     -142008.7       199.97823      199.74017      797.33157    
      3700  -142767.49      758.44896     -142009.04      199.97317      199.72501      797.72319    
      3800  -142759.77      746.38346     -142013.39      199.97309      199.71492      798.11481    
      3900  -142758.25      748.6781      -142009.58      199.97014      199.70359      798.50642    
      4000  -142744.5       752.27608     -141992.23      199.96358      199.68863      798.89804    
      4100  -142722.05      753.82541     -141968.22      199.96128      199.67853      799.28966    
      4200  -142719.13      768.06114     -141951.07      199.95751      199.66771      799.68127    
      4300  -142706.53      760.23862     -141946.29      199.94925      199.65317      800.07289    
      4400  -142701.36      752.39854     -141948.96      199.94519      199.64329      800.46451    
      4500  -142686.84      739.11026     -141947.73      199.94095      199.63321      800.85612    
      4600  -142680.99      746.72991     -141934.26      199.93002      199.61795      801.24774    
      4700  -142659.15      750.16967     -141908.98      199.92359      199.60769      801.63936    
      4800  -142642.96      756.84327     -141886.12      199.91939      199.59945      802.03097    
      4900  -142634.88      757.72409     -141877.15      199.90784      199.58492      802.42259    
      5000  -142631.53      751.93923     -141879.59      199.89812      199.57291      802.81421    
      5100  -142622.5       742.93966     -141879.56      199.89241      199.56466      803.20582    
      5200  -142608.62      742.49436     -141866.13      199.8806       199.55068      803.59744    
      5300  -142595.23      753.37892     -141841.85      199.86927      199.53759      803.98906    
      5400  -142571.23      753.19218     -141818.04      199.86297      199.52948      804.38067    
      5500  -142562.54      758.47847     -141804.06      199.8507       199.51539      804.77229    
      5600  -142549.53      749.02223     -141800.5       199.83761      199.50064      805.16391    
      5700  -142546.65      746.48746     -141800.16      199.83031      199.49174      805.55552    
      5800  -142535.56      745.74082     -141789.82      199.81787      199.47741      805.94714    
      5900  -142519.79      753.32758     -141766.46      199.80402      199.46143      806.33876    
      6000  -142494.13      753.59476     -141740.53      199.79619      199.45167      806.73037    
      6100  -142478.36      756.10168     -141722.26      199.78379      199.43702      807.12199    
      6200  -142470.8       755.26023     -141715.54      199.76975      199.41944      807.51361    
      6300  -142457.71      743.89199     -141713.81      199.76113      199.40768      807.90522    
      6400  -142446.79      743.14859     -141703.64      199.74895      199.39236      808.29684    
      6500  -142430.71      747.76692     -141682.95      199.73513      199.3741       808.68846    
      6600  -142412.45      756.06697     -141656.39      199.72557      199.3595       809.08007    
      6700  -142392.45      758.7453      -141633.7       199.71452      199.34352      809.47169    
      6800  -142382.09      760.29852     -141621.79      199.70111      199.32427      809.86331    
      6900  -142369.97      751.70818     -141618.26      199.69119      199.307        810.25492    
      7000  -142358.01      747.89794     -141610.11      199.68048      199.28843      810.64654    
      7100  -142338.09      745.64006     -141592.45      199.66813      199.26844      811.03816    
      7200  -142321.4       754.42837     -141566.97      199.65793      199.24924      811.42977    
      7300  -142293.37      751.21747     -141542.15      199.6477       199.2287       811.82139    
      7400  -142283.92      758.83958     -141525.08      199.63552      199.20684      812.21301    
      7500  -142272.05      755.90497     -141516.15      199.62505      199.18584      812.60462    
      7600  -142257.92      751.20596     -141506.72      199.61442      199.16304      812.99624    
      7700  -142234.37      743.68224     -141490.69      199.60335      199.13997      813.38786    
      7800  -142216.35      747.92258     -141468.42      199.59298      199.11762      813.77947    
      7900  -142193.62      750.63412     -141442.99      199.58085      199.09228      814.17109    
      8000  -142176.01      754.74881     -141421.26      199.5697       199.06741      814.56271    
      8100  -142161.37      754.09445     -141407.27      199.55964      199.04429      814.95432    
      8200  -142143.27      746.66471     -141396.6       199.54633      199.01765      815.34594    
      8300  -142127.95      745.36732     -141382.58      199.53459      198.99109      815.73756    
      8400  -142107.52      745.77794     -141361.74      199.52438      198.96668      816.12917    
      8500  -142091.1       754.31956     -141336.78      199.51014      198.93899      816.52079    
      8600  -142063.86      751.89086     -141311.97      199.49682      198.91142      816.91241    
      8700  -142048.36      756.3356      -141292.02      199.48629      198.88608      817.30402    
      8800  -142034.35      755.87383     -141278.48      199.47127      198.85795      817.69564    
      8900  -142018.81      752.42747     -141266.38      199.45574      198.82955      818.08726    
      9000  -142002.18      752.07833     -141250.1       199.44411      198.80348      818.47887    
      9100  -141977.38      751.68771     -141225.7       199.42832      198.77488      818.87049    
      9200  -141948.58      751.40124     -141197.18      199.41104      198.74664      819.26211    
      9300  -141924.78      751.76252     -141173.02      199.39732      198.72088      819.65372    
      9400  -141904.5       748.52614     -141155.98      199.38015      198.6919       820.04534    
      9500  -141889.8       747.94192     -141141.86      199.36145      198.66294      820.43696    
      9600  -141870.61      744.68189     -141125.93      199.34585      198.63786      820.82857    
      9700  -141844.08      740.16598     -141103.92      199.32749      198.60938      821.22019    
      9800  -141831.87      755.72102     -141076.15      199.30644      198.57961      821.61181    
      9900  -141801.21      752.28321     -141048.93      199.28927      198.5553       822.00342    
     10000  -141782.36      755.92649     -141026.43      199.26944      198.52747      822.39504    
     10100  -141762.23      752.05874     -141010.17      199.24711      198.49764      822.78666    
     10200  -141744.65      749.02776     -140995.62      199.22858      198.4734       823.17827    
     10300  -141721.05      745.04165     -140976.01      199.2073       198.44666      823.56989    
     10400  -141704.19      754.20605     -140949.99      199.18386      198.41685      823.96151    
     10500  -141674.56      752.95249     -140921.6       199.16405      198.39177      824.35312    
     10600  -141643.23      748.44423     -140894.78      199.14148      198.36488      824.74474    
     10700  -141624.34      751.92972     -140872.41      199.11709      198.33531      825.13636    
     10800  -141610.2       753.51632     -140856.68      199.09793      198.31061      825.52797    
     10900  -141584.63      745.87226     -140838.76      199.07403      198.2826       825.91959    
     11000  -141560.04      746.62104     -140813.42      199.04842      198.25291      826.31121    
     11100  -141535.7       752.11217     -140783.58      199.02918      198.22816      826.70282    
     11200  -141504.66      751.06799     -140753.59      199.00553      198.19967      827.09444    
     11300  -141485.53      756.70031     -140728.83      198.97944      198.16952      827.48606    
     11400  -141467.03      755.22242     -140711.81      198.96         198.14439      827.87767    
     11500  -141438.08      744.74274     -140693.33      198.93699      198.11485      828.26929    
     11600  -141419.1       749.92881     -140669.17      198.91089      198.08376      828.66091    
     11700  -141386.14      746.64911     -140639.49      198.89156      198.0587       829.05252    
     11800  -141358.02      750.29284     -140607.73      198.86962      198.02941      829.44414    
     11900  -141336.23      755.20473     -140581.03      198.84433      197.99691      829.83576    
     12000  -141319.33      758.20322     -140561.13      198.82434      197.97041      830.22737    
     12100  -141294.12      752.10867     -140542.01      198.80282      197.94058      830.61899    
     12200  -141266.6       749.9588      -140516.64      198.7787       197.90724      831.01061    
     12300  -141233.36      747.15472     -140486.2       198.75985      197.88082      831.40222    
     12400  -141211.31      757.01475     -140454.3       198.73955      197.85175      831.79384    
     12500  -141183.91      759.29306     -140424.62      198.71497      197.81682      832.18546    
     12600  -141154.52      753.38492     -140401.13      198.6968       197.78882      832.57707    
     12700  -141133.21      752.47758     -140380.73      198.67765      197.76089      832.96869    
     12800  -141109.01      750.91316     -140358.1       198.65397      197.72636      833.36031    
     12900  -141080.94      750.71436     -140330.22      198.63569      197.69649      833.75192    
     13000  -141045.27      747.72574     -140297.54      198.61799      197.66904      834.14354    
     13100  -141022.45      756.96397     -140265.49      198.59522      197.63563      834.53516    
     13200  -140996.45      756.82766     -140239.62      198.57677      197.60484      834.92677    
     13300  -140970.61      752.05155     -140218.56      198.56069      197.577        835.31839    
     13400  -140942         747.81205     -140194.19      198.53804      197.5438       835.71001    
     13500  -140912.13      747.23199     -140164.9       198.51949      197.51316      836.10162    
     13600  -140885.13      755.28377     -140129.84      198.5042       197.48536      836.49324    
     13700  -140853.1       756.50204     -140096.6       198.48386      197.45407      836.88486    
     13800  -140820.79      749.03225     -140071.76      198.46524      197.42413      837.27647    
     13900  -140806.04      755.64517     -140050.39      198.44918      197.39522      837.66809    
     14000  -140775.14      748.92456     -140026.21      198.43018      197.36497      838.05971    
     14100  -140747.34      753.19268     -139994.15      198.41173      197.33624      838.45132    
     14200  -140708.63      751.46951     -139957.16      198.39644      197.30942      838.84294    
     14300  -140683.43      760.66394     -139922.76      198.37818      197.28039      839.23456    
     14400  -140647.18      751.5843      -139895.59      198.36033      197.25326      839.62617    
     14500  -140623.78      749.64669     -139874.13      198.34437      197.22809      840.01779    
     14600  -140597.04      747.53893     -139849.5       198.32656      197.20064      840.40941    
     14700  -140565.73      747.14478     -139818.59      198.3092       197.1749       840.80102    
     14800  -140531.42      749.96054     -139781.45      198.29309      197.15181      841.19264    
     14900  -140501.32      756.72843     -139744.59      198.2751       197.12619      841.58426    
     15000  -140471.34      755.66059     -139715.68      198.2586       197.10243      841.97587    
     15100  -140444.43      749.06686     -139695.36      198.24264      197.08155      842.36749    
     15200  -140414.16      744.43763     -139669.72      198.22408      197.05813      842.75911    
     15300  -140379.71      744.85684     -139634.86      198.20751      197.03598      843.15072    
     15400  -140351.49      754.06547     -139597.42      198.19209      197.01661      843.54234    
     15500  -140313.61      752.85591     -139560.75      198.17316      196.99525      843.93396    
     15600  -140287.94      758.46684     -139529.47      198.15609      196.97518      844.32557    
     15700  -140255.59      748.2042      -139507.38      198.14154      196.95759      844.71719    
     15800  -140226.88      744.07783     -139482.8       198.12273      196.93783      845.10881    
     15900  -140197.62      752.47992     -139445.14      198.10511      196.91944      845.50042    
     16000  -140157.73      751.54661     -139406.18      198.09145      196.90422      845.89204    
     16100  -140124.99      753.74598     -139371.24      198.07341      196.88555      846.28366    
     16200  -140092.92      752.7506      -139340.17      198.05538      196.8679       846.67527    
     16300  -140068.03      755.5259      -139312.5       198.04165      196.85355      847.06689    
     16400  -140038.19      748.49848     -139289.69      198.02526      196.83622      847.45851    
     16500  -140002.92      746.22179     -139256.7       198.00782      196.81969      847.85012    
     16600  -139962.73      749.73429     -139212.99      197.99414      196.80635      848.24174    
     16700  -139926.94      750.67596     -139176.26      197.97937      196.79053      848.63336    
     16800  -139896.56      754.78213     -139141.78      197.96202      196.77364      849.02497    
     16900  -139860.6       751.48669     -139109.12      197.94872      196.76059      849.41659    
     17000  -139829.39      748.09974     -139081.29      197.93506      196.74638      849.80821    
     17100  -139800.29      745.99301     -139054.3       197.91929      196.72938      850.19982    
     17200  -139766.29      749.62459     -139016.67      197.90604      196.71579      850.59144    
     17300  -139722.9       751.28101     -138971.62      197.8938       196.70294      850.98306    
     17400  -139688.47      751.58762     -138936.88      197.87972      196.68641      851.37467    
     17500  -139658.31      751.89525     -138906.42      197.86704      196.67224      851.76629    
     17600  -139624.18      746.36601     -138877.81      197.85567      196.65957      852.15791    
     17700  -139590.83      741.55153     -138849.28      197.84272      196.64351      852.54952    
     17800  -139561.54      745.26496     -138816.28      197.83112      196.62888      852.94114    
     17900  -139519.71      749.98787     -138769.72      197.82089      196.61624      853.33276    
     18000  -139482.5       753.60171     -138728.9       197.80953      196.60147      853.72437    
     18100  -139444.22      751.49944     -138692.72      197.79922      196.58657      854.11599    
     18200  -139406.9       748.3079      -138658.59      197.78957      196.57311      854.50761    
     18300  -139383.18      752.25629     -138630.92      197.77994      196.55914      854.89922    
     18400  -139346.34      744.9054      -138601.43      197.77032      196.5443       855.29084    
     18500  -139311.55      752.20752     -138559.34      197.7609       196.53037      855.68246    
     18600  -139271.3       755.84024     -138515.46      197.75292      196.51724      856.07407    
     18700  -139232.67      753.22502     -138479.44      197.74477      196.50303      856.46569    
     18800  -139198.66      752.44672     -138446.21      197.73614      196.48843      856.85731    
     18900  -139161.97      745.84873     -138416.12      197.72867      196.47526      857.24892    
     19000  -139131.17      744.4874      -138386.68      197.72139      196.46136      857.64054    
     19100  -139094.04      746.20762     -138347.83      197.71293      196.44626      858.03216    
     19200  -139056.28      758.01458     -138298.26      197.70559      196.43272      858.42377    
     19300  -139012.25      754.14315     -138258.11      197.69915      196.41975      858.81539    
     19400  -138973.27      751.39499     -138221.87      197.69131      196.40546      859.20701    
     19500  -138944.45      754.61711     -138189.84      197.68369      196.39189      859.59862    
     19600  -138907.65      749.22007     -138158.43      197.67682      196.3793       859.99024    
     19700  -138870.56      749.60338     -138120.95      197.66969      196.36629      860.38186    
     19800  -138822.96      750.93666     -138072.02      197.66213      196.35355      860.77347    
     19900  -138783.72      754.33143     -138029.39      197.65412      196.34097      861.16509    
     20000  -138752.01      758.08973     -137993.92      197.64664      196.32898      861.55671    
     20100  -138710.58      746.69273     -137963.89      197.63919      196.31691      861.94832    
     20200  -138681.5       750.83115     -137930.67      197.63001      196.30425      862.33994    
     20300  -138630.31      748.30242     -137882.01      197.62179      196.29286      862.73156    
     20400  -138595.21      759.71143     -137835.5       197.61442      196.28234      863.12317    
     20500  -138559.32      759.54326     -137799.78      197.60494      196.2706       863.51479    
     20600  -138516.11      748.5108      -137767.6       197.595        196.25936      863.90641    
     20700  -138483.71      750.90189     -137732.81      197.58708      196.24999      864.29802    
     20800  -138448.14      755.16689     -137692.98      197.57746      196.2393       864.68964    
     20900  -138401.6       758.62951     -137642.97      197.56597      196.22816      865.08126    
     21000  -138349.77      749.20674     -137600.56      197.55708      196.21948      865.47287    
     21100  -138315.23      748.9456      -137566.28      197.54761      196.21         865.86449    
     21200  -138287.54      753.21242     -137534.33      197.5353       196.19909      866.25611    
     21300  -138244.43      747.4925      -137496.94      197.52537      196.19098      866.64773    
     21400  -138205.6       750.45814     -137455.14      197.51513      196.18206      867.03934    
     21500  -138164.16      751.82621     -137412.34      197.50317      196.17183      867.43096    
     21600  -138119.96      751.93343     -137368.03      197.49201      196.16324      867.82258    
     21700  -138075.71      753.42854     -137322.28      197.48108      196.15481      868.21419    
     21800  -138033.35      759.47253     -137273.88      197.46926      196.14511      868.60581    
     21900  -137997.58      758.9812      -137238.6       197.45817      196.137        868.99743    
     22000  -137958.44      748.71679     -137209.72      197.44671      196.12866      869.38904    
     22100  -137925.87      754.85402     -137171.01      197.43457      196.11881      869.78066    
     22200  -137884.02      754.41357     -137129.6       197.4242       196.11079      870.17228    
     22300  -137833.85      750.88745     -137082.97      197.41303      196.10242      870.56389    
     22400  -137792.11      757.50416     -137034.61      197.40005      196.09232      870.95551    
     22500  -137751.09      756.63979     -136994.46      197.38981      196.0837       871.34713    
     22600  -137711.03      744.2181      -136966.81      197.37968      196.07595      871.73874    
     22700  -137671.11      744.91022     -136926.2       197.36622      196.06499      872.13036    
     22800  -137628.68      749.6813      -136879         197.35574      196.05561      872.52198    
     22900  -137585.98      754.54117     -136831.44      197.34651      196.04755      872.91359    
     23000  -137538.85      751.17805     -136787.67      197.33358      196.03606      873.30521    
     23100  -137506.15      755.52801     -136750.62      197.32257      196.02549      873.69683    
     23200  -137468.57      748.01402     -136720.56      197.31412      196.01696      874.08844    
     23300  -137422.39      745.39047     -136677         197.30155      196.00493      874.48006    
     23400  -137380.38      754.50009     -136625.88      197.28977      195.99301      874.87168    
     23500  -137329.63      749.83979     -136579.79      197.2822       195.98413      875.26329    
     23600  -137288.95      753.90434     -136535.04      197.27049      195.97142      875.65491    
     23700  -137242.02      750.67712     -136491.35      197.25853      195.95842      876.04653    
     23800  -137202.43      750.55301     -136451.88      197.25134      195.94888      876.43814    
     23900  -137162.26      745.53615     -136416.73      197.24074      195.93584      876.82976    
     24000  -137119.04      743.24116     -136375.8       197.2288       195.92169      877.22138    
     24100  -137078.35      753.74797     -136324.6       197.221        195.91063      877.61299    
     24200  -137027         751.98215     -136275.02      197.21111      195.89747      878.00461    
     24300  -136988.48      756.01183     -136232.47      197.19883      195.88185      878.39623    
     24400  -136942.72      748.70307     -136194.02      197.19102      195.87033      878.78784    
     24500  -136903.47      748.46161     -136155.01      197.18215      195.85735      879.17946    
     24600  -136856.68      746.00537     -136110.67      197.16925      195.84051      879.57108    
     24700  -136808.93      751.11707     -136057.82      197.16065      195.828        879.96269    
     24800  -136767.21      757.46994     -136009.74      197.15279      195.81543      880.35431    
     24900  -136725.89      757.59643     -135968.3       197.13985      195.79776      880.74593    
     25000  -136686.24      752.53828     -135933.7       197.13022      195.78398      881.13754    
     25100  -136646.59      753.46228     -135893.13      197.12293      195.77191      881.52916    
     25200  -136598.57      754.15669     -135844.41      197.11003      195.75388      881.92078    
     25300  -136551.13      754.14565     -135796.98      197.09965      195.73937      882.31239    
     25400  -136496.83      744.97501     -135751.86      197.09279      195.72808      882.70401    
     25500  -136452.8       747.68051     -135705.12      197.07921      195.71007      883.09563    
     25600  -136407.43      752.06838     -135655.36      197.06724      195.69414      883.48724    
     25700  -136356.92      754.45363     -135602.46      197.06081      195.68389      883.87886    
     25800  -136314.45      756.82836     -135557.62      197.04818      195.66723      884.27048    
     25900  -136273.95      747.21442     -135526.74      197.0346       195.65052      884.66209    
     26000  -136228.42      744.30292     -135484.12      197.02677      195.63956      885.05371    
     26100  -136185.58      749.19035     -135436.39      197.01496      195.62497      885.44533    
     26200  -136145.43      759.36455     -135386.06      197.0004       195.6082       885.83694    
     26300  -136092.14      755.4513      -135336.69      196.99053      195.59668      886.22856    
     26400  -136044.81      757.83376     -135286.97      196.97851      195.58266      886.62018    
     26500  -135994.44      751.5288      -135242.91      196.96339      195.56675      887.01179    
     26600  -135954.95      746.83824     -135208.11      196.95183      195.55503      887.40341    
     26700  -135909.47      744.10435     -135165.37      196.93916      195.54176      887.79503    
     26800  -135865.39      750.17145     -135115.22      196.9238       195.52658      888.18664    
     26900  -135813.19      752.68256     -135060.51      196.91028      195.51405      888.57826    
     27000  -135766.06      752.48248     -135013.58      196.89715      195.50161      888.96988    
     27100  -135720.28      750.26397     -134970.01      196.88147      195.48696      889.36149    
     27200  -135680.33      751.50306     -134928.83      196.86702      195.47453      889.75311    
     27300  -135636.49      748.45245     -134888.03      196.85237      195.46178      890.14473    
     27400  -135596.11      751.04479     -134845.06      196.83573      195.44712      890.53634    
     27500  -135536.23      746.84113     -134789.39      196.82064      195.4348       890.92796    
     27600  -135485.98      751.0821      -134734.9       196.80586      195.42275      891.31958    
     27700  -135439.2       752.9235      -134686.28      196.78882      195.40821      891.71119    
     27800  -135391.75      750.09478     -134641.65      196.77183      195.39459      892.10281    
     27900  -135354.86      751.64532     -134603.22      196.75685      195.38257      892.49443    
     28000  -135307.55      746.0979      -134561.45      196.73979      195.36836      892.88604    
     28100  -135255.27      748.72606     -134506.54      196.72256      195.35431      893.27766    
     28200  -135202.3       751.37792     -134450.92      196.70723      195.3424       893.66928    
     28300  -135158.35      754.37482     -134403.97      196.68991      195.32799      894.06089    
     28400  -135109.3       748.81495     -134360.49      196.67244      195.31318      894.45251    
     28500  -135064.01      746.23943     -134317.77      196.65652      195.30075      894.84413    
     28600  -135020.2       748.56106     -134271.64      196.63993      195.28621      895.23574    
     28700  -134966.46      750.56921     -134215.89      196.62283      195.27119      895.62736    
     28800  -134919.02      757.56918     -134161.45      196.60672      195.25767      896.01898    
     28900  -134869.27      756.03538     -134113.23      196.59042      195.24242      896.41059    
     29000  -134820.88      749.9322      -134070.95      196.57389      195.2267       896.80221    
     29100  -134773.55      740.06395     -134033.49      196.55776      195.21201      897.19383    
     29200  -134731.2       746.99199     -133984.21      196.54175      195.19646      897.58544    
     29300  -134679.5       750.37411     -133929.13      196.52562      195.18021      897.97706    
     29400  -134624.54      748.27528     -133876.27      196.51042      195.16456      898.36868    
     29500  -134577.21      755.11123     -133822.1       196.4945       195.14815      898.76029    
     29600  -134526.35      756.53992     -133769.81      196.47913      195.13116      899.15191    
     29700  -134477.29      754.64685     -133722.64      196.46451      195.11479      899.54353    
     29800  -134433.91      748.42304     -133685.49      196.44881      195.09739      899.93514    
     29900  -134381.93      742.23569     -133639.7       196.43326      195.07948      900.32676    
     30000  -134330.57      747.4132      -133583.15      196.4185       195.06208      900.71838    
     30100  -134286.63      757.00962     -133529.62      196.40302      195.04424      901.10999    
     30200  -134223.91      744.87403     -133479.04      196.38763      195.0258       901.50161    
     30300  -134182.39      753.66245     -133428.73      196.37256      195.00743      901.89323    
     30400  -134131.38      754.58178     -133376.8       196.35755      194.98897      902.28484    
     30500  -134077.71      754.37636     -133323.33      196.3423       194.9703       902.67646    
     30600  -134027.55      753.3791      -133274.17      196.3268       194.95123      903.06808    
     30700  -133983.12      749.3511      -133233.77      196.31165      194.93209      903.45969    
     30800  -133932.86      743.77685     -133189.08      196.29581      194.91247      903.85131    
     30900  -133882.21      747.00254     -133135.2       196.28045      194.89309      904.24293    
     31000  -133831.7       752.67547     -133079.03      196.26513      194.87399      904.63454    
     31100  -133781.42      753.06869     -133028.35      196.24923      194.8538       905.02616    
     31200  -133731.13      751.20235     -132979.92      196.23431      194.83471      905.41778    
     31300  -133682.43      749.79253     -132932.64      196.21839      194.81535      905.80939    
     31400  -133633.96      749.53472     -132884.42      196.20179      194.79491      906.20101    
     31500  -133581.03      748.97541     -132832.05      196.18642      194.77572      906.59263    
     31600  -133526.06      752.05381     -132774.01      196.17065      194.75679      906.98424    
     31700  -133477.87      756.94451     -132720.92      196.15357      194.73684      907.37586    
     31800  -133425.39      752.07336     -132673.31      196.13695      194.71692      907.76748    
     31900  -133381.74      746.20663     -132635.54      196.12115      194.69861      908.15909    
     32000  -133333.14      747.57773     -132585.57      196.10365      194.67898      908.55071    
     32100  -133279.03      751.59593     -132527.43      196.08605      194.6592       908.94233    
     32200  -133223.3       750.72401     -132472.58      196.07044      194.64175      909.33394    
     32300  -133175.07      754.18792     -132420.88      196.05333      194.62334      909.72556    
     32400  -133125.07      753.81023     -132371.26      196.03482      194.60358      910.11718    
     32500  -133069.92      747.3329      -132322.59      196.01795      194.58553      910.50879    
     32600  -133022.06      749.96868     -132272.09      196.00071      194.56806      910.90041    
     32700  -132962.17      746.89917     -132215.27      195.98233      194.5492       911.29203    
     32800  -132911.18      753.65748     -132157.52      195.96434      194.53116      911.68364    
     32900  -132858.8       752.86843     -132105.93      195.94701      194.51455      912.07526    
     33000  -132813.92      750.03147     -132063.89      195.92907      194.4969       912.46688    
     33100  -132769.73      749.25847     -132020.47      195.90989      194.47845      912.85849    
     33200  -132708.27      742.92931     -131965.34      195.89183      194.46184      913.25011    
     33300  -132655.64      748.36645     -131907.27      195.87361      194.44475      913.64173    
     33400  -132600.65      748.87401     -131851.78      195.8543       194.42682      914.03334    
     33500  -132554.83      757.75651     -131797.07      195.83518      194.41028      914.42496    
     33600  -132496.91      752.20759     -131744.7       195.81689      194.39378      914.81658    
     33700  -132443.68      753.23438     -131690.45      195.79729      194.37584      915.20819    
     33800  -132385.52      749.10792     -131636.41      195.7774       194.35902      915.59981    
     33900  -132344.56      758.22259     -131586.34      195.75898      194.3431       915.99143    
     34000  -132285.4       743.99921     -131541.4       195.73925      194.32476      916.38304    
     34100  -132233.5       740.90724     -131492.59      195.71803      194.30714      916.77466    
     34200  -132183.77      751.14417     -131432.62      195.7003       194.29222      917.16628    
     34300  -132135.44      763.25182     -131372.19      195.68143      194.27508      917.55789    
     34400  -132072.57      750.43751     -131322.14      195.65977      194.25672      917.94951    
     34500  -132029.18      751.9729      -131277.21      195.64157      194.24119      918.34113    
     34600  -131980.62      751.26206     -131229.35      195.62371      194.22486      918.73274    
     34700  -131920.15      749.08815     -131171.06      195.60231      194.20598      919.12436    
     34800  -131866.84      759.7893      -131107.05      195.58344      194.18957      919.51598    
     34900  -131815.48      758.09831     -131057.38      195.56654      194.17405      919.90759    
     35000  -131759.21      746.52549     -131012.68      195.54646      194.15539      920.29921    
     35100  -131712.47      749.28987     -130963.18      195.52683      194.13734      920.69083    
     35200  -131656.7       749.93792     -130906.77      195.51107      194.12227      921.08244    
     35300  -131597.37      755.67306     -130841.7       195.4924       194.10443      921.47406    
     35400  -131551.3       761.68863     -130789.61      195.47235      194.08481      921.86568    
     35500  -131490.32      746.48371     -130743.84      195.45658      194.06875      922.25729    
     35600  -131443.34      748.78186     -130694.55      195.43919      194.05156      922.64891    
     35700  -131392.97      754.62166     -130638.35      195.42006      194.03205      923.04053    
     35800  -131327.35      755.92506     -130571.43      195.40451      194.01536      923.43214    
     35900  -131270.76      752.87074     -130517.89      195.38818      193.99777      923.82376    
     36000  -131226.22      754.89139     -130471.33      195.36972      193.97807      924.21538    
     36100  -131174.14      749.40336     -130424.73      195.354        193.96041      924.60699    
     36200  -131118.12      748.27953     -130369.85      195.3384       193.94243      924.99861    
     36300  -131066.97      757.7379      -130309.23      195.3208       193.9228       925.39023    
     36400  -131008.52      755.14432     -130253.37      195.30569      193.90484      925.78184    
     36500  -130950.24      748.58133     -130201.66      195.29104      193.88724      926.17346    
     36600  -130902.23      753.22807     -130149         195.27293      193.86673      926.56508    
     36700  -130844.68      749.89379     -130094.79      195.25778      193.84815      926.95669    
     36800  -130785.11      748.51784     -130036.6       195.2442       193.83145      927.34831    
     36900  -130733.58      756.0583      -129977.52      195.22701      193.81171      927.73993    
     37000  -130677.95      753.79584     -129924.16      195.21071      193.79174      928.13154    
     37100  -130631.85      751.17475     -129880.67      195.19712      193.77501      928.52316    
     37200  -130580.96      749.104       -129831.85      195.18152      193.75656      928.91478    
     37300  -130524.99      750.96857     -129774.02      195.16427      193.73578      929.30639    
     37400  -130468.05      754.44851     -129713.6       195.1502       193.71822      929.69801    
     37500  -130409.34      751.09523     -129658.24      195.13578      193.70137      930.08963    
     37600  -130356.15      751.10867     -129605.04      195.1187       193.68129      930.48124    
     37700  -130302.58      751.7538      -129550.82      195.10253      193.66234      930.87286    
     37800  -130246.9       755.45589     -129491.44      195.0887       193.6462       931.26448    
     37900  -130183.96      754.62731     -129429.33      195.07285      193.62772      931.65609    
     38000  -130135.54      757.72626     -129377.81      195.05582      193.60831      932.04771    
     38100  -130081.64      747.45357     -129334.19      195.04069      193.5918       932.43933    
     38200  -130028.81      746.93932     -129281.87      195.02625      193.5751       932.83094    
     38300  -129974.92      751.12099     -129223.8       195.00968      193.55663      933.22256    
     38400  -129926.1       761.72737     -129164.38      194.99384      193.53961      933.61418    
     38500  -129859.67      753.10159     -129106.57      194.97962      193.52396      934.00579    
     38600  -129806.46      752.53068     -129053.93      194.96343      193.50646      934.39741    
     38700  -129757.58      750.95862     -129006.63      194.94668      193.48898      934.78903    
     38800  -129703.67      749.24631     -128954.42      194.93242      193.47453      935.18064    
     38900  -129641         748.19649     -128892.8       194.91704      193.45838      935.57226    
     39000  -129590.11      759.57229     -128830.54      194.89989      193.44112      935.96388    
     39100  -129532.02      755.88211     -128776.13      194.88585      193.4273       936.3555     
     39200  -129473.78      749.03999     -128724.74      194.87045      193.41194      936.74711    
     39300  -129421.94      746.08955     -128675.85      194.85245      193.39433      937.13873    
     39400  -129376.19      749.80095     -128626.39      194.83796      193.38081      937.53035    
     39500  -129310.47      746.57135     -128563.9       194.82444      193.36826      937.92196    
     39600  -129247.54      747.11061     -128500.43      194.8062       193.35134      938.31358    
     39700  -129194.9       752.70135     -128442.2       194.78914      193.33615      938.7052     
     39800  -129133.47      748.80137     -128384.67      194.77632      193.32513      939.09681    
     39900  -129080.96      752.22683     -128328.73      194.75943      193.31016      939.48843    
     40000  -129020.98      747.34065     -128273.64      194.74037      193.29378      939.88005    
     40100  -128967.34      744.91301     -128222.42      194.72694      193.28275      940.27166    
     40200  -128919.25      749.16253     -128170.09      194.71156      193.26959      940.66328    
     40300  -128857.27      743.39299     -128113.88      194.69259      193.25355      941.0549     
     40400  -128803.07      754.10769     -128048.96      194.6769       193.24055      941.44651    
     40500  -128750.09      760.95175     -127989.14      194.66292      193.22917      941.83813    
     40600  -128691.59      752.69862     -127938.89      194.64525      193.21459      942.22975    
     40700  -128638.89      749.89146     -127889         194.62766      193.19965      942.62136    
     40800  -128582.52      749.09357     -127833.42      194.61361      193.18834      943.01298    
     40900  -128527.6       751.66279     -127775.94      194.59792      193.17535      943.4046     
     41000  -128466.91      748.55623     -127718.35      194.57994      193.15964      943.79621    
     41100  -128416.11      759.90284     -127656.21      194.56426      193.14635      944.18783    
     41200  -128345.17      753.83715     -127591.33      194.55048      193.13499      944.57945    
     41300  -128295.07      755.94009     -127539.13      194.53415      193.12043      944.97106    
     41400  -128244.68      749.2792      -127495.4       194.51811      193.10621      945.36268    
     41500  -128195.65      755.62217     -127440.03      194.50465      193.0947       945.7543     
     41600  -128130.33      749.24631     -127381.08      194.49013      193.08133      946.14591    
     41700  -128078.26      757.40111     -127320.86      194.4739       193.06642      946.53753    
     41800  -128013.5       754.54448     -127258.96      194.45942      193.05319      946.92915    
     41900  -127962.92      761.59224     -127201.33      194.44659      193.04087      947.32076    
     42000  -127901.42      745.42073     -127156         194.43191      193.0265       947.71238    
     42100  -127854.12      749.23581     -127104.88      194.41702      193.01194      948.104      
     42200  -127790.8       746.36656     -127044.43      194.40502      192.99956      948.49561    
     42300  -127733.72      753.65713     -126980.07      194.39131      192.98553      948.88723    
     42400  -127673.17      751.37096     -126921.8       194.37628      192.96981      949.27885    
     42500  -127620.77      753.94954     -126866.82      194.36429      192.95673      949.67046    
     42600  -127561.55      747.58963     -126813.96      194.3523       192.94368      950.06208    
     42700  -127513.67      754.13946     -126759.53      194.33774      192.92755      950.4537     
     42800  -127450.85      747.48637     -126703.36      194.32538      192.91312      950.84531    
     42900  -127390         747.31407     -126642.69      194.31418      192.89996      951.23693    
     43000  -127333.8       754.24196     -126579.56      194.30026      192.88411      951.62855    
     43100  -127274.11      752.94558     -126521.16      194.28714      192.86865      952.02016    
     43200  -127218.33      748.21658     -126470.12      194.27646      192.85582      952.41178    
     43300  -127168.82      746.85521     -126421.96      194.26392      192.84105      952.8034     
     43400  -127114.78      751.34757     -126363.43      194.2504       192.82445      953.19501    
     43500  -127053.94      754.94189     -126299         194.23931      192.81089      953.58663    
     43600  -126990.85      750.74608     -126240.11      194.22796      192.79691      953.97825    
     43700  -126938.65      754.63139     -126184.01      194.21427      192.78017      954.36986    
     43800  -126881.17      752.68787     -126128.48      194.20212      192.76527      954.76148    
     43900  -126825.88      751.27997     -126074.6       194.19201      192.75272      955.1531     
     44000  -126765.29      743.51449     -126021.78      194.17905      192.73689      955.54471    
     44100  -126706.65      743.89379     -125962.76      194.16501      192.72029      955.93633    
     44200  -126656.39      760.98198     -125895.4       194.15454      192.70756      956.32795    
     44300  -126596.07      760.39371     -125835.68      194.14341      192.69358      956.71956    
     44400  -126538         754.61784     -125783.38      194.12869      192.67692      957.11118    
     44500  -126485.45      750.42329     -125735.03      194.1171       192.66295      957.5028     
     44600  -126427.64      749.0084      -125678.63      194.1068       192.65028      957.89441    
     44700  -126368.8       751.56094     -125617.24      194.09247      192.63416      958.28603    
     44800  -126310.65      756.42235     -125554.23      194.07937      192.61912      958.67765    
     44900  -126250.91      757.89674     -125493.01      194.06937      192.60679      959.06926    
     45000  -126194.16      755.99059     -125438.17      194.05566      192.59199      959.46088    
     45100  -126135.37      743.50212     -125391.86      194.04207      192.57699      959.8525     
     45200  -126081.06      746.8317      -125334.22      194.03172      192.56527      960.24411    
     45300  -126018.43      749.64644     -125268.79      194.01868      192.55244      960.63573    
     45400  -125961.39      755.0566      -125206.34      194.00477      192.53685      961.02735    
     45500  -125903.87      754.06185     -125149.81      193.99307      192.52475      961.41896    
     45600  -125845.58      750.50951     -125095.07      193.98145      192.51393      961.81058    
     45700  -125786.87      748.75442     -125038.12      193.96759      192.49833      962.2022     
     45800  -125733.18      752.79557     -124980.39      193.95437      192.48583      962.59381    
     45900  -125666.49      745.39878     -124921.09      193.9432       192.47568      962.98543    
     46000  -125615.69      753.01458     -124862.68      193.92953      192.46094      963.37705    
     46100  -125556.91      752.5106      -124804.4       193.91436      192.44807      963.76866    
     46200  -125503.17      754.85301     -124748.32      193.90325      192.43796      964.16028    
     46300  -125438.14      742.88031     -124695.26      193.89043      192.42489      964.5519     
     46400  -125390.78      747.72614     -124643.06      193.8741       192.4115       964.94351    
     46500  -125331.64      748.08146     -124583.56      193.86229      192.40112      965.33513    
     46600  -125271.89      758.27015     -124513.62      193.84998      192.38963      965.72675    
     46700  -125208.62      757.17606     -124451.44      193.83252      192.37578      966.11836    
     46800  -125150.94      753.71858     -124397.22      193.81887      192.36364      966.50998    
     46900  -125092.02      747.56954     -124344.45      193.80714      192.3537       966.9016     
     47000  -125036.1       747.62884     -124288.47      193.79104      192.34124      967.29321    
     47100  -124976.32      751.14349     -124225.18      193.77637      192.32819      967.68483    
     47200  -124915.43      759.06242     -124156.37      193.7634       192.31788      968.07645    
     47300  -124863.03      761.70649     -124101.32      193.74858      192.3068       968.46806    
     47400  -124802.87      750.58723     -124052.28      193.73364      192.29312      968.85968    
     47500  -124749.89      751.68682     -123998.21      193.71971      192.28218      969.2513     
     47600  -124693.07      754.11107     -123938.96      193.70576      192.27179      969.64291    
     47700  -124625.92      749.56429     -123876.36      193.69121      192.25855      970.03453    
     47800  -124568.01      758.99453     -123809.01      193.67673      192.2467       970.42615    
     47900  -124511.4       760.71014     -123750.69      193.66344      192.23645      970.81776    
     48000  -124452.09      748.56445     -123703.53      193.64935      192.22304      971.20938    
     48100  -124392.11      745.07622     -123647.04      193.63485      192.21098      971.601      
     48200  -124338.36      749.89168     -123588.46      193.62137      192.19993      971.99261    
     48300  -124277.44      753.59507     -123523.84      193.60834      192.18661      972.38423    
     48400  -124210.81      754.90453     -123455.9       193.5947       192.17525      972.77585    
     48500  -124159.93      759.46231     -123400.47      193.58128      192.16336      973.16746    
     48600  -124101.47      748.65956     -123352.81      193.56868      192.14957      973.55908    
     48700  -124041.96      747.18629     -123294.78      193.55493      192.13805      973.9507     
     48800  -123985.42      750.50779     -123234.91      193.54198      192.12529      974.34231    
     48900  -123922.97      749.03358     -123173.93      193.52916      192.11126      974.73393    
     49000  -123869         755.469       -123113.54      193.51523      192.09885      975.12555    
     49100  -123805.32      747.97452     -123057.35      193.50318      192.08575      975.51716    
     49200  -123754.98      750.00685     -123004.98      193.49124      192.07254      975.90878    
     49300  -123693.1       746.05921     -122947.04      193.47755      192.05985      976.3004     
     49400  -123633.51      752.64739     -122880.87      193.46532      192.04555      976.69201    
     49500  -123570.51      759.18962     -122811.32      193.45262      192.03175      977.08363    
     49600  -123511.15      755.36321     -122755.79      193.43897      192.01884      977.47525    
     49700  -123456.73      753.78981     -122702.94      193.42696      192.00406      977.86686    
     49800  -123396.9       751.18651     -122645.71      193.41392      191.98987      978.25848    
     49900  -123339.82      752.86902     -122586.95      193.40081      191.97666      978.6501     
     50000  -123277.55      745.70195     -122531.85      193.3892       191.96198      979.04171    
     50100  -123227.47      746.35691     -122481.12      193.37611      191.9473       979.43333    
     50200  -123166.96      745.87096     -122421.09      193.36324      191.93374      979.82495    
     50300  -123109.25      757.36651     -122351.88      193.35102      191.91774      980.21656    
     50400  -123043.72      754.29958     -122289.42      193.33758      191.90318      980.60818    
     50500  -122984.82      753.66123     -122231.16      193.32586      191.89         980.9998     
     50600  -122928.89      751.63402     -122177.26      193.3142       191.87419      981.39141    
     50700  -122871.44      749.71497     -122121.72      193.29968      191.85902      981.78303    
     50800  -122812.83      752.81729     -122060.01      193.28768      191.84457      982.17465    
     50900  -122747.79      759.71615     -121988.08      193.27709      191.83         982.56626    
     51000  -122681.3       759.35371     -121921.95      193.26282      191.81513      982.95788    
     51100  -122626.02      756.23503     -121869.79      193.25024      191.79901      983.3495     
     51200  -122572.3       754.932       -121817.36      193.24019      191.78526      983.74111    
     51300  -122514.05      750.61072     -121763.43      193.22738      191.77173      984.13273    
     51400  -122454.41      747.91595     -121706.49      193.21372      191.75413      984.52435    
     51500  -122395.54      748.39152     -121647.15      193.20226      191.73981      984.91596    
     51600  -122337.61      750.4465      -121587.17      193.19011      191.72713      985.30758    
     51700  -122282.07      754.07967     -121527.99      193.17735      191.71072      985.6992     
     51800  -122218.64      749.43323     -121469.21      193.16411      191.69584      986.09081    
     51900  -122154.78      745.99011     -121408.79      193.15195      191.68309      986.48243    
     52000  -122096.74      750.53966     -121346.2       193.13934      191.66738      986.87405    
     52100  -122035.82      755.1435      -121280.67      193.12525      191.65289      987.26566    
     52200  -121971.92      753.07732     -121218.84      193.11301      191.64003      987.65728    
     52300  -121912.57      745.57566     -121166.99      193.10024      191.62474      988.0489     
     52400  -121863.14      752.15166     -121110.99      193.0851       191.61023      988.44051    
     52500  -121799.51      750.88991     -121048.62      193.0728       191.5973       988.83213    
     52600  -121737.81      750.77658     -120987.03      193.06035      191.58376      989.22375    
     52700  -121682.56      747.64153     -120934.92      193.04415      191.56904      989.61536    
     52800  -121621.99      744.72359     -120877.26      193.03015      191.55496      990.00698    
     52900  -121561.92      752.9943      -120808.92      193.01679      191.54141      990.3986     
     53000  -121497.48      756.00957     -120741.47      193.00142      191.52839      990.79021    
     53100  -121438.24      755.69466     -120682.55      192.98722      191.51385      991.18183    
     53200  -121377.03      751.5288      -120625.5       192.97264      191.50053      991.57345    
     53300  -121320.71      750.73155     -120569.98      192.95778      191.48803      991.96506    
     53400  -121261.88      749.02106     -120512.86      192.943        191.47343      992.35668    
     53500  -121207.04      752.12981     -120454.91      192.92682      191.45966      992.7483     
     53600  -121148.1       751.39299     -120396.71      192.91262      191.44795      993.13991    
     53700  -121087.94      742.53234     -120345.41      192.8978       191.43368      993.53153    
     53800  -121025.65      741.12837     -120284.52      192.88068      191.41968      993.92315    
     53900  -120968.73      754.57292     -120214.15      192.86605      191.40753      994.31476    
     54000  -120901.57      752.99594     -120148.58      192.85101      191.3937       994.70638    
     54100  -120841.61      753.97565     -120087.64      192.83392      191.3801       995.098      
     54200  -120782.77      751.97385     -120030.79      192.81972      191.36789      995.48961    
     54300  -120722.47      749.49601     -119972.98      192.80551      191.35493      995.88123    
     54400  -120661.31      751.05688     -119910.25      192.78783      191.3409       996.27285    
     54500  -120600.37      751.81328     -119848.56      192.77258      191.3269       996.66446    
     54600  -120543.81      751.61532     -119792.2       192.75884      191.31473      997.05608    
     54700  -120485.88      750.68985     -119735.19      192.74246      191.30156      997.4477     
     54800  -120424.84      752.59216     -119672.25      192.72594      191.28643      997.83931    
     54900  -120364.43      756.55628     -119607.88      192.71148      191.27325      998.23093    
     55000  -120300.43      753.86211     -119546.57      192.69625      191.26088      998.62255    
     55100  -120241.77      747.34967     -119494.42      192.68048      191.24557      999.01416    
     55200  -120184.61      750.2636      -119434.35      192.665        191.23175      999.40578    
     55300  -120116.52      749.09381     -119367.43      192.65045      191.21938      999.7974     
     55400  -120061.57      759.85315     -119301.72      192.63515      191.20401      1000.189     
     55500  -119999.04      756.07982     -119242.96      192.61865      191.18897      1000.5806    
     55600  -119943.5       753.94685     -119189.56      192.60387      191.17564      1000.9722    
     55700  -119876.02      749.69936     -119126.32      192.58962      191.16166      1001.3639    
     55800  -119811.27      747.44437     -119063.82      192.57253      191.14593      1001.7555    
     55900  -119751.98      746.40908     -119005.57      192.55709      191.13094      1002.1471    
     56000  -119694.79      744.63977     -118950.15      192.54324      191.11781      1002.5387    
     56100  -119639.49      753.10994     -118886.38      192.52721      191.10201      1002.9303    
     56200  -119574.35      754.77298     -118819.58      192.5105       191.0859       1003.3219    
     56300  -119511         755.15522     -118755.85      192.49652      191.07213      1003.7136    
     56400  -119450.67      748.45795     -118702.21      192.4813       191.05687      1004.1052    
     56500  -119394.7       751.42794     -118643.27      192.46464      191.04027      1004.4968    
     56600  -119330.29      750.4615      -118579.83      192.45042      191.02577      1004.8884    
     56700  -119269.63      751.33405     -118518.29      192.43588      191.01102      1005.28      
     56800  -119212.85      751.21353     -118461.64      192.41897      190.99316      1005.6716    
     56900  -119153.77      752.48828     -118401.28      192.40439      190.97801      1006.0633    
     57000  -119087.55      753.41865     -118334.13      192.39059      190.96296      1006.4549    
     57100  -119029.15      758.22257     -118270.92      192.37436      190.94533      1006.8465    
     57200  -118964.93      746.30913     -118218.62      192.35987      190.92955      1007.2381    
     57300  -118905.51      750.59076     -118154.92      192.34715      190.91504      1007.6297    
     57400  -118838.68      749.31073     -118089.37      192.33058      190.89689      1008.0213    
     57500  -118776.79      748.67277     -118028.12      192.31505      190.87959      1008.413     
     57600  -118722.99      752.40624     -117970.58      192.30316      190.86579      1008.8046    
     57700  -118657.02      750.25355     -117906.77      192.28873      190.84921      1009.1962    
     57800  -118593.03      751.57038     -117841.46      192.27181      190.83052      1009.5878    
     57900  -118534.28      756.98357     -117777.3       192.25937      190.81587      1009.9794    
     58000  -118479.75      754.35501     -117725.39      192.24622      190.80065      1010.371     
     58100  -118413.13      749.74968     -117663.38      192.22995      190.78247      1010.7627    
     58200  -118346.39      753.44991     -117592.94      192.21596      190.76631      1011.1543    
     58300  -118282.51      757.61642     -117524.89      192.20315      190.75177      1011.5459    
     58400  -118219.44      751.45213     -117467.99      192.18705      190.73381      1011.9375    
     58500  -118158.5       751.34291     -117407.15      192.1717       190.71667      1012.3291    
     58600  -118096.79      752.54179     -117344.25      192.15853      190.70205      1012.7207    
     58700  -118036.51      752.88101     -117283.63      192.14341      190.68525      1013.1124    
     58800  -117976.07      755.34502     -117220.73      192.12704      190.66729      1013.504     
     58900  -117908.83      753.46929     -117155.36      192.11281      190.6523       1013.8956    
     59000  -117842.59      751.79543     -117090.79      192.09831      190.63674      1014.2872    
     59100  -117780.79      751.14772     -117029.64      192.08162      190.61852      1014.6788    
     59200  -117729.69      763.0683      -116966.62      192.06614      190.60258      1015.0704    
     59300  -117663.79      757.76623     -116906.03      192.05145      190.58751      1015.4621    
     59400  -117602.41      758.66921     -116843.74      192.03545      190.57042      1015.8537    
     59500  -117536.25      755.84349     -116780.41      192.01909      190.5537       1016.2453    
     59600  -117465.09      747.90361     -116717.18      192.00402      190.53877      1016.6369    
     59700  -117408.25      754.06505     -116654.18      191.9889       190.52275      1017.0285    
     59800  -117342.88      753.50967     -116589.37      191.97173      190.50561      1017.4201    
     59900  -117272.97      746.96939     -116526         191.95597      190.49007      1017.8118    
     60000  -117218.48      754.58103     -116463.9       191.94172      190.4755       1018.2034    
     60100  -117155.42      754.79247     -116400.63      191.92422      190.45839      1018.595     
     60200  -117090.81      753.50147     -116337.31      191.90796      190.44301      1018.9866    
     60300  -117033.06      758.31512     -116274.74      191.89369      190.42887      1019.3782    
     60400  -116964.12      753.68926     -116210.43      191.87655      190.41249      1019.7698    
     60500  -116896.72      751.92219     -116144.8       191.85872      190.39576      1020.1615    
     60600  -116831.54      750.24242     -116081.3       191.84457      190.38217      1020.5531    
     60700  -116773.35      756.74204     -116016.61      191.8284       190.36718      1020.9447    
     60800  -116703.93      752.64913     -115951.28      191.80911      190.34878      1021.3363    
     60900  -116638.41      751.66663     -115886.74      191.7942       190.33505      1021.7279    
     61000  -116578.63      755.84829     -115822.78      191.77953      190.3214       1022.1195    
     61100  -116510.99      753.58238     -115757.41      191.76029      190.30337      1022.5112    
     61200  -116445.49      753.46393     -115692.02      191.74383      190.28869      1022.9028    
     61300  -116383.7       756.8134      -115626.89      191.72854      190.27504      1023.2944    
     61400  -116315.66      754.1036      -115561.55      191.7105       190.25845      1023.686     
     61500  -116251.97      755.1131      -115496.86      191.6931       190.24295      1024.0776    
     61600  -116186.01      754.75214     -115431.25      191.67696      190.22899      1024.4692    
     61700  -116117.18      751.31231     -115365.87      191.65909      190.21314      1024.8609    
     61800  -116050.49      750.73084     -115299.76      191.64144      190.19737      1025.2525    
     61900  -115993.47      759.77523     -115233.7       191.62552      190.18338      1025.6441    
     62000  -115923.31      755.4721      -115167.84      191.6074       190.16769      1026.0357    
     62100  -115852.8       750.63241     -115102.17      191.58944      190.15172      1026.4273    
     62200  -115788.44      753.76524     -115034.68      191.5732       190.13726      1026.8189    
     62300  -115727.32      758.59556     -114968.73      191.55558      190.1221       1027.2106    
     62400  -115661.61      759.5575      -114902.05      191.5374       190.10576      1027.6022    
     62500  -115593.43      758.05041     -114835.38      191.52087      190.09057      1027.9938    
     62600  -115528.14      759.39024     -114768.75      191.50381      190.0756       1028.3854    
     62700  -115461.73      759.61931     -114702.11      191.4856       190.05906      1028.777     
     62800  -115388.42      753.41054     -114635.01      191.46895      190.04344      1029.1686    
     62900  -115318.11      751.00737     -114567.1       191.45281      190.0286       1029.5603    
     63000  -115257.87      757.53897     -114500.33      191.43549      190.01269      1029.9519    
     63100  -115187.69      756.2011      -114431.49      191.41864      189.99653      1030.3435    
     63200  -115118.53      755.0007      -114363.53      191.40215      189.98059      1030.7351    
     63300  -115050         754.86901     -114295.13      191.38584      189.96496      1031.1267    
     63400  -114981.86      755.96441     -114225.9       191.36918      189.94914      1031.5183    
     63500  -114914.42      757.91851     -114156.5       191.35327      189.93276      1031.91      
     63600  -114842.25      755.8248      -114086.43      191.33689      189.91643      1032.3016    
     63700  -114772.96      755.84319     -114017.12      191.32061      189.90041      1032.6932    
     63800  -114700.56      752.68301     -113947.88      191.3054       189.88455      1033.0848    
     63900  -114636.2       757.62466     -113878.57      191.28912      189.86749      1033.4764    
     64000  -114559.29      750.40025     -113808.89      191.27241      189.85064      1033.868     
     64100  -114491.65      754.40519     -113737.24      191.25732      189.8351       1034.2597    
     64200  -114427.33      760.95264     -113666.37      191.24196      189.81823      1034.6513    
     64300  -114345.77      751.77617     -113593.99      191.22552      189.80112      1035.0429    
     64400  -114279.09      755.86404     -113523.22      191.21         189.78546      1035.4345    
     64500  -114205.83      753.73483     -113452.09      191.19463      189.76833      1035.8261    
     64600  -114143.53      763.17846     -113380.36      191.17844      189.75077      1036.2177    
     64700  -114064.62      755.72137     -113308.89      191.16249      189.73452      1036.6094    
     64800  -113994.15      757.7787      -113236.37      191.14727      189.71801      1037.001     
     64900  -113917.54      753.49727     -113164.05      191.13125      189.70008      1037.3926    
     65000  -113850.5       759.53843     -113090.96      191.11549      189.68365      1037.7842    
     65100  -113781.4       762.18986     -113019.21      191.10064      189.668        1038.1758    
     65200  -113695.43      748.60364     -112946.83      191.0847       189.64993      1038.5674    
     65300  -113626.93      753.35505     -112873.58      191.06896      189.63305      1038.9591    
     65400  -113558.08      758.6818      -112799.4       191.05357      189.61729      1039.3507    
     65500  -113480.86      754.7047      -112726.15      191.03758      189.59941      1039.7423    
     65600  -113405.05      753.69275     -112651.36      191.02227      189.58213      1040.1339    
     65700  -113331.63      754.78172     -112576.85      191.00706      189.56632      1040.5255    
     65800  -113257.37      757.28339     -112500.08      190.99138      189.54926      1040.9172    
     65900  -113184.7       759.00657     -112425.69      190.97599      189.53179      1041.3088    
     66000  -113105.3       756.82087     -112348.48      190.96129      189.51569      1041.7004    
     66100  -113029.82      758.37874     -112271.44      190.94444      189.4978       1042.092     
     66200  -112949.86      754.75352     -112195.11      190.92926      189.48077      1042.4836    
     66300  -112877.68      758.44358     -112119.23      190.9156       189.46509      1042.8752    
     66400  -112798.6       757.29608     -112041.3       190.89839      189.4471       1043.2669    
     66500  -112726.17      762.67066     -111963.5       190.88334      189.43058      1043.6585    
     66600  -112639.57      754.03832     -111885.54      190.86999      189.41527      1044.0501    
     66700  -112565.16      758.6151      -111806.55      190.85269      189.39688      1044.4417    
     66800  -112489.4       760.35792     -111729.04      190.83685      189.38001      1044.8333    
     66900  -112407.09      755.9212      -111651.17      190.82323      189.36517      1045.2249    
     67000  -112331.84      758.83304     -111573.01      190.80618      189.34714      1045.6166    
     67100  -112246.74      752.99425     -111493.75      190.78984      189.33018      1046.0082    
     67200  -112178.25      762.67894     -111415.57      190.77622      189.31575      1046.3998    
     67300  -112091.17      755.05129     -111336.12      190.75891      189.29811      1046.7914    
     67400  -112007.2       751.37691     -111255.82      190.74192      189.28113      1047.183     
     67500  -111937.33      762.45709     -111174.87      190.7276       189.26649      1047.5746    
     67600  -111847.79      753.82056     -111093.97      190.71051      189.24916      1047.9663    
     67700  -111769.33      756.83638     -111012.49      190.69291      189.23228      1048.3579    
     67800  -111689.08      759.0306      -110930.05      190.67781      189.21743      1048.7495    
     67900  -111609.21      761.88638     -110847.33      190.66123      189.20086      1049.1411    
     68000  -111520.85      756.01235     -110764.84      190.64329      189.18379      1049.5327    
     68100  -111443.12      760.39014     -110682.73      190.62783      189.16951      1049.9243    
     68200  -111356.7       757.07158     -110599.63      190.61125      189.15337      1050.316     
     68300  -111273.82      757.87626     -110515.94      190.59343      189.13609      1050.7076    
     68400  -111195.45      761.7841      -110433.67      190.57747      189.12161      1051.0992    
     68500  -111113.18      763.07076     -110350.11      190.56054      189.10586      1051.4908    
     68600  -111026.1       761.46889     -110264.63      190.54334      189.08915      1051.8824    
     68700  -110937.05      759.09451     -110177.96      190.52699      189.07404      1052.274     
     68800  -110857.55      763.96999     -110093.58      190.51008      189.05887      1052.6657    
     68900  -110763.76      756.51004     -110007.25      190.49255      189.04245      1053.0573    
     69000  -110681.89      759.849       -109922.04      190.47656      189.0273       1053.4489    
     69100  -110596.74      762.71428     -109834.03      190.45981      189.01225      1053.8405    
     69200  -110512.16      764.43414     -109747.73      190.44175      188.99557      1054.2321    
     69300  -110428.77      768.0308      -109660.74      190.42588      188.98097      1054.6237    
     69400  -110337.39      765.53577     -109571.86      190.40936      188.96576      1055.0154    
     69500  -110249.36      764.2043      -109485.16      190.39096      188.94905      1055.407     
     69600  -110154.34      757.99238     -109396.35      190.37526      188.93478      1055.7986    
     69700  -110068.74      761.44368     -109307.29      190.35841      188.91923      1056.1902    
     69800  -109984.19      767.22289     -109216.96      190.34002      188.90289      1056.5818    
     69900  -109891.91      765.25213     -109126.66      190.32375      188.88824      1056.9734    
     70000  -109802.3       765.56323     -109036.73      190.30716      188.87281      1057.3651    
     70100  -109706.44      760.89899     -108945.54      190.28885      188.85646      1057.7567    
     70200  -109624.4       768.34077     -108856.06      190.2721       188.84133      1058.1483    
     70300  -109533.8       766.32327     -108767.48      190.25598      188.8266       1058.5399    
     70400  -109442.89      769.61997     -108673.27      190.23779      188.81012      1058.9315    
     70500  -109354.2       771.84225     -108582.35      190.22033      188.79394      1059.3231    
     70600  -109254.34      765.6138      -108488.73      190.20432      188.77917      1059.7148    
     70700  -109163.96      766.87157     -108397.09      190.1863       188.76285      1060.1064    
     70800  -109071.68      767.43106     -108304.25      190.16882      188.74663      1060.498     
     70900  -108981.07      771.11055     -108209.96      190.1524       188.73096      1060.8896    
     71000  -108884.37      768.69493     -108115.67      190.13522      188.71534      1061.2812    
     71100  -108796.11      774.34962     -108021.76      190.1179       188.69896      1061.6728    
     71200  -108710.49      782.45674     -107928.03      190.10152      188.68278      1062.0645    
     71300  -108606.61      773.60176     -107833.01      190.08391      188.6665       1062.4561    
     71400  -108511.66      773.23972     -107738.42      190.06683      188.65024      1062.8477    
     71500  -108416.48      773.67565     -107642.8       190.0507       188.63395      1063.2393    
     71600  -108318.81      774.3611      -107544.45      190.03336      188.61719      1063.6309    
     71700  -108219.39      766.98815     -107452.4       190.01645      188.60096      1064.0225    
     71800  -108136.95      781.37447     -107355.58      190.00057      188.58484      1064.4142    
     71900  -108034.32      778.31764     -107256         189.98318      188.56744      1064.8058    
     72000  -107932.51      773.32142     -107159.19      189.96593      188.55067      1065.1974    
     72100  -107838.83      780.83325     -107057.99      189.95022      188.53461      1065.589     
     72200  -107743.85      785.11014     -106958.74      189.93259      188.51668      1065.9806    
     72300  -107641.67      782.40593     -106859.27      189.91484      188.49919      1066.3722    
     72400  -107543.13      786.6794      -106756.45      189.89938      188.48334      1066.7639    
     72500  -107440.97      781.77803     -106659.19      189.88232      188.46579      1067.1555    
     72600  -107344.07      782.72087     -106561.35      189.86391      188.44722      1067.5471    
     72700  -107250.38      792.91542     -106457.47      189.84778      188.43088      1067.9387    
     72800  -107136         782.29137     -106353.71      189.83127      188.41368      1068.3303    
     72900  -107039.45      788.40199     -106251.05      189.81278      188.39463      1068.7219    
     73000  -106940.63      793.25991     -106147.38      189.79596      188.3775       1069.1136    
     73100  -106844.14      800.98809     -106043.16      189.77982      188.36053      1069.5052    
     73200  -106736.74      799.0839      -105937.65      189.76158      188.34143      1069.8968    
     73300  -106627.47      795.05069     -105832.42      189.74432      188.32362      1070.2884    
     73400  -106527.24      802.79647     -105724.44      189.72811      188.3065       1070.68      
     73500  -106426.4       805.75712     -105620.65      189.71         188.28724      1071.0716    
     73600  -106324.01      807.34796     -105516.66      189.69254      188.26918      1071.4633    
     73700  -106220.84      812.2376      -105408.6       189.6759       188.25156      1071.8549    
     73800  -106113.74      811.59557     -105302.15      189.65804      188.23245      1072.2465    
     73900  -106000.4       810.03585     -105190.37      189.64028      188.21384      1072.6381    
     74000  -105900.36      816.05109     -105084.31      189.62331      188.19587      1073.0297    
     74100  -105794.01      822.04275     -104971.96      189.60582      188.17697      1073.4213    
     74200  -105682.58      817.15696     -104865.43      189.58772      188.15785      1073.813     
     74300  -105573.95      820.36882     -104753.58      189.57023      188.13969      1074.2046    
     74400  -105476.91      828.58732     -104648.32      189.55285      188.12076      1074.5962    
     74500  -105370.26      829.11833     -104541.14      189.5341       188.101        1074.9878    
     74600  -105250.53      823.48181     -104427.05      189.51641      188.08263      1075.3794    
     74700  -105147.23      834.12599     -104313.1       189.49907      188.0641       1075.771     
     74800  -105043.67      840.00906     -104203.66      189.47986      188.04377      1076.1627    
     74900  -104930         842.74175     -104087.26      189.4615       188.02473      1076.5543    
     75000  -104815.42      850.75117     -103964.67      189.44416      188.00635      1076.9459    
     75100  -104698.18      856.70888     -103841.47      189.42492      187.986        1077.3375    
     75200  -104583.66      854.17678     -103729.48      189.40582      187.96638      1077.7291    
     75300  -104479.27      860.51422     -103618.76      189.38799      187.9477       1078.1207    
     75400  -104369.6       864.55105     -103505.05      189.36906      187.92759      1078.5124    
     75500  -104246.07      866.21651     -103379.85      189.34927      187.9074       1078.904     
     75600  -104138.15      873.88461     -103264.27      189.33086      187.88843      1079.2956    
     75700  -104017.56      881.04874     -103136.51      189.31191      187.86832      1079.6872    
     75800  -103908.35      897.61137     -103010.74      189.29169      187.84764      1080.0788    
     75900  -103781.96      892.37992     -102889.58      189.27252      187.82822      1080.4704    
     76000  -103666.27      897.37195     -102768.89      189.2538       187.80851      1080.8621    
     76100  -103549.37      908.64051     -102640.73      189.23332      187.78755      1081.2537    
     76200  -103427.06      907.63798     -102519.42      189.21342      187.76749      1081.6453    
     76300  -103319.56      917.47919     -102402.08      189.19438      187.74768      1082.0369    
     76400  -103189.22      922.86267     -102266.36      189.17391      187.72666      1082.4285    
     76500  -103071.82      928.61079     -102143.21      189.15323      187.70605      1082.8201    
     76600  -102943.27      932.27778     -102010.99      189.13373      187.68608      1083.2118    
     76700  -102815.23      937.53716     -101877.7       189.1134       187.66499      1083.6034    
     76800  -102697.38      950.9164      -101746.46      189.09231      187.64405      1083.995     
     76900  -102579.15      956.95028     -101622.2       189.07201      187.62357      1084.3866    
     77000  -102473.4       973.44679     -101499.95      189.05179      187.60271      1084.7782    
     77100  -102445.01      1054.5826     -101390.43      189.03004      187.58137      1085.1698    
     77200  -102757.74      1387.2685     -101370.47      189.0082       187.55894      1085.5615    
     77300  -103397.42      1835.7704     -101561.65      188.98869      187.53855      1085.9531    
     77400  -104503.68      2469.7524     -102033.93      188.97086      187.52314      1086.3447    
     77500  -106025.31      2894.6791     -103130.63      188.96293      187.51888      1086.7363    
     77600  -107506.75      2911.1197     -104595.63      188.97213      187.53431      1087.1279    
     77700  -108811.29      2704.5854     -106106.71      188.98025      187.54458      1087.5195    
     77800  -110011.06      2487.6519     -107523.41      188.97704      187.54137      1087.9112    
     77900  -111071.2       2266.9244     -108804.27      188.98327      187.54686      1088.3028    
     78000  -112065.09      2101.5941     -109963.49      188.9965       187.55847      1088.6944    
     78100  -112978.65      1962.3012     -111016.35      189.00544      187.56634      1089.086     
     78200  -113830.58      1848.3496     -111982.23      189.01865      187.57804      1089.4776    
     78300  -114636.31      1753.4123     -112882.9       189.03409      187.59198      1089.8692    
     78400  -115399.16      1672.8594     -113726.3       189.04807      187.605        1090.2609    
     78500  -116135.03      1610.3082     -114524.72      189.06568      187.62234      1090.6525    
     78600  -116836.3       1552.8531     -115283.44      189.08446      187.64116      1091.0441    
     78700  -117514.06      1504.406      -116009.65      189.10282      187.66004      1091.4357    
     78800  -118161.85      1457.2192     -116704.63      189.12328      187.6812       1091.8273    
     78900  -118787.22      1414.5847     -117372.64      189.14498      187.70408      1092.2189    
     79000  -119389         1377.0687     -118011.93      189.16647      187.7272       1092.6106    
     79100  -119969.79      1341.6959     -118628.1       189.18986      187.75259      1093.0022    
     79200  -120528.78      1309.2028     -119219.58      189.2143       187.77931      1093.3938    
     79300  -121068.34      1278.4924     -119789.85      189.23887      187.80646      1093.7854    
     79400  -121589.48      1249.1233     -120340.36      189.26476      187.83509      1094.177     
     79500  -122093.54      1223.1619     -120870.38      189.29147      187.86473      1094.5686    
     79600  -122581.5       1198.6789     -121382.82      189.31829      187.89477      1094.9603    
     79700  -123053.7       1175.7066     -121877.99      189.34571      187.92566      1095.3519    
     79800  -123511.51      1154.3611     -122357.14      189.37351      187.95713      1095.7435    
     79900  -123955.58      1134.5616     -122821.02      189.40125      187.9887       1096.1351    
     80000  -124387.03      1116.5401     -123270.49      189.42926      188.02068      1096.5267    
     80100  -124805.55      1099.1044     -123706.45      189.45733      188.05286      1096.9183    
     80200  -125213.44      1083.4289     -124130.01      189.48526      188.08505      1097.31      
     80300  -125610.52      1068.7341     -124541.79      189.51321      188.11737      1097.7016    
     80400  -125998.06      1055.2215     -124942.84      189.54103      188.14961      1098.0932    
     80500  -126376.72      1042.8662     -125333.86      189.5685       188.18164      1098.4848    
     80600  -126747.02      1031.4465     -125715.57      189.59562      188.21341      1098.8764    
     80700  -127109.42      1020.7781     -126088.64      189.62232      188.24483      1099.268     
     80800  -127464.47      1010.859      -126453.61      189.64847      188.27574      1099.6597    
     80900  -127812.64      1001.617      -126811.02      189.67408      188.30614      1100.0513    
     81000  -128154.35      993.00935     -127161.34      189.69913      188.33603      1100.4429    
     81100  -128489.92      984.94554     -127504.97      189.72354      188.3653       1100.8345    
     81200  -128819.69      977.40898     -127842.28      189.7473       188.39393      1101.2261    
     81300  -129143.82      970.23711     -128173.58      189.77043      188.42192      1101.6177    
     81400  -129462.65      963.46034     -128499.19      189.79287      188.44924      1102.0094    
     81500  -129776.55      957.16647     -128819.38      189.81468      188.47592      1102.401     
     81600  -130085.73      951.28657     -129134.44      189.83591      188.50198      1102.7926    
     81700  -130390.17      945.55922     -129444.61      189.85655      188.52743      1103.1842    
     81800  -130690.15      940.01311     -129750.14      189.87667      188.55233      1103.5758    
     81900  -130986.38      935.11506     -130051.27      189.89629      188.57668      1103.9674    
     82000  -131278.65      930.42845     -130348.22      189.91538      188.60047      1104.3591    
     82100  -131566.86      925.66411     -130641.2       189.93399      188.62373      1104.7507    
     82200  -131851.86      921.44446     -130930.42      189.95215      188.64647      1105.1423    
     82300  -132133.58      917.49675     -131216.08      189.96979      188.66864      1105.5339    
     82400  -132412.27      913.87159     -131498.4       189.98694      188.69027      1105.9255    
     82500  -132687.56      910.02666     -131777.53      190.00363      188.71139      1106.3171    
     82600  -132960.46      906.75556     -132053.71      190.01988      188.73199      1106.7088    
     82700  -133230.82      903.71294     -132327.11      190.03575      188.75216      1107.1004    
     82800  -133498.8       900.86193     -132597.93      190.05128      188.77193      1107.492     
     82900  -133764.56      898.20422     -132866.36      190.06647      188.79131      1107.8836    
     83000  -134028.18      895.65335     -133132.53      190.08137      188.81031      1108.2752    
     83100  -134289.72      893.16791     -133396.55      190.09597      188.82897      1108.6668    
     83200  -134549.27      890.7656      -133658.5       190.11028      188.84726      1109.0585    
     83300  -134806.84      888.38473     -133918.45      190.12427      188.86518      1109.4501    
     83400  -135062.47      886.05032     -134176.42      190.13791      188.88269      1109.8417    
     83500  -135316.21      883.77938     -134432.43      190.15117      188.89976      1110.2333    
     83600  -135568.07      881.56072     -134686.51      190.16406      188.91639      1110.6249    
     83700  -135818.11      879.41318     -134938.69      190.17664      188.93266      1111.0165    
     83800  -136066.37      877.34682     -135189.02      190.18897      188.94862      1111.4082    
     83900  -136312.95      875.38056     -135437.57      190.20101      188.96422      1111.7998    
     84000  -136557.9       873.50583     -135684.4       190.21275      188.97948      1112.1914    
     84100  -136801.27      871.70377     -135929.57      190.22424      188.99442      1112.583     
     84200  -137043.14      869.96977     -136173.17      190.23546      189.00905      1112.9746    
     84300  -137283.57      868.29617     -136415.28      190.24653      189.02347      1113.3662    
     84400  -137522.6       866.6422      -136655.96      190.25734      189.03757      1113.7579    
     84500  -137760.29      865.07142     -136895.22      190.26784      189.05132      1114.1495    
     84600  -137996.6       863.52874     -137133.07      190.27816      189.06483      1114.5411    
     84700  -138231.63      862.05322     -137369.58      190.28833      189.07814      1114.9327    
     84800  -138463.22      858.85084     -137604.37      190.29827      189.09116      1115.3243    
     84900  -138688.02      853.31531     -137834.71      190.30822      189.10415      1115.7159    
     85000  -138907.63      848.04914     -138059.58      190.31824      189.11717      1116.1076    
     85100  -139122.59      843.32693     -138279.27      190.32804      189.12991      1116.4992    
     85200  -139332.29      838.32167     -138493.97      190.33778      189.14254      1116.8908    
     85300  -139537.57      833.77375     -138703.79      190.34762      189.15523      1117.2824    
     85400  -139738.11      829.38827     -138908.72      190.35734      189.16775      1117.674     
     85500  -139933.9       825.16168     -139108.74      190.36699      189.18016      1118.0656    
     85600  -140124.29      820.52264     -139303.77      190.37676      189.19264      1118.4573    
     85700  -140310.02      816.2415      -139493.78      190.38648      189.20503      1118.8489    
     85800  -140490.66      811.96321     -139678.69      190.39616      189.21733      1119.2405    
     85900  -140666.09      807.63871     -139858.45      190.40597      189.22973      1119.6321    
     86000  -140836.36      803.39005     -140032.97      190.41579      189.2421       1120.0237    
     86100  -141001.49      799.31424     -140202.18      190.42561      189.25442      1120.4153    
     86200  -141161.1       795.13862     -140365.97      190.43558      189.26686      1120.807     
     86300  -141315.33      791.08812     -140524.24      190.44563      189.27934      1121.1986    
     86400  -141464.05      787.1517      -140676.9       190.45572      189.29182      1121.5902    
     86500  -141607.13      783.30077     -140823.82      190.466        189.30445      1121.9818    
     86600  -141744.48      779.56764     -140964.91      190.4764       189.31717      1122.3734    
     86700  -141876.01      775.98288     -141100.03      190.48691      189.32996      1122.765     
     86800  -142001.52      772.4836      -141229.04      190.49764      189.34293      1123.1567    
     86900  -142120.91      769.13814     -141351.77      190.50855      189.35607      1123.5483    
     87000  -142233.95      765.91604     -141468.04      190.51962      189.36933      1123.9399    
     87100  -142340.48      762.86717     -141577.62      190.53097      189.38283      1124.3315    
     87200  -142440.29      760.03311     -141680.26      190.54257      189.39654      1124.7231    
     87300  -142533.25      757.51487     -141775.74      190.55424      189.41033      1125.1147    
     87400  -142619.59      755.60431     -141863.99      190.56592      189.42411      1125.5064    
     87500  -142699.52      754.14072     -141945.38      190.57762      189.43795      1125.898     
     87600  -142772.79      752.54064     -142020.25      190.5893       189.45173      1126.2896    
     87700  -142839.37      751.06342     -142088.31      190.60107      189.46561      1126.6812    
     87800  -142899.26      750.01418     -142149.24      190.61286      189.47949      1127.0728    
     87900  -142952.19      749.17757     -142203.01      190.62468      189.49342      1127.4644    
     88000  -142998.26      748.63442     -142249.62      190.63671      189.50758      1127.8561    
     88100  -143037.38      748.17309     -142289.21      190.64886      189.52189      1128.2477    
     88200  -143069.46      747.72819     -142321.73      190.66106      189.53625      1128.6393    
     88300  -143094.47      747.52907     -142346.94      190.67333      189.55071      1129.0309    
     88400  -143112.38      747.56324     -142364.82      190.68578      189.5653       1129.4225    
     88500  -143123.25      747.64252     -142375.61      190.69838      189.58         1129.8141    
     88600  -143127.09      747.58474     -142379.5       190.71099      189.5947       1130.2058    
     88700  -143123.47      747.12917     -142376.34      190.72364      189.60948      1130.5974    
     88800  -143111.84      746.51369     -142365.33      190.73538      189.62343      1130.989     
     88900  -143091.86      746.30606     -142345.56      190.74628      189.63647      1131.3806    
     89000  -143062.69      745.86395     -142316.82      190.75712      189.64935      1131.7722    
     89100  -143024.03      745.1194      -142278.92      190.7672       189.66141      1132.1638    
     89200  -142975.67      744.09144     -142231.58      190.77692      189.67304      1132.5555    
     89300  -142917.11      742.4954      -142174.61      190.78695      189.6849       1132.9471    
     89400  -142847.96      740.25421     -142107.71      190.79625      189.69605      1133.3387    
     89500  -142767.63      737.12893     -142030.5       190.80544      189.70707      1133.7303    
     89600  -142675.76      733.14993     -141942.61      190.81482      189.71807      1134.1219    
     89700  -142572.26      728.24059     -141844.02      190.82339      189.72811      1134.5135    
     89800  -142456.85      721.78983     -141735.06      190.83232      189.73849      1134.9052    
     89900  -142329.28      713.4239      -141615.85      190.841        189.74862      1135.2968    
     90000  -142189.77      703.28541     -141486.48      190.84911      189.75813      1135.6884    
     90100  -142038.42      690.91957     -141347.51      190.85803      189.76824      1136.08      
     90200  -141876.39      676.69607     -141199.7       190.86583      189.77721      1136.4716    
     90300  -141726.65      682.54099     -141044.1       190.87367      189.78611      1136.8632    
     90400  -141666.25      770.08565     -140896.16      190.87712      189.79065      1137.2549    
     90500  -141683.1       841.90146     -140841.2       190.85586      189.77153      1137.6465    
     90600  -141725.48      778.32405     -140947.16      190.82501      189.74508      1138.0381    
     90700  -141839.37      760.59538     -141078.78      190.81711      189.74008      1138.4297    
     90800  -141912.12      724.5858      -141187.53      190.80809      189.73461      1138.8213    
     90900  -141963.34      724.41019     -141238.93      190.78943      189.71815      1139.2129    
     91000  -141974.29      743.0731      -141231.21      190.77028      189.69927      1139.6046    
     91100  -141966.4       769.16543     -141197.23      190.76012      189.69324      1139.9962    
     91200  -141968.44      775.75776     -141192.69      190.76022      189.69799      1140.3878    
     91300  -141981.18      747.52858     -141233.66      190.76811      189.70869      1140.7794    
     91400  -142001.46      731.81713     -141269.65      190.77755      189.71855      1141.171     
     91500  -142005.78      733.77668     -141272.01      190.78677      189.7274       1141.5626    
     91600  -142018.21      769.51362     -141248.69      190.79272      189.73314      1141.9543    
     91700  -142015.44      769.65495     -141245.78      190.79864      189.73965      1142.3459    
     91800  -142033.94      757.18238     -141276.76      190.80678      189.74582      1142.7375    
     91900  -142061.32      748.62989     -141312.69      190.81646      189.75537      1143.1291    
     92000  -142087.75      749.6481      -141338.1       190.82599      189.77266      1143.5207    
     92100  -142085.53      734.2012      -141351.33      190.82962      189.78613      1143.9123    
     92200  -142096.85      757.25977     -141339.59      190.828        189.78979      1144.304     
     92300  -142091.76      765.3713      -141326.39      190.83427      189.79954      1144.6956    
     92400  -142104.46      769.29625     -141335.16      190.84954      189.81139      1145.0872    
     92500  -142107.42      739.79564     -141367.63      190.85198      189.81588      1145.4788    
     92600  -142121.42      737.18335     -141384.23      190.85284      189.82891      1145.8704    
     92700  -142104.33      735.84093     -141368.49      190.85885      189.84192      1146.262     
     92800  -142091.98      760.22631     -141331.76      190.85783      189.84372      1146.6537    
     92900  -142085.06      776.94048     -141308.12      190.86608      189.84725      1147.0453    
     93000  -142078.5       749.1823      -141329.32      190.87247      189.85057      1147.4369    
     93100  -142096.08      741.00868     -141355.07      190.87419      189.85642      1147.8285    
     93200  -142087.19      731.41176     -141355.77      190.88157      189.87085      1148.2201    
     93300  -142073.71      752.48317     -141321.22      190.89064      189.88259      1148.6117    
     93400  -142046.88      762.42086     -141284.46      190.9037       189.89001      1149.0034    
     93500  -142036.84      762.09844     -141274.74      190.91564      189.89192      1149.395     
     93600  -142047.42      757.65834     -141289.76      190.9215       189.8936       1149.7866    
     93700  -142059.97      747.37707     -141312.59      190.9368       189.90502      1150.1782    
     93800  -142067.5       743.81423     -141323.68      190.95042      189.91481      1150.5698    
     93900  -142078.91      759.47241     -141319.44      190.96684      189.91889      1150.9614    
     94000  -142071.54      754.7226      -141316.81      190.99263      189.931        1151.3531    
     94100  -142080.27      759.15575     -141321.12      191.01206      189.9365       1151.7447    
     94200  -142078.66      744.49086     -141334.17      191.03783      189.94267      1152.1363    
     94300  -142085.63      747.70946     -141337.93      191.06739      189.95061      1152.5279    
     94400  -142094.92      758.78631     -141336.13      191.09037      189.95666      1152.9195    
     94500  -142099.83      755.29651     -141344.53      191.1157       189.97259      1153.3111    
     94600  -142103.28      747.09843     -141356.18      191.13825      189.9875       1153.7028    
     94700  -142100.14      743.98562     -141356.15      191.16442      189.99902      1154.0944    
     94800  -142104.27      756.56699     -141347.7       191.19734      190.01697      1154.486     
     94900  -142101.86      754.80911     -141347.05      191.22429      190.03144      1154.8776    
     95000  -142111.37      755.97701     -141355.39      191.25738      190.04809      1155.2692    
     95100  -142119.11      750.33984     -141368.77      191.29557      190.06694      1155.6608    
     95200  -142120.61      742.70504     -141377.91      191.32896      190.07967      1156.0525    
     95300  -142106.82      735.73343     -141371.09      191.36711      190.10221      1156.4441    
     95400  -142109.92      761.16589     -141348.75      191.39903      190.1146       1156.8357    
     95500  -142104.71      763.55449     -141341.16      191.42616      190.12119      1157.2273    
     95600  -142115.75      756.26078     -141359.49      191.45756      190.13317      1157.6189    
     95700  -142134.66      745.73637     -141388.92      191.49339      190.14866      1158.0105    
     95800  -142147.5       743.01922     -141404.48      191.52627      190.16434      1158.4022    
     95900  -142154.94      748.85594     -141406.08      191.55959      190.17574      1158.7938    
     96000  -142150.86      750.81459     -141400.05      191.58772      190.18913      1159.1854    
     96100  -142150.75      756.08675     -141394.66      191.61466      190.20199      1159.577     
     96200  -142148.34      750.08946     -141398.25      191.64479      190.21431      1159.9686    
     96300  -142153.26      753.81528     -141399.45      191.67137      190.22623      1160.3602    
     96400  -142151.59      751.44659     -141400.14      191.69964      190.23422      1160.7519    
     96500  -142155.99      757.4032      -141398.59      191.73432      190.23962      1161.1435    
     96600  -142154.57      753.5994      -141400.97      191.77013      190.25061      1161.5351    
     96700  -142167.03      757.40074     -141409.63      191.79998      190.25637      1161.9267    
     96800  -142174.92      748.69014     -141426.23      191.83348      190.26136      1162.3183    
     96900  -142177.67      741.21455     -141436.46      191.8639       190.26593      1162.7099    
     97000  -142175.61      746.30077     -141429.31      191.89708      190.27314      1163.1016    
     97100  -142168.97      756.55756     -141412.41      191.93005      190.2773       1163.4932    
     97200  -142165.29      763.32069     -141401.97      191.96267      190.28043      1163.8848    
     97300  -142161.89      755.49725     -141406.39      191.99104      190.27936      1164.2764    
     97400  -142171.89      747.13097     -141424.76      192.02219      190.27584      1164.668     
     97500  -142189.79      748.98988     -141440.8       192.05709      190.27766      1165.0596    
     97600  -142199.44      750.44274     -141448.99      192.08706      190.27918      1165.4513    
     97700  -142205.27      750.45013     -141454.81      192.11373      190.27592      1165.8429    
     97800  -142206.79      749.01205     -141457.77      192.13825      190.27107      1166.2345    
     97900  -142200.73      748.29376     -141452.43      192.16297      190.26324      1166.6261    
     98000  -142194.83      751.57132     -141443.26      192.18608      190.25506      1167.0177    
     98100  -142190.81      754.49681     -141436.31      192.20384      190.24802      1167.4093    
     98200  -142193.2       757.70774     -141435.49      192.22148      190.24268      1167.801     
     98300  -142195.35      754.52898     -141440.82      192.24308      190.23708      1168.1926    
     98400  -142194.25      750.4003      -141443.85      192.2681       190.2307       1168.5842    
     98500  -142198.26      754.55087     -141443.71      192.29197      190.22314      1168.9758    
     98600  -142206.29      758.66945     -141447.62      192.31846      190.21383      1169.3674    
     98700  -142207.91      748.70753     -141459.2       192.34454      190.20186      1169.759     
     98800  -142212.61      743.2776      -141469.33      192.36772      190.19334      1170.1507    
     98900  -142213.37      745.60553     -141467.76      192.38798      190.18774      1170.5423    
     99000  -142204.73      747.16246     -141457.57      192.40264      190.1771       1170.9339    
     99100  -142200.48      755.27341     -141445.2       192.4208       190.16659      1171.3255    
     99200  -142202.79      761.81907     -141440.97      192.43597      190.15922      1171.7171    
     99300  -142204.38      748.92413     -141455.45      192.44737      190.15444      1172.1087    
     99400  -142220.16      746.50113     -141473.66      192.45707      190.15032      1172.5004    
     99500  -142225.65      748.14658     -141477.5       192.46577      190.14892      1172.892     
     99600  -142222.45      751.79697     -141470.65      192.47408      190.14864      1173.2836    
     99700  -142230.24      763.19733     -141467.04      192.48029      190.14854      1173.6752    
     99800  -142226.41      752.84791     -141473.56      192.48254      190.14965      1174.0668    
     99900  -142228.76      746.31489     -141482.45      192.48496      190.15095      1174.4584    
    100000  -142230.6       742.96188     -141487.64      192.48858      190.15366      1174.8501    
Loop time of 27175 on 16 procs for 100000 steps with 19380 atoms

Performance: 0.318 ns/day, 75.486 hours/ns, 3.680 timesteps/s, 71.316 katom-step/s
46.2% CPU use with 16 MPI tasks x 1 OpenMP threads

MPI task timing breakdown:
Section |  min time  |  avg time  |  max time  |%varavg| %total
---------------------------------------------------------------
Pair    | 2932.2     | 3443.6     | 3979.1     | 474.5 | 12.67
Neigh   | 13.692     | 19.32      | 24.292     |  72.9 |  0.07
Comm    | 3638.9     | 4146.6     | 4853.5     | 512.3 | 15.26
Output  | 73.385     | 76.418     | 80.113     |  21.6 |  0.28
Modify  | 16575      | 17345      | 17723      | 235.2 | 63.83
Other   |            | 2144       |            |       |  7.89

Nlocal:        1211.25 ave        2469 max           3 min
Histogram: 4 0 0 0 4 0 4 2 1 1
Nghost:        3460.94 ave        5344 max           8 min
Histogram: 4 0 0 0 0 0 4 0 1 7
Neighs:              0 ave           0 max           0 min
Histogram: 16 0 0 0 0 0 0 0 0 0

Total # of neighbors = 0
Ave neighs/atom = 0
Neighbor list builds = 672
Dangerous builds = 0
Total wall time: 7:33:03
