LAMMPS (2 Aug 2023 - Update 3)
OMP_NUM_THREADS environment is not set. Defaulting to 1 thread. (src/comm.cpp:98)
  using 1 OpenMP thread(s) per MPI task

# 1------general---------------
units                             metal      #单位为lammps 中的metel 类型
dimension                    3          #模拟的维度 三维
boundary                    p p p      #周期边界条件
atom_style                  atomic   #原子类型自动
atom_modify              map array sort 100 2.0
neighbor                    3.0 bin
neigh_modify            every 1 delay 0 check yes
#2 -----global variable-------定义全局变量，方便统一修改；
variable temperature equal 300
variable tstep equal 0.001
variable pressure equal 0
variable thermalstep equal 100
variable dumpstep equal 1000
variable relaxtime equal 0
variable totaltime equal 100000
variable deformrate equal 5e-3
#3 -------model------------
#box tilt large
read_data     1.lmp
Reading data file ...
  orthogonal box = (-100 -100 -2.3312512) to (100 100 41.316429)
  3 by 4 by 1 MPI processor grid
  reading atoms ...
  1824 atoms
  read_data CPU = 0.005 seconds
replicate 1 1 3
Replication is creating a 1x1x3 = 3 times larger system...
  orthogonal box = (-100 -100 -2.3312512) to (100 100 128.61179)
  2 by 3 by 2 MPI processor grid
  5472 atoms
  replicate CPU = 0.001 seconds
write_data h.data
System init for write_data ...
WARNING: Communication cutoff is 0.0. No ghost atoms will be generated. Atoms may get lost. (src/comm_brick.cpp:210)
pair_style hybrid airebo 3.0 airebo 3.0 airebo 3.0 lj/cut 10
pair_coeff * * airebo 1 CH.airebo C NULL NULL
Reading airebo potential file CH.airebo with DATE: 2011-10-25
pair_coeff * * airebo 2 CH.airebo NULL C NULL
Reading airebo potential file CH.airebo with DATE: 2011-10-25
pair_coeff * * airebo 3 CH.airebo NULL NULL C
Reading airebo potential file CH.airebo with DATE: 2011-10-25
pair_coeff 1 2 lj/cut 0.00456 3.431
pair_coeff 1 3 lj/cut 0.00456 3.431
pair_coeff 2 3 lj/cut 0.00456 3.431

# 5------minimize -----------
min_style      sd
minimize       1.0e-4 1.0e-6 100 1000
Neighbor list info ...
  update: every = 1 steps, delay = 0 steps, check = yes
  max neighbors/atom: 2000, page size: 100000
  master list distance cutoff = 13.2
  ghost atom cutoff = 13.2
  binsize = 6.6, bins = 31 31 20
  6 neighbor lists, perpetual/occasional/extra = 6 0 0
  (1) pair airebo, perpetual, skip from (5)
      attributes: full, newton on, ghost
      pair build: skip/ghost
      stencil: none
      bin: none
  (2) pair airebo, perpetual, skip from (5)
      attributes: full, newton on, ghost
      pair build: skip/ghost
      stencil: none
      bin: none
  (3) pair airebo, perpetual, skip from (5)
      attributes: full, newton on, ghost
      pair build: skip/ghost
      stencil: none
      bin: none
  (4) pair lj/cut, perpetual, skip from (6)
      attributes: half, newton on, cut 13
      pair build: skip
      stencil: none
      bin: none
  (5) neighbor class addition, perpetual
      attributes: full, newton on, ghost
      pair build: full/bin/ghost
      stencil: full/ghost/bin/3d
      bin: standard
  (6) neighbor class addition, perpetual
      attributes: half, newton on, cut 13
      pair build: half/bin/atomonly/newton
      stencil: half/bin/3d
      bin: standard
Per MPI rank memory allocation (min/avg/max) = 9.738 | 11.33 | 14.69 Mbytes
   Step          Temp          E_pair         E_mol          TotEng         Press     
         0   0             -39421.094      0             -39421.094      705.43265    
         4   0             -39555.535      0             -39555.535      93.415916    
Loop time of 0.132106 on 12 procs for 4 steps with 5472 atoms

97.5% CPU use with 12 MPI tasks x 1 OpenMP threads

Minimization stats:
  Stopping criterion = energy tolerance
  Energy initial, next-to-last, final = 
     -39421.0939073616  -39552.1692305172  -39555.5351312355
  Force two-norm initial, final = 119.61331 19.941801
  Force max component initial, final = 3.4318528 0.54749295
  Final line search alpha, max atom move = 0.13695896 0.074984064
  Iterations, force evaluations = 4 8

MPI task timing breakdown:
Section |  min time  |  avg time  |  max time  |%varavg| %total
---------------------------------------------------------------
Pair    | 4.351e-06  | 0.042009   | 0.12888    |  29.0 | 31.80
Neigh   | 0          | 0          | 0          |   0.0 |  0.00
Comm    | 2.195e-06  | 0.0011582  | 0.0076495  |   7.0 |  0.88
Output  | 0          | 0          | 0          |   0.0 |  0.00
Modify  | 0          | 0          | 0          |   0.0 |  0.00
Other   |            | 0.08894    |            |       | 67.32

Nlocal:            456 ave        1387 max           0 min
Histogram: 8 0 0 0 0 0 0 0 0 4
Nghost:        816.667 ave        2481 max           0 min
Histogram: 8 0 0 0 0 0 0 0 0 4
Neighs:              0 ave           0 max           0 min
Histogram: 12 0 0 0 0 0 0 0 0 0

Total # of neighbors = 0
Ave neighs/atom = 0
Neighbor list builds = 0
Dangerous builds = 0
#6----define computes------
variable nums equal count(all) #计算原子数目
variable toval equal 22.7273*22.7165*lz #计算系统总体积，单层石墨烯厚度为0.335nm
variable vol equal ${toval} #体系的初始体积
variable vol equal 67603.8900351808 
variable vatom equal v_vol/v_nums #单个原子体积
compute 1 all stress/atom NULL #计算体系中单原子应力
compute xalls all reduce sum c_1[1]
variable xstress equal (c_xalls)/(v_toval*10000)
compute yalls all reduce sum c_1[2]
variable ystress equal (c_yalls)/(v_toval*10000)
compute zalls all reduce sum c_1[3]
variable zstress equal (c_zalls)/(v_toval*10000)
#7---------relaxation-------------------------
timestep ${tstep}
timestep 0.001
velocity all create ${temperature} 231743 units box dist gaussian
velocity all create 300 231743 units box dist gaussian
dump   1 all atom 100 all-cy.lammpstrj
#fix    1 all npt temp 300 300  0.1 aniso 0 0 10 drag 1  #三个方向独立控压
fix  1 all npt temp ${temperature} ${temperature} 0.1 x ${pressure} ${pressure} 10 y ${pressure} ${pressure} 10
fix  1 all npt temp 300 ${temperature} 0.1 x ${pressure} ${pressure} 10 y ${pressure} ${pressure} 10
fix  1 all npt temp 300 300 0.1 x ${pressure} ${pressure} 10 y ${pressure} ${pressure} 10
fix  1 all npt temp 300 300 0.1 x 0 ${pressure} 10 y ${pressure} ${pressure} 10
fix  1 all npt temp 300 300 0.1 x 0 0 10 y ${pressure} ${pressure} 10
fix  1 all npt temp 300 300 0.1 x 0 0 10 y 0 ${pressure} 10
fix  1 all npt temp 300 300 0.1 x 0 0 10 y 0 0 10
compute  2 all pe/atom
compute  pe all reduce sum c_2
variable PE equal "c_pe"
fix    pe all print 100 "${PE} " file PE.txt screen no
thermo  ${thermalstep}
thermo  100
#thermo_style  custom step pe ke etotal lx ly lz
run   ${relaxtime}
run   0
Per MPI rank memory allocation (min/avg/max) = 10.36 | 11.95 | 15.32 Mbytes
   Step          Temp          E_pair         E_mol          TotEng         Press          Volume    
         4   300           -39555.535      0             -39343.38       136.68018      5237721.6    
Loop time of 1.70734e-05 on 12 procs for 0 steps with 5472 atoms

79.6% CPU use with 12 MPI tasks x 1 OpenMP threads

MPI task timing breakdown:
Section |  min time  |  avg time  |  max time  |%varavg| %total
---------------------------------------------------------------
Pair    | 0          | 0          | 0          |   0.0 |  0.00
Neigh   | 0          | 0          | 0          |   0.0 |  0.00
Comm    | 0          | 0          | 0          |   0.0 |  0.00
Output  | 0          | 0          | 0          |   0.0 |  0.00
Modify  | 0          | 0          | 0          |   0.0 |  0.00
Other   |            | 1.707e-05  |            |       |100.00

Nlocal:            456 ave        1390 max           0 min
Histogram: 8 0 0 0 0 0 0 0 0 4
Nghost:          816.5 ave        2480 max           0 min
Histogram: 8 0 0 0 0 0 0 0 0 4
Neighs:              0 ave           0 max           0 min
Histogram: 12 0 0 0 0 0 0 0 0 0

Total # of neighbors = 0
Ave neighs/atom = 0
Neighbor list builds = 0
Dangerous builds = 0
#8 -------tension-----------------------------
unfix  1
undump  1
unfix  pe
reset_timestep 0
fix avestress all ave/atom 1 ${dumpstep} ${dumpstep} c_1[1] c_1[2] c_1[3] c_1[4] c_1[5] c_1[6]
fix avestress all ave/atom 1 1000 ${dumpstep} c_1[1] c_1[2] c_1[3] c_1[4] c_1[5] c_1[6]
fix avestress all ave/atom 1 1000 1000 c_1[1] c_1[2] c_1[3] c_1[4] c_1[5] c_1[6]

#-----calculation of strain and Cumulative compression--------
variable                tmp equal "lz"
variable                L0 equal ${tmp}
variable                L0 equal 130.9430410524
variable                strain equal "(lz - v_L0)/v_L0"
variable                Cumulativels equal "(lz - v_L0)/10"
fix Step all print 100 "${strain} ${Cumulativels} ${zstress}" file grapoten.txt screen no

dump 2 all custom ${dumpstep} tension.xyz type x y z f_avestress[1] f_avestress[2] f_avestress[3] f_avestress[4] f_avestress[5] f_avestress[6]
dump 2 all custom 1000 tension.xyz type x y z f_avestress[1] f_avestress[2] f_avestress[3] f_avestress[4] f_avestress[5] f_avestress[6]

fix  1 all npt temp ${temperature} ${temperature} 0.1 y ${pressure} ${pressure} 10 x ${pressure} ${pressure} 10
fix  1 all npt temp 300 ${temperature} 0.1 y ${pressure} ${pressure} 10 x ${pressure} ${pressure} 10
fix  1 all npt temp 300 300 0.1 y ${pressure} ${pressure} 10 x ${pressure} ${pressure} 10
fix  1 all npt temp 300 300 0.1 y 0 ${pressure} 10 x ${pressure} ${pressure} 10
fix  1 all npt temp 300 300 0.1 y 0 0 10 x ${pressure} ${pressure} 10
fix  1 all npt temp 300 300 0.1 y 0 0 10 x 0 ${pressure} 10
fix  1 all npt temp 300 300 0.1 y 0 0 10 x 0 0 10

thermo_style custom step pe ke etotal lx ly lz
fix   2 all deform 1 z erate ${deformrate} remap x units box
fix   2 all deform 1 z erate 0.005 remap x units box
fix   3 all ave/time 2 500 1000 v_xstress v_ystress v_zstress file pressure.out
run   ${totaltime}
run   100000
WARNING: Dump 2 includes no atom IDs and is not sorted by ID. This may complicate post-processing tasks or visualization (src/dump.cpp:221)
Per MPI rank memory allocation (min/avg/max) = 11.86 | 13.45 | 16.82 Mbytes
   Step         PotEng         KinEng         TotEng           Lx             Ly             Lz      
         0  -39555.535      212.15468     -39343.38       200            200            130.94304    
       100  -39434.454      108.53365     -39325.92       199.98979      199.99115      131.00851    
       200  -39441.226      139.79834     -39301.428      199.97791      199.98312      131.07398    
       300  -39423.801      151.27943     -39272.521      199.99281      200.00341      131.13946    
       400  -39411.102      169.65983     -39241.442      199.97618      199.99831      131.20493    
       500  -39397.128      187.37672     -39209.751      199.95805      199.99474      131.2704     
       600  -39386.223      206.7165      -39179.506      199.9702       200.01899      131.33587    
       700  -39366.454      212.79877     -39153.655      199.95566      200.01377      131.40134    
       800  -39351.497      214.4902      -39137.007      199.92725      199.99482      131.46681    
       900  -39349.021      215.85107     -39133.17       199.92728      199.99906      131.53228    
      1000  -39351.057      207.72734     -39143.33       199.93141      200.00498      131.59776    
      1100  -39363.329      207.66811     -39155.661      199.91326      199.98865      131.66323    
      1200  -39359.599      199.41189     -39160.187      199.92049      199.99729      131.7287     
      1300  -39362.893      210.48923     -39152.404      199.92242      199.99867      131.79417    
      1400  -39361.412      221.49908     -39139.913      199.90518      199.98192      131.85964    
      1500  -39356.971      222.1908      -39134.78       199.90187      199.97757      131.92511    
      1600  -39360.766      220.77606     -39139.99       199.90265      199.97875      131.99059    
      1700  -39357.812      209.84942     -39147.962      199.88743      199.96427      132.05606    
      1800  -39360.45       209.59599     -39150.854      199.88148      199.95778      132.12153    
      1900  -39351.643      204.78639     -39146.856      199.8912       199.97093      132.187      
      2000  -39351.089      212.07543     -39139.014      199.87745      199.96332      132.25247    
      2100  -39345.293      211.14054     -39134.152      199.86198      199.95662      132.31794    
      2200  -39349.861      213.09402     -39136.767      199.85344      199.9565       132.38341    
      2300  -39349.774      206.99313     -39142.78       199.84552      199.95593      132.44889    
      2400  -39354.426      209.07479     -39145.351      199.828        199.95097      132.51436    
      2500  -39353.968      212.03828     -39141.93       199.82048      199.95529      132.57983    
      2600  -39348.188      213.49246     -39134.695      199.81283      199.95931      132.6453     
      2700  -39346.903      215.68464     -39131.218      199.79842      199.96055      132.71077    
      2800  -39344.418      211.7231      -39132.695      199.78056      199.95716      132.77624    
      2900  -39347.02       210.78432     -39136.235      199.76555      199.95688      132.84172    
      3000  -39345.385      208.43535     -39136.949      199.75319      199.95691      132.90719    
      3100  -39348.405      214.42199     -39133.983      199.73504      199.94838      132.97266    
      3200  -39337.982      208.40387     -39129.579      199.72569      199.94675      133.03813    
      3300  -39340.304      214.90766     -39125.396      199.71215      199.94174      133.1036     
      3400  -39339.999      214.59587     -39125.404      199.70438      199.93308      133.16907    
      3500  -39340.983      211.90341     -39129.08       199.70046      199.92604      133.23454    
      3600  -39337.335      206.86158     -39130.474      199.69823      199.91439      133.30002    
      3700  -39334.605      207.9575      -39126.648      199.69013      199.89975      133.36549    
      3800  -39335.579      216.67984     -39118.899      199.68621      199.88793      133.43096    
      3900  -39327.606      214.77478     -39112.831      199.68215      199.87686      133.49643    
      4000  -39327.709      216.12907     -39111.58       199.66719      199.86171      133.5619     
      4100  -39324.589      209.97736     -39114.612      199.65933      199.85542      133.62737    
      4200  -39326.148      208.86597     -39117.282      199.64964      199.84704      133.69284    
      4300  -39325.549      209.48372     -39116.065      199.63863      199.83806      133.75832    
      4400  -39321.323      210.79119     -39110.532      199.62551      199.83022      133.82379    
      4500  -39317.828      213.68767     -39104.141      199.61235      199.82369      133.88926    
      4600  -39317.242      215.00841     -39102.234      199.59584      199.813        133.95473    
      4700  -39318.314      212.98029     -39105.334      199.58501      199.80494      134.0202     
      4800  -39317.84       210.5393      -39107.301      199.57678      199.79206      134.08567    
      4900  -39314.473      210.12896     -39104.344      199.56432      199.7758       134.15115    
      5000  -39310.083      212.38485     -39097.698      199.55859      199.7622       134.21662    
      5100  -39304.956      213.22088     -39091.735      199.54951      199.74707      134.28209    
      5200  -39302.164      214.15841     -39088.006      199.53464      199.73207      134.34756    
      5300  -39302.494      214.75482     -39087.739      199.52105      199.72159      134.41303    
      5400  -39298.641      208.89828     -39089.743      199.51136      199.71309      134.4785     
      5500  -39301.484      210.66895     -39090.815      199.49684      199.69715      134.54397    
      5600  -39297.098      207.81347     -39089.285      199.4868       199.68725      134.60945    
      5700  -39294.279      209.74029     -39084.539      199.47607      199.67846      134.67492    
      5800  -39291.324      211.88813     -39079.436      199.45602      199.66471      134.74039    
      5900  -39290.549      213.34952     -39077.199      199.43582      199.64871      134.80586    
      6000  -39290.206      212.03755     -39078.168      199.41804      199.63156      134.87133    
      6100  -39291.388      211.86199     -39079.526      199.39376      199.60864      134.9368     
      6200  -39288.183      209.75681     -39078.426      199.36752      199.58637      135.00228    
      6300  -39284.672      212.40261     -39072.269      199.34434      199.57304      135.06775    
      6400  -39277.991      213.57625     -39064.415      199.31785      199.5601       135.13322    
      6500  -39277.519      217.7621      -39059.757      199.29015      199.54843      135.19869    
      6600  -39274.075      214.67689     -39059.398      199.26558      199.54002      135.26416    
      6700  -39270.314      210.40833     -39059.905      199.24453      199.53682      135.32963    
      6800  -39268.518      209.30091     -39059.217      199.22431      199.53016      135.3951     
      6900  -39264.489      207.82086     -39056.668      199.20217      199.51826      135.46058    
      7000  -39262.508      211.10076     -39051.407      199.17287      199.50123      135.52605    
      7100  -39262.444      216.36093     -39046.083      199.14308      199.48819      135.59152    
      7200  -39255.652      212.36075     -39043.292      199.10888      199.48026      135.65699    
      7300  -39253.972      211.59442     -39042.377      199.07645      199.47659      135.72246    
      7400  -39253.374      211.38667     -39041.987      199.04825      199.48026      135.78793    
      7500  -39247.772      208.3825      -39039.39       199.0135       199.48002      135.85341    
      7600  -39242.21       211.09906     -39031.111      198.97331      199.47637      135.91888    
      7700  -39240.231      215.53696     -39024.694      198.93321      199.47262      135.98435    
      7800  -39233.324      209.88562     -39023.438      198.89378      199.46801      136.04982    
      7900  -39232.987      208.85753     -39024.13       198.85517      199.46003      136.11529    
      8000  -39231.051      210.47681     -39020.574      198.82332      199.45793      136.18076    
      8100  -39228.408      213.25321     -39015.155      198.79152      199.45905      136.24623    
      8200  -39219.196      209.44128     -39009.755      198.75864      199.45744      136.31171    
      8300  -39215.406      212.23726     -39003.169      198.72449      199.45325      136.37718    
      8400  -39216.339      219.25273     -38997.087      198.68916      199.43955      136.44265    
      8500  -39212.116      211.72868     -39000.387      198.65427      199.42179      136.50812    
      8600  -39210.562      211.27651     -38999.286      198.61858      199.40231      136.57359    
      8700  -39206.68       213.90311     -38992.777      198.58525      199.38477      136.63906    
      8800  -39197.933      212.83422     -38985.098      198.55787      199.36988      136.70453    
      8900  -39192.173      211.35174     -38980.821      198.53308      199.3541       136.77001    
      9000  -39191.234      212.93737     -38978.296      198.50616      199.33019      136.83548    
      9100  -39186.942      207.76681     -38979.175      198.47677      199.29868      136.90095    
      9200  -39184.104      207.36667     -38976.738      198.44586      199.2678       136.96642    
      9300  -39178.195      210.0058      -38968.189      198.41645      199.2402       137.03189    
      9400  -39173.893      213.12931     -38960.764      198.38302      199.21549      137.09736    
      9500  -39173.216      215.4446      -38957.771      198.35114      199.19421      137.16284    
      9600  -39167.817      210.66523     -38957.151      198.31733      199.17701      137.22831    
      9700  -39168.754      213.96414     -38954.79       198.27475      199.15631      137.29378    
      9800  -39162.26       211.78611     -38950.474      198.22724      199.13492      137.35925    
      9900  -39154.949      213.88322     -38941.065      198.17933      199.11518      137.42472    
     10000  -39151.39       217.30671     -38934.083      198.13381      199.09517      137.49019    
     10100  -39147.127      213.42886     -38933.698      198.08449      199.07651      137.55566    
     10200  -39145.563      211.19843     -38934.364      198.03782      199.05745      137.62114    
     10300  -39144.628      212.93075     -38931.697      197.99003      199.03223      137.68661    
     10400  -39135.553      207.8382      -38927.715      197.9363       199.00512      137.75208    
     10500  -39134.577      214.1086      -38920.469      197.88717      198.97916      137.81755    
     10600  -39129.656      217.50262     -38912.154      197.83794      198.96178      137.88302    
     10700  -39126.879      217.08257     -38909.796      197.78333      198.93734      137.94849    
     10800  -39124.642      213.22069     -38911.421      197.73499      198.91589      138.01397    
     10900  -39118.649      211.28392     -38907.365      197.69092      198.89779      138.07944    
     11000  -39113.894      211.70742     -38902.187      197.63976      198.87151      138.14491    
     11100  -39108.503      213.50097     -38895.002      197.58433      198.84964      138.21038    
     11200  -39098.962      213.28099     -38885.681      197.53102      198.83461      138.27585    
     11300  -39100.558      216.70355     -38883.854      197.47402      198.81894      138.34132    
     11400  -39095.092      212.1275      -38882.965      197.4185       198.79871      138.40679    
     11500  -39088.978      209.9154      -38879.062      197.36732      198.77923      138.47227    
     11600  -39086.724      213.71821     -38873.005      197.30536      198.74934      138.53774    
     11700  -39080.267      215.82009     -38864.447      197.24827      198.718        138.60321    
     11800  -39074.032      215.69032     -38858.342      197.19152      198.692        138.66868    
     11900  -39069.538      211.64714     -38857.89       197.1304       198.65647      138.73415    
     12000  -39065.164      207.83881     -38857.325      197.07999      198.62883      138.79962    
     12100  -39063.575      212.97881     -38850.597      197.03426      198.60601      138.8651     
     12200  -39055.433      214.02124     -38841.412      196.98427      198.57095      138.93057    
     12300  -39051.317      216.45715     -38834.86       196.93306      198.53238      138.99604    
     12400  -39044.083      213.04267     -38831.04       196.88165      198.4932       139.06151    
     12500  -39038.495      211.66438     -38826.83       196.82871      198.44869      139.12698    
     12600  -39033.447      211.36503     -38822.082      196.78175      198.40575      139.19245    
     12700  -39026.493      209.64715     -38816.846      196.73784      198.36208      139.25792    
     12800  -39025.921      213.69946     -38812.222      196.68932      198.31528      139.3234     
     12900  -39020.388      210.09635     -38810.292      196.64222      198.27016      139.38887    
     13000  -39016.835      209.91452     -38806.921      196.59305      198.23418      139.45434    
     13100  -39008.995      211.07513     -38797.92       196.53362      198.19685      139.51981    
     13200  -39004.408      214.26079     -38790.147      196.47183      198.1579       139.58528    
     13300  -38997.519      211.09974     -38786.419      196.40477      198.12192      139.65075    
     13400  -38997.979      211.10549     -38786.873      196.33984      198.08249      139.71622    
     13500  -38993.343      209.36629     -38783.977      196.27483      198.04737      139.7817     
     13600  -38983.493      207.89558     -38775.598      196.20546      198.00981      139.84717    
     13700  -38978.33       211.1967      -38767.133      196.13645      197.97532      139.91264    
     13800  -38970.894      212.05216     -38758.842      196.06991      197.94333      139.97811    
     13900  -38963.394      211.39035     -38752.004      196.00274      197.91124      140.04358    
     14000  -38962.625      214.33377     -38748.291      195.93857      197.88182      140.10905    
     14100  -38962.193      212.85508     -38749.338      195.88007      197.84988      140.17453    
     14200  -38953.775      210.63145     -38743.143      195.81292      197.8138       140.24       
     14300  -38947.77       214.44704     -38733.322      195.74781      197.77947      140.30547    
     14400  -38935.549      209.6983      -38725.851      195.6812       197.7439       140.37094    
     14500  -38932.93       212.46006     -38720.47       195.6094       197.70646      140.43641    
     14600  -38926.729      209.78962     -38716.939      195.54442      197.6786       140.50188    
     14700  -38928.336      211.03111     -38717.305      195.48411      197.65461      140.56735    
     14800  -38921.709      208.0061      -38713.703      195.41864      197.62673      140.63283    
     14900  -38912.279      208.19741     -38704.082      195.354        197.60042      140.6983     
     15000  -38904.151      210.01318     -38694.138      195.29004      197.56938      140.76377    
     15100  -38898.471      213.66106     -38684.81       195.22108      197.5342       140.82924    
     15200  -38890.559      213.35184     -38677.207      195.15765      197.50236      140.89471    
     15300  -38888.83       215.20458     -38673.626      195.09814      197.47162      140.96018    
     15400  -38883.232      209.64774     -38673.584      195.0341       197.43632      141.02566    
     15500  -38880.618      212.92632     -38667.692      194.96945      197.39736      141.09113    
     15600  -38870.027      211.01758     -38659.01       194.91056      197.35673      141.1566     
     15700  -38864.678      214.09498     -38650.583      194.84815      197.31069      141.22207    
     15800  -38857.69       212.34454     -38645.346      194.7898       197.26486      141.28754    
     15900  -38854.661      211.29828     -38643.363      194.73401      197.22284      141.35301    
     16000  -38848.777      207.18108     -38641.596      194.67426      197.17759      141.41848    
     16100  -38847.785      204.9526      -38642.833      194.61741      197.13209      141.48396    
     16200  -38841.189      207.33183     -38633.857      194.56603      197.08897      141.54943    
     16300  -38829.863      208.01721     -38621.846      194.51745      197.04554      141.6149     
     16400  -38821.306      211.2994      -38610.007      194.47121      197.00337      141.68037    
     16500  -38814.228      214.19453     -38600.033      194.42688      196.96181      141.74584    
     16600  -38807.519      214.56696     -38592.952      194.3837       196.91979      141.81131    
     16700  -38803.717      214.06695     -38589.65       194.34885      196.88208      141.87678    
     16800  -38795.623      208.08654     -38587.537      194.31241      196.84586      141.94226    
     16900  -38787.79       207.03442     -38580.755      194.27352      196.81209      142.00773    
     17000  -38781.544      210.77004     -38570.774      194.24114      196.7863       142.0732     
     17100  -38776.017      213.78072     -38562.236      194.20191      196.75642      142.13867    
     17200  -38768.246      212.17576     -38556.071      194.15461      196.71888      142.20414    
     17300  -38763.87       211.83585     -38552.034      194.11179      196.68705      142.26961    
     17400  -38758.124      209.79549     -38548.329      194.05959      196.65391      142.33509    
     17500  -38752.385      208.61868     -38543.766      194.00073      196.62025      142.40056    
     17600  -38748.229      212.01211     -38536.217      193.94998      196.59778      142.46603    
     17700  -38738.705      214.61791     -38524.087      193.89632      196.57461      142.5315     
     17800  -38728.383      212.22702     -38516.156      193.83829      196.54658      142.59697    
     17900  -38725.304      213.91317     -38511.391      193.78839      196.52328      142.66244    
     18000  -38719.634      210.01195     -38509.622      193.73783      196.50303      142.72791    
     18100  -38717.644      212.65203     -38504.991      193.6806       196.4712       142.79339    
     18200  -38705.831      212.71341     -38493.117      193.62697      196.44692      142.85886    
     18300  -38694.824      213.39736     -38481.427      193.58186      196.43196      142.92433    
     18400  -38690.672      213.52341     -38477.149      193.53634      196.41736      142.9898     
     18500  -38683.081      209.0997      -38473.981      193.49344      196.40279      143.05527    
     18600  -38677.403      210.15246     -38467.251      193.45697      196.38422      143.12074    
     18700  -38669.082      212.47607     -38456.606      193.4144       196.35765      143.18622    
     18800  -38660.794      215.81045     -38444.984      193.37044      196.32697      143.25169    
     18900  -38655.424      215.11076     -38440.313      193.33555      196.3088       143.31716    
     19000  -38648.107      211.07026     -38437.036      193.30027      196.28968      143.38263    
     19100  -38644.407      212.61726     -38431.79       193.26447      196.26464      143.4481     
     19200  -38634.13       209.82028     -38424.31       193.23513      196.24633      143.51357    
     19300  -38628.027      214.84061     -38413.186      193.21233      196.22934      143.57904    
     19400  -38619.91       217.78537     -38402.125      193.18672      196.20573      143.64452    
     19500  -38615.373      216.22642     -38399.147      193.16251      196.17664      143.70999    
     19600  -38608.463      211.88045     -38396.582      193.14266      196.15246      143.77546    
     19700  -38600.837      211.52251     -38389.315      193.11919      196.12334      143.84093    
     19800  -38594.076      213.40982     -38380.667      193.09115      196.09326      143.9064     
     19900  -38587.186      214.17817     -38373.008      193.06903      196.07057      143.97187    
     20000  -38576.388      209.61888     -38366.769      193.04677      196.04724      144.03735    
     20100  -38573.159      211.56791     -38361.591      193.01452      196.01553      144.10282    
     20200  -38565.277      210.97711     -38354.3        192.98278      195.98565      144.16829    
     20300  -38557.177      213.19539     -38343.982      192.95865      195.96293      144.23376    
     20400  -38548.413      215.40865     -38333.005      192.93271      195.94478      144.29923    
     20500  -38538.02       212.55685     -38325.463      192.90651      195.92823      144.3647     
     20600  -38533.837      209.2644      -38324.572      192.88349      195.91536      144.43017    
     20700  -38534.005      214.36082     -38319.644      192.85837      195.90253      144.49565    
     20800  -38524.019      212.57935     -38311.44       192.82844      195.88491      144.56112    
     20900  -38513.29       213.15076     -38300.139      192.79854      195.86735      144.62659    
     21000  -38503.597      215.4444      -38288.153      192.77583      195.85757      144.69206    
     21100  -38496.831      215.63825     -38281.193      192.75311      195.84699      144.75753    
     21200  -38491.27       214.83572     -38276.434      192.73063      195.83355      144.823      
     21300  -38483.551      211.61137     -38271.94       192.71478      195.83091      144.88847    
     21400  -38475.406      211.13979     -38264.266      192.6872       195.82107      144.95395    
     21500  -38470.292      216.46581     -38253.826      192.65501      195.80665      145.01942    
     21600  -38459.314      215.0349      -38244.279      192.63218      195.80197      145.08489    
     21700  -38444.995      213.16712     -38231.828      192.60604      195.79073      145.15036    
     21800  -38439.008      215.43644     -38223.571      192.57988      195.77744      145.21583    
     21900  -38433.278      212.03297     -38221.245      192.56259      195.76923      145.2813     
     22000  -38427.578      210.53847     -38217.04       192.54475      195.75661      145.34678    
     22100  -38420.225      209.86829     -38210.356      192.52339      195.73519      145.41225    
     22200  -38410.847      209.60976     -38201.238      192.50182      195.71225      145.47772    
     22300  -38399.221      211.28007     -38187.941      192.48518      195.69171      145.54319    
     22400  -38390.057      211.88612     -38178.171      192.46958      195.67501      145.60866    
     22500  -38387.836      213.96658     -38173.869      192.45169      195.65924      145.67413    
     22600  -38382.931      214.32755     -38168.603      192.43113      195.6446       145.7396     
     22700  -38371.197      209.94311     -38161.253      192.41298      195.62952      145.80508    
     22800  -38361.331      208.74076     -38152.59       192.39807      195.61223      145.87055    
     22900  -38354.462      212.52338     -38141.939      192.38161      195.59521      145.93602    
     23000  -38344.749      214.34201     -38130.407      192.37255      195.58215      146.00149    
     23100  -38336.937      213.91994     -38123.017      192.36104      195.57021      146.06696    
     23200  -38333.038      211.41047     -38121.627      192.34105      195.55084      146.13243    
     23300  -38328.881      213.42276     -38115.458      192.32626      195.537        146.19791    
     23400  -38316.657      210.21203     -38106.445      192.31402      195.53185      146.26338    
     23500  -38309.737      215.89201     -38093.845      192.29249      195.51681      146.32885    
     23600  -38298.542      214.65772     -38083.884      192.27208      195.50219      146.39432    
     23700  -38289.978      210.42472     -38079.553      192.25626      195.49467      146.45979    
     23800  -38285.897      208.38826     -38077.509      192.23446      195.48341      146.52526    
     23900  -38278.973      210.9336      -38068.039      192.21206      195.47601      146.59073    
     24000  -38267.515      211.11073     -38056.405      192.19426      195.47625      146.65621    
     24100  -38258.506      213.10719     -38045.399      192.17218      195.46981      146.72168    
     24200  -38249.722      212.66088     -38037.061      192.14701      195.45772      146.78715    
     24300  -38243.434      210.1155      -38033.319      192.13038      195.44921      146.85262    
     24400  -38236.875      208.31573     -38028.559      192.11504      195.43777      146.91809    
     24500  -38230.799      211.93252     -38018.866      192.09591      195.42279      146.98356    
     24600  -38219.222      214.41714     -38004.805      192.07821      195.4115       147.04904    
     24700  -38208.378      213.03453     -37995.343      192.06204      195.39847      147.11451    
     24800  -38203.761      214.53724     -37989.224      192.04411      195.38071      147.17998    
     24900  -38195.893      212.04402     -37983.849      192.02599      195.36419      147.24545    
     25000  -38186.214      208.94952     -37977.265      192.01176      195.34701      147.31092    
     25100  -38176.172      209.75913     -37966.413      191.99488      195.32995      147.37639    
     25200  -38169.444      217.18041     -37952.264      191.97922      195.31409      147.44186    
     25300  -38159.553      215.0314      -37944.521      191.97055      195.30324      147.50734    
     25400  -38152.498      211.58828     -37940.909      191.95931      195.29346      147.57281    
     25500  -38146.25       212.31495     -37933.935      191.94707      195.27436      147.63828    
     25600  -38132.819      208.67022     -37924.149      191.93499      195.25515      147.70375    
     25700  -38123.515      211.07885     -37912.436      191.9241       195.23469      147.76922    
     25800  -38116.515      216.12627     -37900.389      191.91263      195.21486      147.83469    
     25900  -38105.435      218.02763     -37887.407      191.89347      195.19647      147.90016    
     26000  -38094.985      212.11903     -37882.866      191.87881      195.18207      147.96564    
     26100  -38093.158      213.76535     -37879.393      191.86365      195.17614      148.03111    
     26200  -38083.729      210.80416     -37872.925      191.84266      195.16396      148.09658    
     26300  -38077.451      211.82916     -37865.622      191.82248      195.15721      148.16205    
     26400  -38068.43       212.46322     -37855.967      191.80926      195.16018      148.22752    
     26500  -38052.054      209.88523     -37842.169      191.78761      195.15334      148.29299    
     26600  -38047.773      214.66081     -37833.112      191.76107      195.14336      148.35847    
     26700  -38042.02       213.51245     -37828.507      191.74122      195.14291      148.42394    
     26800  -38033.419      211.92703     -37821.492      191.71194      195.13636      148.48941    
     26900  -38023.559      210.81959     -37812.739      191.68134      195.12542      148.55488    
     27000  -38013.755      211.90605     -37801.849      191.65998      195.1214       148.62035    
     27100  -38003.3        214.38099     -37788.919      191.63813      195.10727      148.68582    
     27200  -37990.853      212.30473     -37778.548      191.61219      195.08603      148.75129    
     27300  -37987.739      213.18593     -37774.554      191.59145      195.07048      148.81677    
     27400  -37981.87       210.74076     -37771.129      191.57127      195.0534       148.88224    
     27500  -37974.238      213.00771     -37761.23       191.54686      195.03549      148.94771    
     27600  -37962.832      214.98265     -37747.849      191.53135      195.02637      149.01318    
     27700  -37950.105      213.93652     -37736.168      191.51857      195.01333      149.07865    
     27800  -37943.551      214.95167     -37728.599      191.50445      194.99555      149.14412    
     27900  -37937.03       212.36012     -37724.67       191.49481      194.98075      149.2096     
     28000  -37925.571      208.68398     -37716.887      191.48227      194.96427      149.27507    
     28100  -37913.901      207.91415     -37705.987      191.46747      194.94657      149.34054    
     28200  -37906.795      212.08836     -37694.706      191.45887      194.93629      149.40601    
     28300  -37898.964      215.44789     -37683.516      191.44565      194.91677      149.47148    
     28400  -37888.511      215.75844     -37672.752      191.43103      194.89237      149.53695    
     28500  -37879.335      214.87029     -37664.465      191.4209       194.87641      149.60242    
     28600  -37871.88       211.94602     -37659.934      191.41005      194.85696      149.6679     
     28700  -37866.087      211.73618     -37654.351      191.3976       194.83803      149.73337    
     28800  -37858.826      214.05734     -37644.768      191.3857       194.82253      149.79884    
     28900  -37842.307      211.25897     -37631.048      191.36486      194.79731      149.86431    
     29000  -37832.77       215.0767      -37617.694      191.34405      194.7762       149.92978    
     29100  -37824.639      214.67734     -37609.962      191.32884      194.76335      149.99525    
     29200  -37815.047      211.9235      -37603.123      191.30708      194.74404      150.06073    
     29300  -37807.768      210.83672     -37596.931      191.28067      194.72503      150.1262     
     29400  -37802.377      212.52726     -37589.849      191.25375      194.70479      150.19167    
     29500  -37789.557      207.89077     -37581.666      191.22607      194.68174      150.25714    
     29600  -37778.3        209.54816     -37568.752      191.19663      194.66333      150.32261    
     29700  -37771.398      215.35121     -37556.046      191.16954      194.65         150.38808    
     29800  -37758.396      211.8216      -37546.574      191.14544      194.64518      150.45355    
     29900  -37752.203      211.21405     -37540.989      191.12235      194.64158      150.51903    
     30000  -37745.195      208.57052     -37536.625      191.10091      194.63297      150.5845     
     30100  -37737.196      211.91452     -37525.282      191.08026      194.62232      150.64997    
     30200  -37718.217      206.10412     -37512.113      191.0619       194.60419      150.71544    
     30300  -37716.284      215.47209     -37500.812      191.03933      194.58012      150.78091    
     30400  -37703.493      213.89047     -37489.602      191.02628      194.565        150.84638    
     30500  -37690.578      212.84844     -37477.729      191.01578      194.55284      150.91185    
     30600  -37681.58       216.04944     -37465.53       190.99434      194.53228      150.97733    
     30700  -37672.768      215.30178     -37457.467      190.97655      194.51153      151.0428     
     30800  -37667.255      212.7133      -37454.541      190.95996      194.49151      151.10827    
     30900  -37654.167      207.61265     -37446.554      190.93647      194.46762      151.17374    
     31000  -37646.404      212.85758     -37433.547      190.91501      194.44509      151.23921    
     31100  -37635.088      214.22998     -37420.858      190.89334      194.42684      151.30468    
     31200  -37627.269      214.6183      -37412.651      190.86908      194.40693      151.37016    
     31300  -37617.068      211.04988     -37406.018      190.84333      194.38594      151.43563    
     31400  -37607.535      210.09644     -37397.439      190.81364      194.36621      151.5011     
     31500  -37597.662      209.71545     -37387.947      190.7861       194.34695      151.56657    
     31600  -37588.353      210.9844      -37377.369      190.75947      194.33033      151.63204    
     31700  -37579.39       213.41875     -37365.972      190.73063      194.30981      151.69751    
     31800  -37566.203      214.69307     -37351.51       190.70522      194.29229      151.76298    
     31900  -37556.275      215.01022     -37341.265      190.67866      194.27776      151.82846    
     32000  -37547.179      209.82042     -37337.359      190.6485       194.25872      151.89393    
     32100  -37539.855      209.89019     -37329.965      190.62247      194.24547      151.9594     
     32200  -37531.977      210.98623     -37320.991      190.60054      194.23389      152.02487    
     32300  -37521.943      212.69109     -37309.252      190.57319      194.21322      152.09034    
     32400  -37509.414      215.46219     -37293.952      190.54749      194.19121      152.15581    
     32500  -37498.15       213.51324     -37284.636      190.53175      194.17377      152.22129    
     32600  -37491.96       214.45335     -37277.507      190.5101       194.14774      152.28676    
     32700  -37480.791      211.75945     -37269.031      190.48965      194.11738      152.35223    
     32800  -37473.398      213.6206      -37259.777      190.4724       194.09262      152.4177     
     32900  -37461.123      210.74224     -37250.381      190.45412      194.06518      152.48317    
     33000  -37452.88       211.46041     -37241.419      190.43618      194.03318      152.54864    
     33100  -37444.615      208.05974     -37236.556      190.41863      194.00556      152.61411    
     33200  -37436.744      208.33609     -37228.408      190.40231      193.97668      152.67959    
     33300  -37422.935      209.77256     -37213.163      190.37955      193.94551      152.74506    
     33400  -37410.036      209.76712     -37200.269      190.35334      193.91494      152.81053    
     33500  -37402.149      213.32988     -37188.819      190.32883      193.88774      152.876      
     33600  -37392.705      212.10266     -37180.602      190.30503      193.866        152.94147    
     33700  -37386.007      210.30631     -37175.7        190.27865      193.8424       153.00694    
     33800  -37374.687      207.74895     -37166.938      190.25045      193.81633      153.07241    
     33900  -37363.552      213.50542     -37150.047      190.2267       193.79253      153.13789    
     34000  -37351.098      212.84801     -37138.25       190.20081      193.7674       153.20336    
     34100  -37340.098      209.85294     -37130.245      190.16551      193.73518      153.26883    
     34200  -37332.296      208.43513     -37123.861      190.13565      193.71114      153.3343     
     34300  -37324.197      208.64606     -37115.551      190.10875      193.69019      153.39977    
     34400  -37311.472      211.52956     -37099.943      190.07509      193.66519      153.46524    
     34500  -37299.269      212.30984     -37086.959      190.04791      193.64681      153.53072    
     34600  -37290.355      210.73537     -37079.619      190.02125      193.63031      153.59619    
     34700  -37285.044      211.65842     -37073.386      189.98675      193.60746      153.66166    
     34800  -37274.644      210.25834     -37064.385      189.95933      193.58521      153.72713    
     34900  -37268.28       216.51695     -37051.763      189.93298      193.5619       153.7926     
     35000  -37250.803      215.4963      -37035.307      189.90104      193.53169      153.85807    
     35100  -37241.301      215.1262      -37026.175      189.87294      193.50509      153.92354    
     35200  -37229.743      210.87456     -37018.868      189.84411      193.48007      153.98902    
     35300  -37223.929      212.29933     -37011.63       189.81289      193.45472      154.05449    
     35400  -37216.007      211.16526     -37004.842      189.78783      193.43147      154.11996    
     35500  -37206.96       212.33985     -36994.621      189.75999      193.39938      154.18543    
     35600  -37191.785      214.39461     -36977.39       189.73153      193.36313      154.2509     
     35700  -37180.793      214.70232     -36966.09       189.70665      193.33032      154.31637    
     35800  -37173.239      214.51238     -36958.727      189.68061      193.29826      154.38185    
     35900  -37160.948      208.08073     -36952.867      189.65376      193.26844      154.44732    
     36000  -37153.327      210.6718      -36942.655      189.62725      193.24512      154.51279    
     36100  -37139.806      211.32508     -36928.481      189.6005       193.21843      154.57826    
     36200  -37130.056      213.34272     -36916.713      189.57227      193.18394      154.64373    
     36300  -37120.668      213.25585     -36907.412      189.54532      193.14869      154.7092     
     36400  -37108.685      209.11251     -36899.572      189.51848      193.11827      154.77467    
     36500  -37100.853      209.60375     -36891.25       189.48692      193.09044      154.84015    
     36600  -37093.081      215.65557     -36877.426      189.45328      193.06364      154.90562    
     36700  -37080.69       217.58282     -36863.108      189.42124      193.04101      154.97109    
     36800  -37068.6        214.40043     -36854.199      189.38983      193.0155       155.03656    
     36900  -37060.226      212.17203     -36848.054      189.35694      192.98356      155.10203    
     37000  -37051.549      212.89255     -36838.657      189.32588      192.95158      155.1675     
     37100  -37037.858      209.90197     -36827.956      189.29171      192.91769      155.23298    
     37200  -37028.316      211.21455     -36817.102      189.25562      192.88753      155.29845    
     37300  -37019.097      214.66219     -36804.435      189.22378      192.86487      155.36392    
     37400  -37007.658      218.62612     -36789.032      189.19235      192.83659      155.42939    
     37500  -36995.799      215.85261     -36779.946      189.16074      192.80754      155.49486    
     37600  -36984.47       209.08206     -36775.388      189.135        192.7831       155.56033    
     37700  -36976.566      211.20299     -36765.363      189.10298      192.7497       155.6258     
     37800  -36968.031      215.04598     -36752.985      189.06602      192.71119      155.69128    
     37900  -36952.382      212.09381     -36740.288      189.03754      192.68         155.75675    
     38000  -36940.93       212.57272     -36728.357      189.00544      192.64846      155.82222    
     38100  -36933.25       212.33145     -36720.919      188.97429      192.61516      155.88769    
     38200  -36929.599      213.65577     -36715.943      188.94723      192.59115      155.95316    
     38300  -36914.246      208.26767     -36705.979      188.91294      192.56354      156.01863    
     38400  -36903.709      212.37848     -36691.331      188.87774      192.52782      156.0841     
     38500  -36892.109      213.58017     -36678.529      188.84722      192.49598      156.14958    
     38600  -36879.019      210.63037     -36668.389      188.82088      192.46209      156.21505    
     38700  -36869.463      210.6968      -36658.766      188.7953       192.42871      156.28052    
     38800  -36859.811      210.04266     -36649.769      188.76832      192.4019       156.34599    
     38900  -36851.515      206.26809     -36645.247      188.73277      192.37001      156.41146    
     39000  -36843.666      208.2971      -36635.369      188.69172      192.33652      156.47693    
     39100  -36830.127      210.81955     -36619.308      188.65432      192.30565      156.54241    
     39200  -36821.461      215.04843     -36606.413      188.62243      192.27189      156.60788    
     39300  -36807.543      212.58624     -36594.956      188.58994      192.23593      156.67335    
     39400  -36795.335      211.20902     -36584.126      188.55882      192.20208      156.73882    
     39500  -36785.157      212.93441     -36572.223      188.52813      192.17077      156.80429    
     39600  -36772.333      212.96563     -36559.367      188.49238      192.139        156.86976    
     39700  -36763.585      214.68203     -36548.903      188.45736      192.10271      156.93523    
     39800  -36753.266      209.86336     -36543.403      188.42716      192.06536      157.00071    
     39900  -36744.621      209.0625      -36535.558      188.40076      192.03063      157.06618    
     40000  -36733.292      209.97486     -36523.318      188.37126      191.98968      157.13165    
     40100  -36722.432      212.15086     -36510.281      188.33891      191.95235      157.19712    
     40200  -36709.951      211.70123     -36498.249      188.30701      191.92164      157.26259    
     40300  -36699.574      211.51615     -36488.058      188.27357      191.89087      157.32806    
     40400  -36690.985      211.57154     -36479.413      188.23732      191.86454      157.39354    
     40500  -36686.024      214.30687     -36471.717      188.20765      191.84183      157.45901    
     40600  -36672.261      208.34278     -36463.918      188.17562      191.81377      157.52448    
     40700  -36659.858      210.23156     -36449.627      188.14201      191.78328      157.58995    
     40800  -36647.593      213.53009     -36434.063      188.10979      191.74973      157.65542    
     40900  -36635.359      212.49017     -36422.869      188.06874      191.71369      157.72089    
     41000  -36628.367      212.74259     -36415.625      188.02885      191.68219      157.78636    
     41100  -36621.366      212.61807     -36408.748      187.99166      191.65142      157.85184    
     41200  -36611.599      213.48358     -36398.115      187.95037      191.61917      157.91731    
     41300  -36593.005      212.90306     -36380.102      187.91586      191.59082      157.98278    
     41400  -36582.875      215.09091     -36367.784      187.88         191.56272      158.04825    
     41500  -36574.178      214.0472      -36360.131      187.83808      191.52892      158.11372    
     41600  -36563.372      209.96185     -36353.41       187.80517      191.50227      158.17919    
     41700  -36551.747      207.72239     -36344.024      187.77121      191.47558      158.24467    
     41800  -36544.672      214.08666     -36330.586      187.72864      191.43647      158.31014    
     41900  -36528.788      214.5534      -36314.234      187.69527      191.40757      158.37561    
     42000  -36518.804      215.6813      -36303.122      187.66152      191.37821      158.44108    
     42100  -36506.942      211.92946     -36295.012      187.62053      191.33894      158.50655    
     42200  -36499.229      211.12411     -36288.105      187.59031      191.3152       158.57202    
     42300  -36489.042      210.39798     -36278.644      187.56183      191.29258      158.63749    
     42400  -36479.487      211.43386     -36268.053      187.52697      191.26027      158.70297    
     42500  -36464.102      210.78946     -36253.312      187.50104      191.23031      158.76844    
     42600  -36453.795      214.86671     -36238.929      187.47466      191.19958      158.83391    
     42700  -36443.254      212.35648     -36230.897      187.43973      191.15933      158.89938    
     42800  -36431.502      207.61044     -36223.892      187.40825      191.12309      158.96485    
     42900  -36423.564      210.29575     -36213.268      187.38075      191.09487      159.03032    
     43000  -36410.937      209.66412     -36201.273      187.35197      191.06097      159.09579    
     43100  -36401.744      211.60317     -36190.141      187.3247       191.02801      159.16127    
     43200  -36388.982      210.219       -36178.763      187.29958      190.99278      159.22674    
     43300  -36378.075      211.81724     -36166.258      187.27362      190.95189      159.29221    
     43400  -36364.669      213.6916      -36150.977      187.2482       190.91537      159.35768    
     43500  -36354.899      214.85479     -36140.044      187.21951      190.87878      159.42315    
     43600  -36345.392      210.56951     -36134.823      187.18694      190.83846      159.48862    
     43700  -36337.312      211.3402      -36125.972      187.15976      190.80506      159.5541     
     43800  -36327.451      213.0384      -36114.412      187.13441      190.77342      159.61957    
     43900  -36315.154      213.95207     -36101.202      187.10318      190.73566      159.68504    
     44000  -36301.227      215.30462     -36085.923      187.07166      190.70402      159.75051    
     44100  -36286.999      215.42686     -36071.572      187.04256      190.68099      159.81598    
     44200  -36279.769      213.82709     -36065.942      187.00526      190.65316      159.88145    
     44300  -36276.267      216.45448     -36059.813      186.9635       190.62324      159.94692    
     44400  -36260.424      209.81204     -36050.612      186.9292       190.59757      160.0124     
     44500  -36251.687      212.27757     -36039.41       186.89256      190.56938      160.07787    
     44600  -36236.176      210.80915     -36025.367      186.85601      190.54152      160.14334    
     44700  -36227.832      217.51349     -36010.318      186.82587      190.51828      160.20881    
     44800  -36214.703      215.21183     -35999.492      186.79467      190.49946      160.27428    
     44900  -36206.543      210.77524     -35995.768      186.75884      190.47725      160.33975    
     45000  -36196.768      210.80346     -35985.964      186.72075      190.45436      160.40523    
     45100  -36184.245      211.30634     -35972.939      186.68473      190.43226      160.4707     
     45200  -36172.085      214.23755     -35957.848      186.65354      190.40557      160.53617    
     45300  -36160.492      214.6024      -35945.89       186.61991      190.37349      160.60164    
     45400  -36151.923      212.35621     -35939.566      186.58853      190.34091      160.66711    
     45500  -36140.766      208.3723      -35932.393      186.56539      190.31494      160.73258    
     45600  -36130.28       210.63372     -35919.646      186.53679      190.28914      160.79805    
     45700  -36119.723      214.13624     -35905.586      186.50784      190.25828      160.86353    
     45800  -36105.142      212.9965      -35892.146      186.48262      190.23377      160.929      
     45900  -36092.503      210.81927     -35881.683      186.45761      190.21115      160.99447    
     46000  -36087.43       210.2342      -35877.195      186.43276      190.17844      161.05994    
     46100  -36077.45       210.55956     -35866.89       186.405        190.14501      161.12541    
     46200  -36063.41       212.10883     -35851.301      186.38149      190.11511      161.19088    
     46300  -36050.208      212.96026     -35837.248      186.35525      190.08477      161.25636    
     46400  -36038.989      212.48425     -35826.504      186.32278      190.05683      161.32183    
     46500  -36032.328      214.48937     -35817.839      186.2933       190.031        161.3873     
     46600  -36023.479      212.03224     -35811.447      186.2655       190.00763      161.45277    
     46700  -36012.873      208.79034     -35804.083      186.23892      189.98042      161.51824    
     46800  -35999.773      211.80631     -35787.966      186.21174      189.94931      161.58371    
     46900  -35982.117      209.53051     -35772.587      186.18609      189.92067      161.64918    
     47000  -35973.213      212.09434     -35761.119      186.16112      189.89319      161.71466    
     47100  -35964.324      213.91488     -35750.409      186.13388      189.86472      161.78013    
     47200  -35953.382      211.00253     -35742.379      186.10803      189.83884      161.8456     
     47300  -35942.681      208.59446     -35734.087      186.08555      189.81436      161.91107    
     47400  -35930.766      208.58696     -35722.179      186.06407      189.78655      161.97654    
     47500  -35918.559      214.37295     -35704.186      186.04114      189.75667      162.04201    
     47600  -35907.458      214.86845     -35692.59       186.02228      189.73272      162.10748    
     47700  -35897.302      212.50067     -35684.801      186.00221      189.70934      162.17296    
     47800  -35885.59       209.78668     -35675.803      185.9747       189.68307      162.23843    
     47900  -35874.004      209.07964     -35664.924      185.94916      189.65885      162.3039     
     48000  -35866.366      214.09981     -35652.266      185.92768      189.63753      162.36937    
     48100  -35851.146      212.82968     -35638.317      185.90096      189.6119       162.43484    
     48200  -35839.259      212.81036     -35626.449      185.87455      189.58832      162.50031    
     48300  -35828.582      209.93205     -35618.65       185.8505       189.57311      162.56579    
     48400  -35821.155      209.92903     -35611.226      185.82449      189.55549      162.63126    
     48500  -35810.228      211.23351     -35598.995      185.79736      189.53142      162.69673    
     48600  -35798.033      213.27234     -35584.761      185.77246      189.50592      162.7622     
     48700  -35782.201      211.18284     -35571.018      185.75122      189.48182      162.82767    
     48800  -35770.458      215.5329      -35554.925      185.72659      189.45684      162.89314    
     48900  -35761.351      216.72949     -35544.621      185.69597      189.43028      162.95861    
     49000  -35752.672      213.37278     -35539.299      185.6725       189.40664      163.02409    
     49100  -35745.468      214.41944     -35531.048      185.65329      189.38739      163.08956    
     49200  -35731.812      211.05925     -35520.753      185.62844      189.35869      163.15503    
     49300  -35716.572      208.75969     -35507.812      185.60393      189.32941      163.2205     
     49400  -35709.492      217.4694      -35492.022      185.58307      189.30991      163.28597    
     49500  -35695.377      215.4084      -35479.968      185.55859      189.28468      163.35144    
     49600  -35684.693      209.44542     -35475.247      185.53245      189.2598       163.41692    
     49700  -35674.552      208.96639     -35465.586      185.51007      189.24306      163.48239    
     49800  -35664.44       212.10505     -35452.335      185.48974      189.2236       163.54786    
     49900  -35654.862      216.8405      -35438.021      185.47011      189.20323      163.61333    
     50000  -35640.314      213.49278     -35426.822      185.4523       189.18043      163.6788     
     50100  -35631.356      209.82341     -35421.533      185.43396      189.15869      163.74427    
     50200  -35622.224      210.85322     -35411.371      185.4142       189.14354      163.80974    
     50300  -35606.686      210.03289     -35396.653      185.38927      189.12476      163.87522    
     50400  -35596.183      214.21012     -35381.973      185.36347      189.10542      163.94069    
     50500  -35582.669      212.44085     -35370.228      185.34728      189.08615      164.00616    
     50600  -35574.591      214.40476     -35360.186      185.33149      189.06025      164.07163    
     50700  -35563.45       212.90373     -35350.546      185.31252      189.03267      164.1371     
     50800  -35552.922      212.25001     -35340.672      185.29335      189.00521      164.20257    
     50900  -35540.986      211.03597     -35329.95       185.27027      188.9799       164.26805    
     51000  -35527.086      207.65907     -35319.427      185.24728      188.95727      164.33352    
     51100  -35518.514      212.24893     -35306.265      185.22688      188.93849      164.39899    
     51200  -35505.917      214.23349     -35291.684      185.20887      188.91998      164.46446    
     51300  -35492.424      212.85336     -35279.571      185.19523      188.8991       164.52993    
     51400  -35483.138      210.43194     -35272.706      185.17644      188.87603      164.5954     
     51500  -35472.491      208.25847     -35264.233      185.15293      188.85253      164.66087    
     51600  -35459.915      208.75939     -35251.156      185.13097      188.83244      164.72635    
     51700  -35449.13       212.01108     -35237.119      185.10801      188.81546      164.79182    
     51800  -35437.853      213.25827     -35224.595      185.08858      188.79835      164.85729    
     51900  -35429.848      211.86834     -35217.98       185.07156      188.78389      164.92276    
     52000  -35417.266      208.24706     -35209.019      185.05221      188.76747      164.98823    
     52100  -35405.387      210.94338     -35194.444      185.0281       188.7464       165.0537     
     52200  -35393.008      213.82596     -35179.182      185.00245      188.72649      165.11917    
     52300  -35382.8        214.83699     -35167.963      184.97815      188.70842      165.18465    
     52400  -35368.993      208.18853     -35160.804      184.95716      188.69286      165.25012    
     52500  -35363.251      209.52387     -35153.727      184.93737      188.68112      165.31559    
     52600  -35350.571      210.58262     -35139.988      184.91718      188.66898      165.38106    
     52700  -35336.736      211.74912     -35124.987      184.89422      188.64951      165.44653    
     52800  -35328.019      216.21631     -35111.803      184.87023      188.62571      165.512      
     52900  -35317.704      216.16393     -35101.54       184.84851      188.60425      165.57748    
     53000  -35301.768      210.01826     -35091.75       184.83081      188.5846       165.64295    
     53100  -35291.501      211.48999     -35080.011      184.81174      188.56664      165.70842    
     53200  -35282.587      214.67706     -35067.91       184.79521      188.55158      165.77389    
     53300  -35270.684      213.88217     -35056.802      184.78085      188.53654      165.83936    
     53400  -35260.143      210.28388     -35049.859      184.76275      188.5135       165.90483    
     53500  -35248.821      208.35027     -35040.471      184.74536      188.48664      165.9703     
     53600  -35237.994      213.10021     -35024.894      184.72813      188.46328      166.03578    
     53700  -35221.113      211.11683     -35009.997      184.70953      188.44061      166.10125    
     53800  -35213.865      215.48556     -34998.38       184.68856      188.41802      166.16672    
     53900  -35201.568      212.79603     -34988.772      184.67029      188.39945      166.23219    
     54000  -35192.528      211.3958      -34981.132      184.65321      188.37896      166.29766    
     54100  -35180.968      209.76361     -34971.205      184.63574      188.35977      166.36313    
     54200  -35165.869      211.03489     -34954.834      184.62242      188.34313      166.42861    
     54300  -35153.842      215.7325      -34938.109      184.60532      188.3209       166.49408    
     54400  -35143.854      215.54784     -34928.306      184.5877       188.29958      166.55955    
     54500  -35134.223      213.15383     -34921.069      184.57549      188.2818       166.62502    
     54600  -35118.836      208.51673     -34910.32       184.55995      188.26204      166.69049    
     54700  -35109.801      212.8808      -34896.921      184.54414      188.24343      166.75596    
     54800  -35098.977      217.42267     -34881.554      184.53121      188.2283       166.82143    
     54900  -35082.871      216.88378     -34865.987      184.51209      188.20712      166.88691    
     55000  -35075.598      216.87098     -34858.727      184.49295      188.18161      166.95238    
     55100  -35064.675      213.38446     -34851.29       184.47506      188.16047      167.01785    
     55200  -35049.953      208.40655     -34841.546      184.45348      188.13767      167.08332    
     55300  -35043.532      212.63643     -34830.896      184.43185      188.11735      167.14879    
     55400  -35029.318      210.1913      -34819.127      184.41395      188.10558      167.21426    
     55500  -35017.958      212.6498      -34805.308      184.39461      188.08941      167.27973    
     55600  -35003.76       213.19159     -34790.568      184.37077      188.07102      167.34521    
     55700  -34991.721      213.89488     -34777.826      184.3525       188.0576       167.41068    
     55800  -34985.542      215.11085     -34770.431      184.33267      188.04219      167.47615    
     55900  -34972.007      210.35711     -34761.65       184.31169      188.027        167.54162    
     56000  -34960.74       211.11071     -34749.629      184.29595      188.01335      167.60709    
     56100  -34950.392      214.2977      -34736.094      184.27489      187.99649      167.67256    
     56200  -34936.473      214.42393     -34722.049      184.25337      187.97907      167.73804    
     56300  -34926.038      214.71332     -34711.325      184.2332       187.96235      167.80351    
     56400  -34915.237      211.61936     -34703.618      184.20651      187.93956      167.86898    
     56500  -34901.491      208.34495     -34693.146      184.18488      187.92097      167.93445    
     56600  -34893.392      214.2481      -34679.144      184.16441      187.91014      167.99992    
     56700  -34876.4        213.46657     -34662.934      184.14191      187.89342      168.06539    
     56800  -34864.473      216.12015     -34648.353      184.12467      187.87689      168.13086    
     56900  -34852.987      210.88842     -34642.099      184.11005      187.86117      168.19634    
     57000  -34845.271      212.44239     -34632.828      184.09333      187.83727      168.26181    
     57100  -34833.468      212.0611      -34621.406      184.07672      187.8158       168.32728    
     57200  -34821.714      212.18758     -34609.526      184.06288      187.79776      168.39275    
     57300  -34812.457      212.00646     -34600.451      184.04758      187.77524      168.45822    
     57400  -34801.005      209.2616      -34591.744      184.03312      187.75428      168.52369    
     57500  -34790.794      212.97621     -34577.818      184.02061      187.73397      168.58917    
     57600  -34773.804      214.98296     -34558.821      184.00412      187.70736      168.65464    
     57700  -34763.291      216.97517     -34546.316      183.98407      187.67661      168.72011    
     57800  -34753.75       216.48856     -34537.261      183.96741      187.64903      168.78558    
     57900  -34740.882      212.58695     -34528.295      183.9535       187.62745      168.85105    
     58000  -34725.94       208.2123      -34517.728      183.93649      187.60608      168.91652    
     58100  -34718.754      212.58788     -34506.166      183.92191      187.5887       168.98199    
     58200  -34708.301      213.1314      -34495.169      183.91073      187.57632      169.04747    
     58300  -34694.634      209.02585     -34485.609      183.89648      187.5566       169.11294    
     58400  -34683.614      211.05228     -34472.562      183.87837      187.52743      169.17841    
     58500  -34668.637      213.16182     -34455.475      183.86337      187.50397      169.24388    
     58600  -34655.498      215.26461     -34440.234      183.85061      187.4886       169.30935    
     58700  -34643.781      211.92046     -34431.861      183.8351       187.47015      169.37482    
     58800  -34636.477      213.28219     -34423.195      183.8184       187.45383      169.4403     
     58900  -34625.746      214.85164     -34410.894      183.80168      187.43927      169.50577    
     59000  -34613.939      214.86439     -34399.074      183.77527      187.41652      169.57124    
     59100  -34601.777      213.71532     -34388.062      183.74889      187.39591      169.63671    
     59200  -34591.16       213.24492     -34377.915      183.72735      187.37987      169.70218    
     59300  -34579.322      210.55866     -34368.764      183.70544      187.36239      169.76765    
     59400  -34565.382      208.69823     -34356.684      183.68343      187.34639      169.83312    
     59500  -34550.651      211.86285     -34338.788      183.66019      187.33205      169.8986     
     59600  -34538.368      215.92954     -34322.438      183.63535      187.31495      169.96407    
     59700  -34525.16       213.38392     -34311.776      183.6105       187.29542      170.02954    
     59800  -34513.622      211.25027     -34302.372      183.59141      187.27779      170.09501    
     59900  -34502.116      211.70721     -34290.408      183.57411      187.26245      170.16048    
     60000  -34486.956      208.14635     -34278.81       183.55702      187.24582      170.22595    
     60100  -34481.113      212.70907     -34268.404      183.53822      187.22576      170.29142    
     60200  -34470.329      210.46621     -34259.863      183.51596      187.20257      170.3569     
     60300  -34463.942      213.30926     -34250.632      183.49505      187.17818      170.42237    
     60400  -34442.233      207.27036     -34234.963      183.47445      187.15455      170.48784    
     60500  -34430.219      210.3655      -34219.854      183.4559       187.13016      170.55331    
     60600  -34420.862      215.45903     -34205.403      183.44395      187.11215      170.61878    
     60700  -34403.563      209.54213     -34194.021      183.42982      187.08973      170.68425    
     60800  -34395.948      210.70453     -34185.243      183.41257      187.06192      170.74973    
     60900  -34386.198      213.63937     -34172.559      183.39902      187.04716      170.8152     
     61000  -34373.565      215.22016     -34158.344      183.38353      187.03044      170.88067    
     61100  -34358.451      210.31531     -34148.136      183.36177      187.00713      170.94614    
     61200  -34349.485      210.26212     -34139.222      183.34946      186.99206      171.01161    
     61300  -34335.465      211.71453     -34123.751      183.33558      186.97309      171.07708    
     61400  -34317.08       211.14309     -34105.937      183.31023      186.94297      171.14255    
     61500  -34307.699      216.15162     -34091.548      183.29118      186.92126      171.20803    
     61600  -34299.056      215.05335     -34084.003      183.26954      186.89908      171.2735     
     61700  -34286.213      212.8607      -34073.352      183.24699      186.87569      171.33897    
     61800  -34269.525      210.3812      -34059.144      183.22639      186.85452      171.40444    
     61900  -34258.59       213.07733     -34045.513      183.20749      186.83427      171.46991    
     62000  -34247.07       212.38448     -34034.685      183.19001      186.81209      171.53538    
     62100  -34237.28       212.37897     -34024.901      183.16837      186.78782      171.60086    
     62200  -34221.497      209.87538     -34011.622      183.14494      186.76315      171.66633    
     62300  -34205.295      212.42254     -33992.872      183.12491      186.74335      171.7318     
     62400  -34192.001      217.2808      -33974.72       183.10239      186.72266      171.79727    
     62500  -34181.111      216.55192     -33964.559      183.07868      186.70607      171.86274    
     62600  -34167.448      212.10546     -33955.343      183.0614       186.69214      171.92821    
     62700  -34155.867      210.9861      -33944.881      183.03746      186.67096      171.99368    
     62800  -34144.433      211.2795      -33933.153      183.01465      186.64835      172.05916    
     62900  -34134.211      213.50614     -33920.705      182.99653      186.62654      172.12463    
     63000  -34116.006      206.92586     -33909.08       182.97706      186.60114      172.1901     
     63100  -34107.925      208.4463      -33899.479      182.96328      186.58291      172.25557    
     63200  -34094.723      208.37206     -33886.351      182.95102      186.56544      172.32104    
     63300  -34077.739      210.3929      -33867.346      182.92997      186.53691      172.38651    
     63400  -34061.567      213.66182     -33847.905      182.91147      186.51091      172.45199    
     63500  -34050.151      214.741       -33835.41       182.89421      186.48569      172.51746    
     63600  -34035.692      210.40126     -33825.291      182.87585      186.46116      172.58293    
     63700  -34025.59       212.49109     -33813.099      182.8579       186.43897      172.6484     
     63800  -34012.42       212.39432     -33800.026      182.83514      186.41514      172.71387    
     63900  -33999.226      212.47436     -33786.751      182.81209      186.39461      172.77934    
     64000  -33986.738      210.31589     -33776.422      182.789        186.37373      172.84481    
     64100  -33976.099      211.14569     -33764.953      182.76735      186.35037      172.91029    
     64200  -33960.544      211.34298     -33749.201      182.74869      186.32861      172.97576    
     64300  -33949.623      216.12935     -33733.493      182.72902      186.30766      173.04123    
     64400  -33932.987      213.55461     -33719.433      182.70483      186.28503      173.1067     
     64500  -33918.999      208.88704     -33710.112      182.67781      186.26166      173.17217    
     64600  -33908.845      212.19413     -33696.651      182.64995      186.23926      173.23764    
     64700  -33896.959      216.07515     -33680.884      182.62654      186.21722      173.30311    
     64800  -33881.346      217.23008     -33664.116      182.60502      186.1957       173.36859    
     64900  -33862.882      211.15414     -33651.728      182.58905      186.17293      173.43406    
     65000  -33850.535      209.41246     -33641.122      182.57101      186.15057      173.49953    
     65100  -33837.273      209.97895     -33627.294      182.54985      186.12829      173.565      
     65200  -33823.681      212.20112     -33611.479      182.52922      186.11046      173.63047    
     65300  -33807.186      213.47715     -33593.708      182.50941      186.09003      173.69594    
     65400  -33792.723      214.31513     -33578.408      182.48896      186.06811      173.76142    
     65500  -33780.772      213.179       -33567.593      182.47164      186.04758      173.82689    
     65600  -33765.943      211.08117     -33554.861      182.45166      186.02277      173.89236    
     65700  -33753.336      212.55364     -33540.782      182.4257       185.99756      173.95783    
     65800  -33739.964      213.60575     -33526.358      182.40188      185.9757       174.0233     
     65900  -33727.091      211.56746     -33515.524      182.37833      185.95496      174.08877    
     66000  -33712.342      210.58355     -33501.758      182.35667      185.93217      174.15424    
     66100  -33696.496      212.21242     -33484.284      182.33621      185.90775      174.21972    
     66200  -33678.708      211.63874     -33467.069      182.31683      185.88257      174.28519    
     66300  -33663.053      211.60673     -33451.446      182.29552      185.85797      174.35066    
     66400  -33653.034      212.28563     -33440.749      182.27349      185.83285      174.41613    
     66500  -33636.534      210.50509     -33426.029      182.25062      185.80767      174.4816     
     66600  -33620.489      211.35757     -33409.131      182.22819      185.7845       174.54707    
     66700  -33605.238      213.15814     -33392.08       182.2044       185.76072      174.61255    
     66800  -33594.079      212.40944     -33381.669      182.17955      185.73806      174.67802    
     66900  -33577.402      210.64915     -33366.753      182.1536       185.71461      174.74349    
     67000  -33562.627      211.82967     -33350.797      182.12438      185.68884      174.80896    
     67100  -33545.556      209.92679     -33335.629      182.09956      185.66681      174.87443    
     67200  -33532.622      208.63528     -33323.986      182.0761       185.64378      174.9399     
     67300  -33518.254      209.49162     -33308.762      182.05592      185.6218       175.00537    
     67400  -33505.269      214.94972     -33290.319      182.03815      185.60459      175.07085    
     67500  -33486.359      214.02878     -33272.33       182.01782      185.58359      175.13632    
     67600  -33475.081      217.94006     -33257.141      182.00182      185.56241      175.20179    
     67700  -33457.268      212.15306     -33245.115      181.9856       185.5363       175.26726    
     67800  -33436.545      208.96806     -33227.577      181.96461      185.50691      175.33273    
     67900  -33421.239      211.2202      -33210.019      181.94558      185.48304      175.3982     
     68000  -33408.018      212.804       -33195.214      181.92054      185.45388      175.46368    
     68100  -33393.434      212.61866     -33180.815      181.89713      185.42679      175.52915    
     68200  -33380.048      215.02482     -33165.023      181.87898      185.40547      175.59462    
     68300  -33361.268      212.33126     -33148.937      181.85805      185.37576      175.66009    
     68400  -33347.558      214.33905     -33133.219      181.84064      185.35242      175.72556    
     68500  -33334.283      217.93877     -33116.344      181.82179      185.32664      175.79103    
     68600  -33311.717      212.30199     -33099.415      181.80098      185.2989       175.8565     
     68700  -33298.11       214.032       -33084.078      181.77922      185.27659      175.92198    
     68800  -33283.229      216.21778     -33067.011      181.75456      185.25188      175.98745    
     68900  -33264.58       215.01301     -33049.567      181.73351      185.22931      176.05292    
     69000  -33244.321      210.22119     -33034.1        181.71161      185.20221      176.11839    
     69100  -33232.806      214.45913     -33018.346      181.68837      185.1766       176.18386    
     69200  -33216.249      215.58065     -33000.668      181.66656      185.15217      176.24933    
     69300  -33197.006      212.38003     -32984.626      181.64234      185.12714      176.3148     
     69400  -33184.249      215.51964     -32968.729      181.62227      185.10861      176.38028    
     69500  -33165.118      212.00847     -32953.109      181.60008      185.08695      176.44575    
     69600  -33151.433      215.1849      -32936.248      181.57507      185.06434      176.51122    
     69700  -33133.285      213.94152     -32919.344      181.55548      185.0483       176.57669    
     69800  -33116.599      214.39828     -32902.201      181.52855      185.02568      176.64216    
     69900  -33101.872      217.54163     -32884.331      181.50414      185.00641      176.70763    
     70000  -33084.259      216.96271     -32867.297      181.48374      184.99351      176.77311    
     70100  -33062.987      212.85655     -32850.13       181.45888      184.97447      176.83858    
     70200  -33045.353      212.126       -32833.227      181.43662      184.95649      176.90405    
     70300  -33032.581      215.82539     -32816.755      181.4147       184.93732      176.96952    
     70400  -33013.14       214.93857     -32798.201      181.39367      184.91235      177.03499    
     70500  -32997.025      216.48331     -32780.542      181.37249      184.88953      177.10046    
     70600  -32976.526      214.28358     -32762.243      181.34959      184.86224      177.16593    
     70700  -32960.647      216.82935     -32743.818      181.33141      184.83699      177.23141    
     70800  -32940.462      214.69028     -32725.772      181.31299      184.80967      177.29688    
     70900  -32927.048      217.61165     -32709.437      181.2925       184.78034      177.36235    
     71000  -32904.583      212.85314     -32691.73       181.27711      184.75844      177.42782    
     71100  -32889.075      214.84918     -32674.226      181.25824      184.73334      177.49329    
     71200  -32877.129      219.53017     -32657.599      181.24073      184.70989      177.55876    
     71300  -32858.026      217.69087     -32640.335      181.22238      184.69121      177.62424    
     71400  -32840.773      217.69112     -32623.082      181.19953      184.66848      177.68971    
     71500  -32820.18       217.26102     -32602.919      181.17777      184.64754      177.75518    
     71600  -32802.13       216.67095     -32585.459      181.15794      184.62856      177.82065    
     71700  -32780.706      214.09209     -32566.614      181.13522      184.60696      177.88612    
     71800  -32768.462      218.83364     -32549.628      181.11706      184.59125      177.95159    
     71900  -32742.237      210.06581     -32532.171      181.09699      184.57473      178.01706    
     72000  -32728.835      216.71018     -32512.125      181.07471      184.55612      178.08254    
     72100  -32708.684      216.84858     -32491.836      181.05722      184.53804      178.14801    
     72200  -32692.649      219.78704     -32472.862      181.04098      184.51908      178.21348    
     72300  -32669.585      216.00224     -32453.583      181.02438      184.49858      178.27895    
     72400  -32651.016      217.33837     -32433.678      181.0064       184.47868      178.34442    
     72500  -32633.753      220.74454     -32413.008      180.98646      184.45886      178.40989    
     72600  -32615.504      221.57808     -32393.926      180.96497      184.43709      178.47536    
     72700  -32597.456      220.57457     -32376.882      180.94338      184.41547      178.54084    
     72800  -32576.038      219.26987     -32356.768      180.92482      184.39656      178.60631    
     72900  -32559.988      224.23906     -32335.749      180.90613      184.37579      178.67178    
     73000  -32538.063      221.3144      -32316.749      180.88538      184.35452      178.73725    
     73100  -32519.059      219.45038     -32299.609      180.86982      184.33791      178.80272    
     73200  -32503.223      222.13781     -32281.085      180.85387      184.32133      178.86819    
     73300  -32482.666      219.97976     -32262.686      180.83686      184.30116      178.93367    
     73400  -32466.797      224.15295     -32242.644      180.82139      184.2834       178.99914    
     73500  -32444.027      221.57785     -32222.449      180.80504      184.26511      179.06461    
     73600  -32425.229      222.82364     -32202.405      180.78724      184.24425      179.13008    
     73700  -32404.171      222.74248     -32181.428      180.77112      184.22772      179.19555    
     73800  -32385.363      226.09754     -32159.266      180.75531      184.20892      179.26102    
     73900  -32361.398      222.68252     -32138.716      180.7373       184.19148      179.32649    
     74000  -32343.785      224.63897     -32119.146      180.72142      184.17634      179.39197    
     74100  -32328.072      226.06158     -32102.011      180.70477      184.16062      179.45744    
     74200  -32301.788      222.27668     -32079.511      180.68973      184.14702      179.52291    
     74300  -32283.974      226.78418     -32057.19       180.67428      184.13101      179.58838    
     74400  -32260.667      225.44098     -32035.226      180.65663      184.11368      179.65385    
     74500  -32241.561      225.34567     -32016.215      180.64182      184.09799      179.71932    
     74600  -32223.616      227.4442      -31996.172      180.62348      184.07938      179.7848     
     74700  -32202.007      226.24467     -31975.762      180.60457      184.05983      179.85027    
     74800  -32176.583      220.65745     -31955.926      180.58693      184.04042      179.91574    
     74900  -32155.853      221.89608     -31933.957      180.57167      184.02242      179.98121    
     75000  -32142.221      231.87005     -31910.351      180.55917      184.00579      180.04668    
     75100  -32121.982      231.66896     -31890.313      180.54322      183.98777      180.11215    
     75200  -32095.088      226.96423     -31868.124      180.52749      183.97279      180.17762    
     75300  -32074.949      225.00208     -31849.947      180.51313      183.95836      180.2431     
     75400  -32056.376      231.20498     -31825.171      180.49634      183.94338      180.30857    
     75500  -32030.925      231.85967     -31799.065      180.4827       183.93         180.37404    
     75600  -32004.624      228.97182     -31775.652      180.46575      183.91472      180.43951    
     75700  -31990.643      233.83309     -31756.809      180.44704      183.89831      180.50498    
     75800  -31964.244      228.88059     -31735.363      180.43312      183.88565      180.57045    
     75900  -31945.536      232.88921     -31712.647      180.41783      183.87049      180.63593    
     76000  -31919.715      234.01976     -31685.695      180.40505      183.857        180.7014     
     76100  -31901.064      238.00557     -31663.059      180.39214      183.84314      180.76687    
     76200  -31868.59       233.63234     -31634.958      180.37809      183.82696      180.83234    
     76300  -31853.483      244.38969     -31609.094      180.36499      183.81265      180.89781    
     76400  -31827.624      238.55404     -31589.07       180.35147      183.79722      180.96328    
     76500  -31806.441      238.70588     -31567.735      180.33655      183.7811       181.02875    
     76600  -31787.494      240.94977     -31546.544      180.32112      183.76426      181.09423    
     76700  -31761.991      239.78765     -31522.204      180.30673      183.7472       181.1597     
     76800  -31740.443      240.14419     -31500.299      180.29317      183.73169      181.22517    
     76900  -31718.036      241.4555      -31476.581      180.27826      183.71578      181.29064    
     77000  -31690.979      241.21313     -31449.766      180.26521      183.70239      181.35611    
     77100  -31666.45       244.49742     -31421.953      180.25271      183.68943      181.42158    
     77200  -31641.323      242.45554     -31398.868      180.23697      183.67392      181.48705    
     77300  -31631.97       260.10302     -31371.867      180.22301      183.65957      181.55253    
     77400  -31810.942      446.89313     -31364.048      180.20977      183.64643      181.618      
     77500  -32281.343      746.38688     -31534.956      180.20555      183.63396      181.68347    
     77600  -33203.433      1104.9055     -32098.528      180.22197      183.63661      181.74894    
     77700  -34292.391      1256.5671     -33035.824      180.25835      183.65603      181.81441    
     77800  -35568.583      1272.1974     -34296.386      180.30884      183.70693      181.87988    
     77900  -36671.658      1121.0047     -35550.653      180.37288      183.80297      181.94536    
     78000  -37534.714      924.7438      -36609.971      180.43174      183.90301      182.01083    
     78100  -38168.21       750.99113     -37417.219      180.48038      183.99436      182.0763     
     78200  -38641.537      608.73843     -38032.799      180.53655      184.09351      182.14177    
     78300  -38891.824      439.90077     -38451.923      180.59831      184.19784      182.20724    
     78400  -38982.076      292.14991     -38689.926      180.67294      184.31459      182.27271    
     78500  -38965.682      174.3037      -38791.378      180.75483      184.43775      182.33818    
     78600  -38901.872      113.62161     -38788.25       180.82712      184.54089      182.40366    
     78700  -38862.441      132.06421     -38730.377      180.8963       184.64373      182.46913    
     78800  -38853.515      197.47725     -38656.038      180.95242      184.72616      182.5346     
     78900  -38865.202      262.51752     -38602.684      180.9865       184.77908      182.60007    
     79000  -38876.236      230.55873     -38645.677      181.01512      184.82143      182.66554    
     79100  -38892.672      193.01782     -38699.654      181.03762      184.86602      182.73101    
     79200  -38886.27       177.67909     -38708.591      181.07722      184.93927      182.79649    
     79300  -38861.459      194.96496     -38666.494      181.11966      185.0062       182.86196    
     79400  -38835.19       226.14113     -38609.048      181.15602      185.07063      182.92743    
     79500  -38833.032      242.79447     -38590.237      181.21078      185.13433      182.9929     
     79600  -38861.697      225.07796     -38636.619      181.25939      185.19108      183.05837    
     79700  -38884.909      199.52624     -38685.383      181.31762      185.24646      183.12384    
     79800  -38886.815      189.42211     -38697.393      181.37827      185.30772      183.18931    
     79900  -38874.446      204.30361     -38670.143      181.43422      185.35904      183.25479    
     80000  -38850.702      219.39911     -38631.303      181.47287      185.40641      183.32026    
     80100  -38849.58       235.46148     -38614.119      181.50473      185.44941      183.38573    
     80200  -38859.367      219.05413     -38640.313      181.52796      185.48804      183.4512     
     80300  -38880.452      205.11787     -38675.334      181.55077      185.51764      183.51667    
     80400  -38883.994      192.51563     -38691.478      181.56811      185.53942      183.58214    
     80500  -38884.217      206.42931     -38677.788      181.58814      185.56363      183.64762    
     80600  -38864.131      213.2701      -38650.861      181.62607      185.59276      183.71309    
     80700  -38852.169      224.9483      -38627.221      181.65206      185.61103      183.77856    
     80800  -38859.705      229.81104     -38629.894      181.68551      185.62525      183.84403    
     80900  -38879.273      216.45531     -38662.818      181.72274      185.64931      183.9095     
     81000  -38882.726      192.93152     -38689.794      181.75616      185.66848      183.97497    
     81100  -38888.133      199.53259     -38688.6        181.79341      185.70147      184.04044    
     81200  -38875.461      210.82759     -38664.634      181.84114      185.74759      184.10592    
     81300  -38861.368      222.64536     -38638.722      181.87387      185.78646      184.17139    
     81400  -38863.814      227.31184     -38636.502      181.89323      185.81455      184.23686    
     81500  -38869.241      211.60534     -38657.636      181.90782      185.84066      184.30233    
     81600  -38877.427      201.18869     -38676.239      181.91365      185.8668       184.3678     
     81700  -38882.54       206.01851     -38676.521      181.91959      185.89738      184.43327    
     81800  -38878.2        214.74525     -38663.455      181.93102      185.93166      184.49874    
     81900  -38874.09       221.80748     -38652.283      181.93358      185.96449      184.56422    
     82000  -38862.788      209.49768     -38653.29       181.92514      185.99316      184.62969    
     82100  -38869.596      212.16665     -38657.43       181.91724      186.02589      184.69516    
     82200  -38875.062      211.90833     -38663.153      181.91864      186.0686       184.76063    
     82300  -38876.486      209.05614     -38667.43       181.92857      186.11699      184.8261     
     82400  -38877.351      208.98588     -38668.365      181.93047      186.15776      184.89157    
     82500  -38873.267      207.61925     -38665.648      181.93298      186.19971      184.95705    
     82600  -38875.418      218.10046     -38657.318      181.93538      186.2481       185.02252    
     82700  -38869.829      216.38385     -38653.445      181.92771      186.289        185.08799    
     82800  -38872.258      214.64286     -38657.616      181.90919      186.32003      185.15346    
     82900  -38875.896      212.20048     -38663.695      181.90351      186.35909      185.21893    
     83000  -38878.654      211.70506     -38666.949      181.89973      186.39819      185.2844     
     83100  -38875.691      210.1142      -38665.577      181.8816       186.41978      185.34987    
     83200  -38872.741      212.3568      -38660.384      181.87079      186.45102      185.41535    
     83300  -38875.619      217.86612     -38657.753      181.86964      186.48674      185.48082    
     83400  -38871.955      212.23199     -38659.723      181.86672      186.51435      185.54629    
     83500  -38877.75       212.12403     -38665.626      181.85806      186.54442      185.61176    
     83600  -38879.613      209.17097     -38670.442      181.84819      186.57241      185.67723    
     83700  -38875.859      205.05798     -38670.801      181.83696      186.59969      185.7427     
     83800  -38875.182      211.32574     -38663.856      181.82516      186.62977      185.80818    
     83900  -38867.88       213.42633     -38654.453      181.81189      186.65777      185.87365    
     84000  -38864.96       215.34247     -38649.617      181.80514      186.68775      185.93912    
     84100  -38868.95       216.49043     -38652.46       181.79845      186.71801      186.00459    
     84200  -38874.314      210.89286     -38663.422      181.79279      186.74603      186.07006    
     84300  -38875.044      202.99374     -38672.05       181.78779      186.76862      186.13553    
     84400  -38875.887      208.52782     -38667.36       181.78358      186.78972      186.201      
     84500  -38868.359      213.68387     -38654.675      181.78947      186.81294      186.26648    
     84600  -38863.712      218.94301     -38644.769      181.79833      186.82945      186.33195    
     84700  -38866.016      219.02986     -38646.986      181.80151      186.83374      186.39742    
     84800  -38870.031      209.04459     -38660.986      181.81081      186.8401       186.46289    
     84900  -38878.931      204.966       -38673.965      181.82917      186.84913      186.52836    
     85000  -38879.759      203.39491     -38676.364      181.84038      186.84313      186.59383    
     85100  -38876.095      211.34343     -38664.752      181.8594       186.84125      186.65931    
     85200  -38871.079      221.89289     -38649.186      181.88286      186.85185      186.72478    
     85300  -38866.824      220.71477     -38646.109      181.89213      186.84491      186.79025    
     85400  -38872.244      212.38339     -38659.86       181.89974      186.83631      186.85572    
     85500  -38882.715      207.54224     -38675.172      181.91348      186.84008      186.92119    
     85600  -38885.234      205.55628     -38679.678      181.92185      186.83834      186.98666    
     85700  -38876.801      205.59076     -38671.21       181.92963      186.83466      187.05213    
     85800  -38871.197      213.86415     -38657.333      181.94586      186.83977      187.11761    
     85900  -38871.574      222.47205     -38649.102      181.96084      186.84087      187.18308    
     86000  -38867.588      213.54169     -38654.046      181.97377      186.83981      187.24855    
     86100  -38876.261      208.86884     -38667.393      181.99047      186.84599      187.31402    
     86200  -38880.119      203.71617     -38676.403      182.00563      186.85498      187.37949    
     86300  -38878.642      205.29008     -38673.352      182.02458      186.86595      187.44496    
     86400  -38876.78       213.7277      -38663.052      182.03809      186.87478      187.51043    
     86500  -38873.52       218.32299     -38655.197      182.05076      186.87747      187.57591    
     86600  -38873.113      215.27153     -38657.841      182.064        186.88256      187.64138    
     86700  -38878.544      210.53959     -38668.005      182.06783      186.8849       187.70685    
     86800  -38879.23       204.53259     -38674.697      182.07025      186.88961      187.77232    
     86900  -38881.107      210.22344     -38670.883      182.07437      186.89978      187.83779    
     87000  -38876.568      215.33518     -38661.233      182.07914      186.9154       187.90326    
     87100  -38870.656      217.30449     -38653.352      182.07812      186.92914      187.96874    
     87200  -38875.15       219.64194     -38655.508      182.07975      186.94194      188.03421    
     87300  -38879.201      214.38452     -38664.817      182.07849      186.95107      188.09968    
     87400  -38880.926      207.30111     -38673.625      182.07473      186.95829      188.16515    
     87500  -38882.952      207.65104     -38675.301      182.07598      186.96719      188.23062    
     87600  -38875.295      207.69994     -38667.595      182.07503      186.9769       188.29609    
     87700  -38870.763      215.01998     -38655.743      182.07293      186.98711      188.36156    
     87800  -38866.926      216.9469      -38649.98       182.06991      187.00304      188.42704    
     87900  -38870.544      213.3431      -38657.201      182.06015      187.02065      188.49251    
     88000  -38878.261      207.69062     -38670.571      182.05114      187.03659      188.55798    
     88100  -38882.69       205.64711     -38677.043      182.04747      187.05813      188.62345    
     88200  -38880.813      210.8461      -38669.967      182.0431       187.07774      188.68892    
     88300  -38873.018      217.19588     -38655.822      182.03868      187.09755      188.75439    
     88400  -38869.037      220.75403     -38648.283      182.03728      187.11827      188.81987    
     88500  -38871.824      217.4023      -38654.422      182.02746      187.13172      188.88534    
     88600  -38873.166      205.50415     -38667.662      182.02439      187.14879      188.95081    
     88700  -38876.207      202.60131     -38673.606      182.01986      187.16416      189.01628    
     88800  -38877.365      208.84507     -38668.52       182.00565      187.17514      189.08175    
     88900  -38874.279      214.95128     -38659.328      181.99054      187.18872      189.14722    
     89000  -38874.988      220.84458     -38654.143      181.97739      187.20538      189.21269    
     89100  -38874.996      216.67505     -38658.321      181.97152      187.22371      189.27817    
     89200  -38876.665      208.87827     -38667.787      181.96294      187.24228      189.34364    
     89300  -38882.008      208.38634     -38673.622      181.95048      187.25483      189.40911    
     89400  -38879.775      207.61773     -38672.157      181.94424      187.27155      189.47458    
     89500  -38876.583      211.70612     -38664.877      181.94013      187.2937       189.54005    
     89600  -38875.561      215.69057     -38659.87       181.92774      187.31002      189.60552    
     89700  -38876.97       215.46546     -38661.505      181.91179      187.32153      189.67099    
     89800  -38877.782      209.70781     -38668.074      181.8979       187.33645      189.73647    
     89900  -38882.953      209.45115     -38673.502      181.89063      187.35539      189.80194    
     90000  -38885.086      211.37156     -38673.715      181.87725      187.37226      189.86741    
     90100  -38879.681      210.78905     -38668.892      181.86085      187.38696      189.93288    
     90200  -38874.905      213.7473      -38661.158      181.84228      187.39705      189.99835    
     90300  -38874.561      216.46126     -38658.1        181.82467      187.40692      190.06382    
     90400  -38876.28       213.55554     -38662.725      181.80813      187.42261      190.1293     
     90500  -38880.237      209.73922     -38670.497      181.78993      187.43846      190.19477    
     90600  -38880.462      206.69626     -38673.766      181.77875      187.4623       190.26024    
     90700  -38883.738      212.19567     -38671.542      181.76465      187.48384      190.32571    
     90800  -38881.108      213.58889     -38667.519      181.74925      187.49772      190.39118    
     90900  -38882.511      213.35993     -38669.151      181.73431      187.507        190.45665    
     91000  -38886.342      211.4207      -38674.922      181.72011      187.51281      190.52212    
     91100  -38885.06       206.08428     -38678.976      181.70679      187.52289      190.5876     
     91200  -38886.381      209.62158     -38676.759      181.70018      187.53865      190.65307    
     91300  -38881.961      212.5003      -38669.46       181.69629      187.54897      190.71854    
     91400  -38878.862      214.23166     -38664.63       181.68993      187.55805      190.78401    
     91500  -38881.428      213.97233     -38667.456      181.68595      187.56779      190.84948    
     91600  -38889.125      214.56827     -38674.557      181.67966      187.56972      190.91495    
     91700  -38887.229      208.02845     -38679.201      181.67284      187.57019      190.98043    
     91800  -38888.709      209.73174     -38678.977      181.67247      187.57982      191.0459     
     91900  -38885.727      212.68087     -38673.046      181.67051      187.58249      191.11137    
     92000  -38882.918      215.08298     -38667.835      181.67093      187.5804       191.17684    
     92100  -38882.151      214.23505     -38667.916      181.67791      187.58535      191.24231    
     92200  -38883.458      211.2026      -38672.255      181.6806       187.58323      191.30778    
     92300  -38886.596      211.24927     -38675.347      181.68246      187.57266      191.37325    
     92400  -38882.939      208.85868     -38674.08       181.68845      187.57433      191.43873    
     92500  -38883.383      214.74307     -38668.64       181.69065      187.57421      191.5042     
     92600  -38879.034      212.36261     -38666.672      181.69137      187.56413      191.56967    
     92700  -38884.516      216.11618     -38668.4        181.69502      187.55624      191.63514    
     92800  -38886.434      213.18276     -38673.251      181.69925      187.54886      191.70061    
     92900  -38885.037      208.94214     -38676.095      181.70024      187.53466      191.76608    
     93000  -38888.168      213.22042     -38674.947      181.70759      187.5249       191.83156    
     93100  -38883.737      212.42983     -38671.307      181.71073      187.51474      191.89703    
     93200  -38886.004      217.87751     -38668.126      181.71127      187.50353      191.9625     
     93300  -38883.529      215.83217     -38667.696      181.71211      187.49684      192.02797    
     93400  -38884.517      212.32611     -38672.191      181.71134      187.49697      192.09344    
     93500  -38884.369      207.01041     -38677.359      181.70213      187.49108      192.15891    
     93600  -38886.241      207.81857     -38678.423      181.69382      187.4814       192.22438    
     93700  -38887.349      212.60986     -38674.739      181.68898      187.47867      192.28986    
     93800  -38882.72       213.88188     -38668.838      181.68178      187.47614      192.35533    
     93900  -38885.309      217.59432     -38667.715      181.67546      187.4751       192.4208     
     94000  -38883.329      211.6927      -38671.636      181.66849      187.48077      192.48627    
     94100  -38887.683      210.9316      -38676.751      181.65697      187.48604      192.55174    
     94200  -38887.573      208.41209     -38679.161      181.64305      187.48969      192.61721    
     94300  -38884.834      208.93939     -38675.895      181.62859      187.49295      192.68268    
     94400  -38880.38       211.88973     -38668.49       181.61051      187.49523      192.74816    
     94500  -38880.103      217.35505     -38662.748      181.59498      187.4982       192.81363    
     94600  -38880.506      216.31718     -38664.189      181.57971      187.5048       192.8791     
     94700  -38886.898      214.42779     -38672.47       181.56411      187.51308      192.94457    
     94800  -38886.098      206.23462     -38679.863      181.55204      187.52561      193.01004    
     94900  -38889.442      207.90562     -38681.537      181.53637      187.53715      193.07551    
     95000  -38887.646      210.7963      -38676.849      181.52241      187.54673      193.14099    
     95100  -38882.342      212.5349      -38669.807      181.50321      187.55802      193.20646    
     95200  -38882.637      216.69614     -38665.94       181.47834      187.56854      193.27193    
     95300  -38881.369      212.31344     -38669.055      181.45819      187.58334      193.3374     
     95400  -38886.493      209.69644     -38676.797      181.43455      187.59907      193.40287    
     95500  -38890.208      208.21768     -38681.99       181.40993      187.61328      193.46834    
     95600  -38888.544      208.4306      -38680.113      181.39112      187.63166      193.53381    
     95700  -38886.147      212.78238     -38673.365      181.37572      187.64644      193.59929    
     95800  -38882.799      215.1905      -38667.608      181.35272      187.65631      193.66476    
     95900  -38885.017      216.14473     -38668.872      181.33001      187.66381      193.73023    
     96000  -38886.786      210.84825     -38675.938      181.31149      187.67612      193.7957     
     96100  -38886.482      205.95068     -38680.531      181.28566      187.68775      193.86117    
     96200  -38890.626      212.43814     -38678.188      181.26192      187.70407      193.92664    
     96300  -38886.366      214.79135     -38671.575      181.24362      187.72544      193.99212    
     96400  -38882.283      215.08923     -38667.194      181.22674      187.7455       194.05759    
     96500  -38884.111      215.27924     -38668.831      181.20246      187.7577       194.12306    
     96600  -38886.716      211.13404     -38675.582      181.17813      187.7634       194.18853    
     96700  -38883.617      203.46651     -38680.15       181.15537      187.76845      194.254      
     96800  -38886.185      208.79803     -38677.387      181.13846      187.77486      194.31947    
     96900  -38882.631      212.63461     -38669.997      181.12407      187.78148      194.38494    
     97000  -38885.921      220.42558     -38665.496      181.1148       187.78724      194.45042    
     97100  -38882.309      214.43856     -38667.87       181.10256      187.79007      194.51589    
     97200  -38885.41       211.73848     -38673.671      181.09019      187.79565      194.58136    
     97300  -38886.115      208.45691     -38677.658      181.0774       187.80194      194.64683    
     97400  -38885.283      209.21996     -38676.063      181.05782      187.80213      194.7123     
     97500  -38883.71       212.08475     -38671.626      181.03492      187.80189      194.77777    
     97600  -38883.606      214.1595      -38669.446      181.01304      187.80493      194.84325    
     97700  -38884.862      213.3875      -38671.474      180.99171      187.80415      194.90872    
     97800  -38884.548      209.0623      -38675.486      180.97494      187.80396      194.97419    
     97900  -38886.121      208.65769     -38677.463      180.96182      187.80752      195.03966    
     98000  -38888.096      212.0991      -38675.997      180.94706      187.80864      195.10513    
     98100  -38886.764      212.77569     -38673.988      180.93029      187.81004      195.1706     
     98200  -38883.841      211.86829     -38671.973      180.90338      187.80667      195.23607    
     98300  -38883.82       213.42776     -38670.393      180.87359      187.80282      195.30155    
     98400  -38885.77       214.87792     -38670.892      180.84872      187.809        195.36702    
     98500  -38885.845      211.70493     -38674.14       180.81835      187.81611      195.43249    
     98600  -38886.261      208.74982     -38677.511      180.78723      187.82399      195.49796    
     98700  -38887.184      209.78686     -38677.397      180.76289      187.83575      195.56343    
     98800  -38885.079      211.27474     -38673.804      180.73776      187.8433       195.6289     
     98900  -38886.381      216.4046      -38669.976      180.70932      187.84965      195.69437    
     99000  -38886.015      214.17804     -38671.837      180.68581      187.85573      195.75985    
     99100  -38887.438      211.02178     -38676.416      180.66009      187.86076      195.82532    
     99200  -38889.515      210.83988     -38678.675      180.63315      187.86239      195.89079    
     99300  -38889.484      212.25221     -38677.232      180.61626      187.86999      195.95626    
     99400  -38889.252      216.17484     -38673.077      180.59733      187.87447      196.02173    
     99500  -38883.865      213.44087     -38670.424      180.5759       187.87751      196.0872     
     99600  -38887.36       215.11799     -38672.242      180.55578      187.88601      196.15268    
     99700  -38885.144      209.43308     -38675.711      180.53145      187.88915      196.21815    
     99800  -38887.333      209.57086     -38677.762      180.50471      187.89078      196.28362    
     99900  -38891.493      214.25858     -38677.234      180.47829      187.89739      196.34909    
    100000  -38886.385      212.29493     -38674.091      180.44755      187.90108      196.41456    
Loop time of 4932.42 on 12 procs for 100000 steps with 5472 atoms

Performance: 1.752 ns/day, 13.701 hours/ns, 20.274 timesteps/s, 110.939 katom-step/s
86.9% CPU use with 12 MPI tasks x 1 OpenMP threads

MPI task timing breakdown:
Section |  min time  |  avg time  |  max time  |%varavg| %total
---------------------------------------------------------------
Pair    | 0.18578    | 810.99     | 2952       |4111.4 | 16.44
Neigh   | 0.0054721  | 4.8423     | 16.688     | 314.7 |  0.10
Comm    | 1.2459     | 297.3      | 1340.6     |2858.8 |  6.03
Output  | 6.6372     | 6.9319     | 7.0539     |   4.4 |  0.14
Modify  | 1367.2     | 3623.7     | 4736.2     |2607.9 | 73.47
Other   |            | 188.7      |            |       |  3.83

Nlocal:            456 ave        1915 max           0 min
Histogram: 8 0 0 1 0 0 1 0 1 1
Nghost:        690.833 ave        2259 max           0 min
Histogram: 6 2 0 0 0 1 0 0 1 2
Neighs:              0 ave           0 max           0 min
Histogram: 12 0 0 0 0 0 0 0 0 0

Total # of neighbors = 0
Ave neighs/atom = 0
Neighbor list builds = 615
Dangerous builds = 0
Total wall time: 1:22:12
