LAMMPS (2 Aug 2023 - Update 3)
OMP_NUM_THREADS environment is not set. Defaulting to 1 thread. (src/comm.cpp:98)
  using 1 OpenMP thread(s) per MPI task

# 1------general---------------
units                             metal      #单位为lammps 中的metel 类型
dimension                    3          #模拟的维度 三维
boundary                    p p p      #周期边界条件
atom_style                  atomic   #原子类型自动
atom_modify              map array sort 100 2.0
neighbor                    3.0 bin
neigh_modify            every 1 delay 0 check yes
#2 -----global variable-------定义全局变量，方便统一修改；
variable temperature equal 300
variable tstep equal 0.001
variable pressure equal 0
variable thermalstep equal 100
variable dumpstep equal 1000
variable relaxtime equal 0
variable totaltime equal 100000
variable deformrate equal 5e-3
#3 -------model------------
#box tilt large
read_data     1.lmp
Reading data file ...
  orthogonal box = (-100 -100 -2.3312515) to (100 100 46.166171)
  2 by 5 by 1 MPI processor grid
  reading atoms ...
  1480 atoms
  read_data CPU = 0.005 seconds
replicate 1 1 15
Replication is creating a 1x1x15 = 15 times larger system...
  orthogonal box = (-100 -100 -2.3312515) to (100 100 725.13009)
  2 by 1 by 5 MPI processor grid
  22200 atoms
  replicate CPU = 0.002 seconds
write_data z.data
System init for write_data ...
WARNING: Communication cutoff is 0.0. No ghost atoms will be generated. Atoms may get lost. (src/comm_brick.cpp:210)
pair_style hybrid airebo 3.0 airebo 3.0 airebo 3.0 lj/cut 10
pair_coeff * * airebo 1 CH.airebo C NULL NULL
Reading airebo potential file CH.airebo with DATE: 2011-10-25
pair_coeff * * airebo 2 CH.airebo NULL C NULL
Reading airebo potential file CH.airebo with DATE: 2011-10-25
pair_coeff * * airebo 3 CH.airebo NULL NULL C
Reading airebo potential file CH.airebo with DATE: 2011-10-25
pair_coeff 1 2 lj/cut 0.00456 3.431
pair_coeff 1 3 lj/cut 0.00456 3.431
pair_coeff 2 3 lj/cut 0.00456 3.431

# 5------minimize -----------
min_style      sd
minimize       1.0e-4 1.0e-6 100 1000
Neighbor list info ...
  update: every = 1 steps, delay = 0 steps, check = yes
  max neighbors/atom: 2000, page size: 100000
  master list distance cutoff = 13.2
  ghost atom cutoff = 13.2
  binsize = 6.6, bins = 31 31 111
  6 neighbor lists, perpetual/occasional/extra = 6 0 0
  (1) pair airebo, perpetual, skip from (5)
      attributes: full, newton on, ghost
      pair build: skip/ghost
      stencil: none
      bin: none
  (2) pair airebo, perpetual, skip from (5)
      attributes: full, newton on, ghost
      pair build: skip/ghost
      stencil: none
      bin: none
  (3) pair airebo, perpetual, skip from (5)
      attributes: full, newton on, ghost
      pair build: skip/ghost
      stencil: none
      bin: none
  (4) pair lj/cut, perpetual, skip from (6)
      attributes: half, newton on, cut 13
      pair build: skip
      stencil: none
      bin: none
  (5) neighbor class addition, perpetual
      attributes: full, newton on, ghost
      pair build: full/bin/ghost
      stencil: full/ghost/bin/3d
      bin: standard
  (6) neighbor class addition, perpetual
      attributes: half, newton on, cut 13
      pair build: half/bin/atomonly/newton
      stencil: half/bin/3d
      bin: standard
Per MPI rank memory allocation (min/avg/max) = 17.69 | 17.69 | 17.7 Mbytes
   Step          Temp          E_pair         E_mol          TotEng         Press     
         0   0             -161115.24      0             -161115.24      378.42796    
         4   0             -161513.81      0             -161513.81      50.287364    
Loop time of 0.281306 on 10 procs for 4 steps with 22200 atoms

98.4% CPU use with 10 MPI tasks x 1 OpenMP threads

Minimization stats:
  Stopping criterion = energy tolerance
  Energy initial, next-to-last, final = 
     -161115.237632776  -161503.959653298   -161513.81226273
  Force two-norm initial, final = 206.54274 33.092585
  Force max component initial, final = 3.434546 0.53009031
  Final line search alpha, max atom move = 0.13584282 0.072008965
  Iterations, force evaluations = 4 8

MPI task timing breakdown:
Section |  min time  |  avg time  |  max time  |%varavg| %total
---------------------------------------------------------------
Pair    | 0.26242    | 0.26999    | 0.27602    |   0.9 | 95.98
Neigh   | 0          | 0          | 0          |   0.0 |  0.00
Comm    | 0.0014632  | 0.0085335  | 0.014918   |   5.0 |  3.03
Output  | 0          | 0          | 0          |   0.0 |  0.00
Modify  | 0          | 0          | 0          |   0.0 |  0.00
Other   |            | 0.002778   |            |       |  0.99

Nlocal:           2220 ave        2280 max        2160 min
Histogram: 5 0 0 0 0 0 0 0 0 5
Nghost:           3006 ave        3066 max        2946 min
Histogram: 5 0 0 0 0 0 0 0 0 5
Neighs:              0 ave           0 max           0 min
Histogram: 10 0 0 0 0 0 0 0 0 0

Total # of neighbors = 0
Ave neighs/atom = 0
Neighbor list builds = 0
Dangerous builds = 0
#6----define computes------
variable nums equal count(all) #计算原子数目
variable toval equal 18.7166*18.7166*lz #计算系统总体积，单层石墨烯厚度为0.335nm
variable vol equal ${toval} #体系的初始体积
variable vol equal 254837.795293728 
variable vatom equal v_vol/v_nums #单个原子体积
compute 1 all stress/atom NULL #计算体系中单原子应力
compute xalls all reduce sum c_1[1]
variable xstress equal (c_xalls)/(v_toval*10000)
compute yalls all reduce sum c_1[2]
variable ystress equal (c_yalls)/(v_toval*10000)
compute zalls all reduce sum c_1[3]
variable zstress equal (c_zalls)/(v_toval*10000)
#7---------relaxation-------------------------
timestep ${tstep}
timestep 0.001
velocity all create ${temperature} 231743 units box dist gaussian
velocity all create 300 231743 units box dist gaussian
dump   1 all atom 100 all-cy.lammpstrj
#fix    1 all npt temp 300 300  0.1 aniso 0 0 10 drag 1  #三个方向独立控压
fix  1 all npt temp ${temperature} ${temperature} 0.1 x ${pressure} ${pressure} 10 y ${pressure} ${pressure} 10
fix  1 all npt temp 300 ${temperature} 0.1 x ${pressure} ${pressure} 10 y ${pressure} ${pressure} 10
fix  1 all npt temp 300 300 0.1 x ${pressure} ${pressure} 10 y ${pressure} ${pressure} 10
fix  1 all npt temp 300 300 0.1 x 0 ${pressure} 10 y ${pressure} ${pressure} 10
fix  1 all npt temp 300 300 0.1 x 0 0 10 y ${pressure} ${pressure} 10
fix  1 all npt temp 300 300 0.1 x 0 0 10 y 0 ${pressure} 10
fix  1 all npt temp 300 300 0.1 x 0 0 10 y 0 0 10
compute  2 all pe/atom
compute  pe all reduce sum c_2
variable PE equal "c_pe"
fix    pe all print 100 "${PE} " file PE.txt screen no
thermo  ${thermalstep}
thermo  100
#thermo_style  custom step pe ke etotal lx ly lz
run   ${relaxtime}
run   0
Per MPI rank memory allocation (min/avg/max) = 18.32 | 18.32 | 18.32 Mbytes
   Step          Temp          E_pair         E_mol          TotEng         Press          Volume    
         4   300           -161513.81      0             -160652.98      81.886011      29098454     
Loop time of 2.08037e-05 on 10 procs for 0 steps with 22200 atoms

100.5% CPU use with 10 MPI tasks x 1 OpenMP threads

MPI task timing breakdown:
Section |  min time  |  avg time  |  max time  |%varavg| %total
---------------------------------------------------------------
Pair    | 0          | 0          | 0          |   0.0 |  0.00
Neigh   | 0          | 0          | 0          |   0.0 |  0.00
Comm    | 0          | 0          | 0          |   0.0 |  0.00
Output  | 0          | 0          | 0          |   0.0 |  0.00
Modify  | 0          | 0          | 0          |   0.0 |  0.00
Other   |            | 2.08e-05   |            |       |100.00

Nlocal:           2220 ave        2220 max        2220 min
Histogram: 10 0 0 0 0 0 0 0 0 0
Nghost:           3006 ave        3006 max        3006 min
Histogram: 10 0 0 0 0 0 0 0 0 0
Neighs:              0 ave           0 max           0 min
Histogram: 10 0 0 0 0 0 0 0 0 0

Total # of neighbors = 0
Ave neighs/atom = 0
Neighbor list builds = 0
Dangerous builds = 0
#8 -------tension-----------------------------
unfix  1
undump  1
unfix  pe
reset_timestep 0
fix avestress all ave/atom 1 ${dumpstep} ${dumpstep} c_1[1] c_1[2] c_1[3] c_1[4] c_1[5] c_1[6]
fix avestress all ave/atom 1 1000 ${dumpstep} c_1[1] c_1[2] c_1[3] c_1[4] c_1[5] c_1[6]
fix avestress all ave/atom 1 1000 1000 c_1[1] c_1[2] c_1[3] c_1[4] c_1[5] c_1[6]

#-----calculation of strain and Cumulative compression--------
variable                tmp equal "lz"
variable                L0 equal ${tmp}
variable                L0 equal 727.461345
variable                strain equal "(lz - v_L0)/v_L0"
variable                Cumulativels equal "(lz - v_L0)/10"
fix Step all print 100 "${strain} ${Cumulativels} ${zstress}" file grapoten.txt screen no

dump 2 all custom ${dumpstep} tension.xyz type x y z f_avestress[1] f_avestress[2] f_avestress[3] f_avestress[4] f_avestress[5] f_avestress[6]
dump 2 all custom 1000 tension.xyz type x y z f_avestress[1] f_avestress[2] f_avestress[3] f_avestress[4] f_avestress[5] f_avestress[6]

fix  1 all npt temp ${temperature} ${temperature} 0.1 y ${pressure} ${pressure} 10 x ${pressure} ${pressure} 10
fix  1 all npt temp 300 ${temperature} 0.1 y ${pressure} ${pressure} 10 x ${pressure} ${pressure} 10
fix  1 all npt temp 300 300 0.1 y ${pressure} ${pressure} 10 x ${pressure} ${pressure} 10
fix  1 all npt temp 300 300 0.1 y 0 ${pressure} 10 x ${pressure} ${pressure} 10
fix  1 all npt temp 300 300 0.1 y 0 0 10 x ${pressure} ${pressure} 10
fix  1 all npt temp 300 300 0.1 y 0 0 10 x 0 ${pressure} 10
fix  1 all npt temp 300 300 0.1 y 0 0 10 x 0 0 10

thermo_style custom step pe ke etotal lx ly lz
fix   2 all deform 1 z erate ${deformrate} remap x units box
fix   2 all deform 1 z erate 0.005 remap x units box
fix   3 all ave/time 2 500 1000 v_xstress v_ystress v_zstress file pressure.out
run   ${totaltime}
run   100000
WARNING: Dump 2 includes no atom IDs and is not sorted by ID. This may complicate post-processing tasks or visualization (src/dump.cpp:221)
Per MPI rank memory allocation (min/avg/max) = 19.82 | 19.82 | 19.82 Mbytes
   Step         PotEng         KinEng         TotEng           Lx             Ly             Lz      
         0  -161513.81      860.83379     -160652.98      200            200            727.46134    
       100  -161032.27      435.93296     -160596.33      200.0029       199.98912      727.82508    
       200  -161074.25      553.40329     -160520.84      200.00945      199.96945      728.18881    
       300  -161001.47      569.89159     -160431.58      200.03794      199.95822      728.55254    
       400  -160970.36      635.79127     -160334.56      200.05353      199.92894      728.91627    
       500  -160928.02      695.13225     -160232.89      200.08809      199.91545      729.28       
       600  -160890.13      760.32915     -160129.8       200.13182      199.90261      729.64373    
       700  -160840.19      806.82531     -160033.36      200.15038      199.86335      730.00746    
       800  -160777.49      828.95714     -159948.53      200.20283      199.83626      730.37119    
       900  -160759.84      873.75376     -159886.08      200.2374       199.78796      730.73492    
      1000  -160728.31      861.88114     -159866.43      200.26631      199.73806      731.09865    
      1100  -160758.69      867.48726     -159891.21      200.31483      199.70231      731.46238    
      1200  -160769.73      847.03388     -159922.69      200.32773      199.66244      731.82611    
      1300  -160799.1       865.5891      -159933.51      200.34318      199.63869      732.18984    
      1400  -160778.2       861.66539     -159916.54      200.35568      199.62894      732.55357    
      1500  -160755.81      871.56301     -159884.25      200.33441      199.62141      732.91731    
      1600  -160734.88      880.15761     -159854.72      200.32431      199.63706      733.28104    
      1700  -160712.44      875.58077     -159836.86      200.29927      199.66501      733.64477    
      1800  -160729.4       881.02294     -159848.38      200.26859      199.7031       734.0085     
      1900  -160728.35      846.45291     -159881.9       200.24376      199.75661      734.37223    
      2000  -160753.68      844.76219     -159908.92      200.18358      199.80275      734.73596    
      2100  -160738.98      829.61791     -159909.36      200.1388       199.86238      735.09969    
      2200  -160726.13      852.85602     -159873.28      200.08758      199.91514      735.46342    
      2300  -160695.69      864.26413     -159831.42      200.03344      199.96037      735.82715    
      2400  -160693.56      883.12016     -159810.44      199.99911      200.003        736.19088    
      2500  -160694.3       879.09048     -159815.21      199.96392      200.03076      736.55461    
      2600  -160694.79      863.16564     -159831.63      199.93349      200.04747      736.91834    
      2700  -160692.79      851.68514     -159841.1       199.91719      200.06161      737.28207    
      2800  -160677.73      850.48217     -159827.25      199.89869      200.06605      737.6458     
      2900  -160660.12      862.78586     -159797.33      199.88848      200.06786      738.00953    
      3000  -160640.87      869.03139     -159771.84      199.8892       200.06958      738.37327    
      3100  -160648.49      876.6033      -159771.88      199.88278      200.05924      738.737      
      3200  -160647.9       856.7262      -159791.17      199.88871      200.0497       739.10073    
      3300  -160658.85      853.27883     -159805.57      199.8951       200.03415      739.46446    
      3400  -160653.17      850.93989     -159802.23      199.90041      200.01758      739.82819    
      3500  -160643.42      864.44377     -159778.97      199.90924      200.00356      740.19192    
      3600  -160624.08      870.83187     -159753.24      199.91239      199.99059      740.55565    
      3700  -160617.88      874.71919     -159743.16      199.91126      199.98166      740.91938    
      3800  -160621.8       868.52039     -159753.28      199.90785      199.97841      741.28311    
      3900  -160611.81      844.4633      -159767.34      199.89411      199.9781       741.64684    
      4000  -160598.69      838.71601     -159759.98      199.87934      199.98426      742.01057    
      4100  -160584.33      856.59161     -159727.74      199.86519      199.99848      742.3743     
      4200  -160572.81      873.60159     -159699.21      199.84184      200.01384      742.73803    
      4300  -160559.88      868.7927      -159691.09      199.82174      200.03443      743.10176    
      4400  -160566.82      864.0683      -159702.75      199.79845      200.05383      743.46549    
      4500  -160570.57      856.71544     -159713.85      199.77299      200.07422      743.82923    
      4600  -160562.53      856.84988     -159705.68      199.74907      200.09511      744.19296    
      4700  -160540.17      862.45495     -159677.71      199.7243       200.11417      744.55669    
      4800  -160517.49      871.83681     -159645.65      199.69979      200.12899      744.92042    
      4900  -160506.23      876.19206     -159630.04      199.67995      200.13869      745.28415    
      5000  -160490.48      856.86455     -159633.61      199.66471      200.14268      745.64788    
      5100  -160506.36      863.49094     -159642.87      199.65608      200.14184      746.01161    
      5200  -160488.35      846.24081     -159642.11      199.65467      200.13989      746.37534    
      5300  -160478.66      855.37601     -159623.29      199.65032      200.13262      746.73907    
      5400  -160456.36      862.46617     -159593.89      199.64791      200.12461      747.1028     
      5500  -160448.15      876.85961     -159571.29      199.64247      200.11457      747.46653    
      5600  -160439.16      869.37558     -159569.78      199.63521      200.10538      747.83026    
      5700  -160435.07      854.78179     -159580.29      199.63112      200.09932      748.19399    
      5800  -160430.57      851.64247     -159578.92      199.62667      200.09476      748.55772    
      5900  -160413.96      855.46284     -159558.5       199.62132      200.09204      748.92145    
      6000  -160384.76      854.74864     -159530.01      199.61341      200.09288      749.28519    
      6100  -160368.6       861.45951     -159507.14      199.59943      200.09529      749.64892    
      6200  -160364.03      864.19177     -159499.83      199.58602      200.10145      750.01265    
      6300  -160351.68      849.78538     -159501.89      199.56983      200.10982      750.37638    
      6400  -160348.39      849.92689     -159498.47      199.54989      200.11789      750.74011    
      6500  -160341.16      861.19807     -159479.96      199.53291      200.12636      751.10384    
      6600  -160310.69      855.87718     -159454.81      199.51473      200.13267      751.46757    
      6700  -160303.55      867.93232     -159435.62      199.49991      200.13828      751.8313     
      6800  -160295.81      867.64076     -159428.17      199.48882      200.14256      752.19503    
      6900  -160286.05      856.96895     -159429.08      199.47703      200.14421      752.55876    
      7000  -160274.1       851.15614     -159422.94      199.46287      200.14385      752.92249    
      7100  -160251.28      851.26424     -159400.02      199.45077      200.14422      753.28622    
      7200  -160238.2       871.64005     -159366.56      199.43684      200.14296      753.64995    
      7300  -160209.95      867.6249      -159342.32      199.42515      200.14136      754.01368    
      7400  -160207.34      872.67241     -159334.66      199.41784      200.13913      754.37741    
      7500  -160199.01      860.74642     -159338.26      199.41034      200.13509      754.74115    
      7600  -160192.13      855.22673     -159336.91      199.40242      200.13096      755.10488    
      7700  -160168.31      848.97714     -159319.34      199.39407      200.12697      755.46861    
      7800  -160148.94      862.32659     -159286.61      199.38764      200.12417      755.83234    
      7900  -160126.79      872.63653     -159254.15      199.38012      200.12165      756.19607    
      8000  -160112.26      874.80157     -159237.46      199.36786      200.11797      756.5598     
      8100  -160099         860.56431     -159238.44      199.35468      200.11533      756.92353    
      8200  -160101.43      859.90978     -159241.52      199.34104      200.1131       757.28726    
      8300  -160076.96      846.59576     -159230.37      199.33026      200.1121       757.65099    
      8400  -160060.14      860.21226     -159199.93      199.32004      200.11128      758.01472    
      8500  -160032.87      869.48768     -159163.38      199.30605      200.10982      758.37845    
      8600  -160011.24      870.68393     -159140.56      199.28956      200.1092       758.74218    
      8700  -160005.73      867.82739     -159137.91      199.27366      200.11098      759.10591    
      8800  -159993.91      853.26976     -159140.64      199.257        200.11395      759.46964    
      8900  -159983.5       852.28004     -159131.22      199.24041      200.11782      759.83337    
      9000  -159961.64      856.52438     -159105.12      199.2235       200.12135      760.19711    
      9100  -159934.17      864.10756     -159070.06      199.2047       200.12136      760.56084    
      9200  -159907.21      867.64934     -159039.56      199.19306      200.12174      760.92457    
      9300  -159897.69      872.0725      -159025.62      199.18078      200.11913      761.2883     
      9400  -159883.21      859.32132     -159023.88      199.1682       200.11523      761.65203    
      9500  -159872.56      853.65972     -159018.9       199.15727      200.10964      762.01576    
      9600  -159863.43      863.24557     -159000.18      199.14206      200.10115      762.37949    
      9700  -159835.9       863.64152     -158972.26      199.13317      200.09415      762.74322    
      9800  -159813.21      868.30481     -158944.91      199.1251       200.08695      763.10695    
      9900  -159785.23      863.14707     -158922.08      199.11409      200.07725      763.47068    
     10000  -159764.24      856.70402     -158907.54      199.10627      200.06855      763.83441    
     10100  -159758.97      860.06491     -158898.91      199.09627      200.05952      764.19814    
     10200  -159747.17      858.30076     -158888.87      199.08401      200.05246      764.56187    
     10300  -159724.93      855.90336     -158869.03      199.06945      200.04775      764.9256     
     10400  -159702.46      864.37113     -158838.09      199.05121      200.04418      765.28933    
     10500  -159678.09      869.68533     -158808.41      199.03436      200.0426       765.65307    
     10600  -159655.31      864.07409     -158791.23      199.01869      200.04106      766.0168     
     10700  -159634.5       853.02842     -158781.47      199.00015      200.04037      766.38053    
     10800  -159622.55      853.85549     -158768.69      198.98441      200.04165      766.74426    
     10900  -159602.04      856.96682     -158745.07      198.96712      200.04371      767.10799    
     11000  -159580.21      865.54362     -158714.67      198.944        200.04298      767.47172    
     11100  -159553.13      864.28596     -158688.85      198.9264       200.04434      767.83545    
     11200  -159532.5       861.83799     -158670.66      198.90886      200.04251      768.19918    
     11300  -159513.72      858.85823     -158654.87      198.89021      200.0371       768.56291    
     11400  -159496.11      859.24233     -158636.87      198.88002      200.03271      768.92664    
     11500  -159473.49      860.06394     -158613.42      198.86649      200.02492      769.29037    
     11600  -159448.63      861.05851     -158587.57      198.85132      200.01646      769.6541     
     11700  -159424.62      861.22825     -158563.39      198.83926      200.00973      770.01783    
     11800  -159414.06      870.19953     -158543.86      198.82089      200.00006      770.38156    
     11900  -159389.86      860.27765     -158529.58      198.80597      199.99219      770.7453     
     12000  -159374.04      860.65624     -158513.39      198.79185      199.98438      771.10903    
     12100  -159344.56      854.06562     -158490.49      198.77337      199.97361      771.47276    
     12200  -159319.59      859.75171     -158459.84      198.76522      199.96731      771.83649    
     12300  -159294.22      865.50806     -158428.71      198.75458      199.96052      772.20022    
     12400  -159272.06      867.11904     -158404.94      198.73773      199.95248      772.56395    
     12500  -159253.16      864.56359     -158388.6       198.72403      199.94881      772.92768    
     12600  -159230.17      858.64136     -158371.52      198.70103      199.94118      773.29141    
     12700  -159206.42      855.38308     -158351.04      198.68172      199.93502      773.65514    
     12800  -159182.52      859.73053     -158322.79      198.66691      199.93024      774.01887    
     12900  -159155.22      862.5861      -158292.63      198.64797      199.92263      774.3826     
     13000  -159129.5       862.75537     -158266.75      198.63236      199.91681      774.74633    
     13100  -159107.34      859.13975     -158248.2       198.61451      199.91024      775.11006    
     13200  -159087.5       856.53644     -158230.96      198.5927       199.90246      775.47379    
     13300  -159068.55      860.24286     -158208.31      198.57355      199.89804      775.83752    
     13400  -159040.23      861.55605     -158178.68      198.55161      199.89328      776.20126    
     13500  -159011.26      861.96098     -158149.3       198.53204      199.89092      776.56499    
     13600  -158991.63      868.07666     -158123.55      198.51085      199.88766      776.92872    
     13700  -158959.94      859.53959     -158100.4       198.48865      199.882        777.29245    
     13800  -158945.52      863.84388     -158081.68      198.4727       199.87744      777.65618    
     13900  -158917.75      854.32554     -158063.42      198.4538       199.86973      778.01991    
     14000  -158902.93      863.91346     -158039.02      198.43578      199.86184      778.38364    
     14100  -158867.14      859.63695     -158007.5       198.41932      199.85433      778.74737    
     14200  -158842.04      868.31604     -157973.73      198.39671      199.84339      779.1111     
     14300  -158812.32      864.32902     -157947.99      198.37823      199.83349      779.47483    
     14400  -158794.36      864.20763     -157930.15      198.35966      199.82253      779.83856    
     14500  -158770.65      858.33367     -157912.32      198.34196      199.81033      780.20229    
     14600  -158739.99      856.66472     -157883.33      198.3283       199.79868      780.56602    
     14700  -158718.6       865.48722     -157853.11      198.31086      199.78597      780.92975    
     14800  -158686.25      860.80697     -157825.45      198.29128      199.77431      781.29348    
     14900  -158657.32      859.89627     -157797.43      198.27203      199.76512      781.65722    
     15000  -158631.74      861.32164     -157770.42      198.24797      199.75556      782.02095    
     15100  -158610.25      863.75021     -157746.5       198.22719      199.7493       782.38468    
     15200  -158584.71      855.55593     -157729.16      198.20612      199.74367      782.74841    
     15300  -158561.05      855.7365      -157705.31      198.18319      199.73653      783.11214    
     15400  -158530.27      861.62619     -157668.64      198.16363      199.72967      783.47587    
     15500  -158497.31      862.52719     -157634.78      198.14283      199.72134      783.8396     
     15600  -158469.11      859.99138     -157609.11      198.12306      199.71297      784.20333    
     15700  -158448.68      862.11129     -157586.57      198.10457      199.70571      784.56706    
     15800  -158424.42      861.65956     -157562.76      198.08161      199.69692      784.93079    
     15900  -158390.39      856.71073     -157533.68      198.06024      199.68852      785.29452    
     16000  -158352.39      855.98518     -157496.4       198.03951      199.68008      785.65825    
     16100  -158328.76      865.24017     -157463.52      198.0163       199.66897      786.02198    
     16200  -158303.54      866.24942     -157437.29      197.99699      199.65849      786.38571    
     16300  -158277.69      855.98143     -157421.71      197.97835      199.64715      786.74944    
     16400  -158253.14      857.15015     -157395.99      197.95851      199.63544      787.11318    
     16500  -158219.69      858.1692      -157361.52      197.94097      199.6249       787.47691    
     16600  -158188.99      862.49148     -157326.5       197.92033      199.61341      787.84064    
     16700  -158157.65      860.50378     -157297.15      197.89731      199.60151      788.20437    
     16800  -158136.17      864.13559     -157272.04      197.87545      199.59035      788.5681     
     16900  -158099.84      852.34955     -157247.5       197.85476      199.57805      788.93183    
     17000  -158073.7       856.21465     -157217.49      197.83646      199.56409      789.29556    
     17100  -158046.17      859.67656     -157186.5       197.82175      199.55054      789.65929    
     17200  -158011.55      857.41022     -157154.14      197.8023       199.53532      790.02302    
     17300  -157984.28      861.8513      -157122.43      197.78208      199.52154      790.38675    
     17400  -157958.15      870.06307     -157088.09      197.76138      199.50993      790.75048    
     17500  -157916.64      863.29026     -157053.35      197.73698      199.49803      791.11421    
     17600  -157891.56      861.80028     -157029.76      197.71357      199.4872       791.47794    
     17700  -157869.11      858.61745     -157010.49      197.69134      199.47877      791.84167    
     17800  -157843.82      861.50685     -156982.31      197.66701      199.47031      792.2054     
     17900  -157806.4       858.55519     -156947.85      197.64506      199.46245      792.56914    
     18000  -157763.92      856.88473     -156907.03      197.62247      199.45356      792.93287    
     18100  -157748.24      872.61893     -156875.62      197.59725      199.44398      793.2966     
     18200  -157712.2       862.63797     -156849.57      197.57313      199.43552      793.66033    
     18300  -157681.32      858.91401     -156822.4       197.54766      199.42453      794.02406    
     18400  -157653.45      859.82261     -156793.63      197.52598      199.41203      794.38779    
     18500  -157628.13      863.1239      -156765         197.50876      199.39923      794.75152    
     18600  -157587.62      850.89622     -156736.73      197.48723      199.38361      795.11525    
     18700  -157562.71      861.64263     -156701.06      197.46785      199.36936      795.47898    
     18800  -157519.71      858.55826     -156661.15      197.44816      199.35467      795.84271    
     18900  -157493.87      866.41877     -156627.45      197.42482      199.33836      796.20644    
     19000  -157463.37      858.94429     -156604.42      197.40626      199.32502      796.57017    
     19100  -157434.4       852.86987     -156581.53      197.38345      199.31         796.9339     
     19200  -157405.58      858.61282     -156546.97      197.36057      199.29598      797.29763    
     19300  -157366.24      856.82535     -156509.41      197.34064      199.28494      797.66136    
     19400  -157335.88      863.39259     -156472.49      197.31655      199.27315      798.0251     
     19500  -157307.52      866.17336     -156441.34      197.29693      199.26419      798.38883    
     19600  -157276.15      860.33969     -156415.81      197.276        199.25469      798.75256    
     19700  -157247.57      856.43016     -156391.14      197.25174      199.24356      799.11629    
     19800  -157211.85      857.90563     -156353.95      197.22987      199.23399      799.48002    
     19900  -157169.28      859.52276     -156309.75      197.20554      199.22233      799.84375    
     20000  -157133.96      857.68465     -156276.27      197.18333      199.20989      800.20748    
     20100  -157104.97      859.69167     -156245.27      197.16126      199.19553      800.57121    
     20200  -157075.24      858.23161     -156217.01      197.14068      199.18144      800.93494    
     20300  -157046.38      858.30011     -156188.08      197.12163      199.16775      801.29867    
     20400  -157005.84      857.62072     -156148.22      197.10094      199.15358      801.6624     
     20500  -156965.98      861.09941     -156104.88      197.07945      199.14001      802.02613    
     20600  -156933.04      862.93477     -156070.11      197.05837      199.12642      802.38986    
     20700  -156907.34      865.74465     -156041.6       197.03714      199.1128       802.75359    
     20800  -156874.65      856.10924     -156018.54      197.01574      199.10085      803.11732    
     20900  -156842.45      858.74499     -155983.7       196.99594      199.09044      803.48106    
     21000  -156811.18      864.57738     -155946.6       196.97649      199.081        803.84479    
     21100  -156762.65      853.83284     -155908.81      196.95421      199.07117      804.20852    
     21200  -156729.13      860.78334     -155868.35      196.92828      199.06069      804.57225    
     21300  -156693.35      863.41305     -155829.94      196.9048       199.05111      804.93598    
     21400  -156657.48      866.72901     -155790.75      196.88201      199.0391       805.29971    
     21500  -156619.89      860.42088     -155759.47      196.86322      199.02558      805.66344    
     21600  -156596.21      860.88937     -155735.32      196.84612      199.01107      806.02717    
     21700  -156556.21      852.63639     -155703.57      196.826        198.99486      806.3909     
     21800  -156519.06      855.38893     -155663.67      196.80922      198.98038      806.75463    
     21900  -156480.29      862.82181     -155617.47      196.79105      198.96468      807.11836    
     22000  -156448.56      864.80944     -155583.75      196.77293      198.94842      807.48209    
     22100  -156424.62      869.73911     -155554.88      196.75735      198.93363      807.84582    
     22200  -156381.73      855.41287     -155526.32      196.73833      198.91767      808.20955    
     22300  -156355.98      864.64781     -155491.33      196.7195       198.90183      808.57328    
     22400  -156310.99      860.31011     -155450.68      196.7024       198.88692      808.93702    
     22500  -156268.01      865.61526     -155402.4       196.68432      198.87261      809.30075    
     22600  -156228.4       870.26152     -155358.14      196.66635      198.86015      809.66448    
     22700  -156197.88      866.83603     -155331.05      196.6463       198.84916      810.02821    
     22800  -156167.48      862.44119     -155305.04      196.62282      198.83911      810.39194    
     22900  -156133.51      857.89645     -155275.61      196.59792      198.83013      810.75567    
     23000  -156100.76      860.04277     -155240.72      196.57446      198.82249      811.1194     
     23100  -156060.37      865.76238     -155194.61      196.55245      198.8143       811.48313    
     23200  -156020.22      866.91492     -155153.3       196.53235      198.80601      811.84686    
     23300  -155986.68      867.21872     -155119.46      196.51133      198.79747      812.21059    
     23400  -155938.24      850.57386     -155087.67      196.49084      198.78932      812.57432    
     23500  -155916.85      863.22527     -155053.62      196.47137      198.78043      812.93805    
     23600  -155872.99      864.98215     -155008.01      196.45179      198.76996      813.30178    
     23700  -155830.77      869.05468     -154961.72      196.43271      198.75736      813.66551    
     23800  -155794.42      862.98904     -154931.43      196.41563      198.74269      814.02925    
     23900  -155761.51      858.64358     -154902.86      196.39951      198.72595      814.39298    
     24000  -155725.89      859.08449     -154866.81      196.38568      198.70917      814.75671    
     24100  -155680.03      854.97094     -154825.06      196.37288      198.69287      815.12044    
     24200  -155649.34      873.743       -154775.6       196.35855      198.67601      815.48417    
     24300  -155603.84      866.19884     -154737.65      196.3474       198.66083      815.8479     
     24400  -155574.15      867.8087      -154706.34      196.33218      198.64411      816.21163    
     24500  -155531.79      859.11263     -154672.68      196.31447      198.62761      816.57536    
     24600  -155500.85      862.53088     -154638.32      196.29831      198.61472      816.93909    
     24700  -155460.72      859.95025     -154600.77      196.27839      198.60279      817.30282    
     24800  -155414.44      861.37532     -154553.06      196.25855      198.59175      817.66655    
     24900  -155375.63      865.8232      -154509.8       196.24307      198.58398      818.03028    
     25000  -155347.07      869.28914     -154477.78      196.22282      198.5737       818.39401    
     25100  -155303.75      855.88081     -154447.87      196.20485      198.56467      818.75774    
     25200  -155262.55      854.05087     -154408.5       196.18764      198.55653      819.12147    
     25300  -155228.83      861.68223     -154367.15      196.16598      198.54611      819.48521    
     25400  -155186.9       859.67829     -154327.22      196.14724      198.53685      819.84894    
     25500  -155148.79      861.8719      -154286.92      196.12832      198.52678      820.21267    
     25600  -155107.41      863.23924     -154244.17      196.10954      198.51605      820.5764     
     25700  -155062.59      865.69435     -154196.9       196.09343      198.50577      820.94013    
     25800  -155024.73      863.96179     -154160.77      196.07657      198.49442      821.30386    
     25900  -154992.63      859.77066     -154132.86      196.05902      198.483        821.66759    
     26000  -154944.99      846.71166     -154098.28      196.04119      198.47243      822.03132    
     26100  -154914.08      858.88853     -154055.19      196.02311      198.46168      822.39505    
     26200  -154873.31      865.61334     -154007.69      196.00773      198.45103      822.75878    
     26300  -154833.71      868.55125     -153965.16      195.99202      198.43858      823.12251    
     26400  -154789.5       860.55714     -153928.94      195.97736      198.42604      823.48624    
     26500  -154753.27      861.20757     -153892.06      195.96209      198.41324      823.84997    
     26600  -154707.65      852.58403     -153855.06      195.94597      198.39921      824.2137     
     26700  -154683.52      862.89719     -153820.62      195.93237      198.3862       824.57743    
     26800  -154645.05      857.02761     -153788.02      195.91927      198.37362      824.94117    
     26900  -154603.62      855.94644     -153747.68      195.90521      198.3605       825.3049     
     27000  -154555.9       861.55301     -153694.34      195.89228      198.34771      825.66863    
     27100  -154513.53      863.39831     -153650.13      195.87809      198.33435      826.03236    
     27200  -154476.4       866.95331     -153609.45      195.86183      198.32039      826.39609    
     27300  -154435.84      863.65191     -153572.19      195.84832      198.30874      826.75982    
     27400  -154396.36      856.70513     -153539.66      195.83463      198.29657      827.12355    
     27500  -154362.41      859.44415     -153502.97      195.82081      198.28497      827.48728    
     27600  -154316.56      863.62088     -153452.94      195.80806      198.2754       827.85101    
     27700  -154266.6       861.98486     -153404.62      195.79095      198.26479      828.21474    
     27800  -154230.31      864.73173     -153365.58      195.77419      198.25432      828.57847    
     27900  -154194.52      863.4735      -153331.04      195.76073      198.24408      828.9422     
     28000  -154150.98      852.76688     -153298.21      195.74638      198.23186      829.30593    
     28100  -154114.56      851.83248     -153262.73      195.73389      198.21946      829.66966    
     28200  -154069.34      857.42122     -153211.92      195.71971      198.2068       830.03339    
     28300  -154029         867.6758      -153161.33      195.70375      198.19508      830.39713    
     28400  -153973.79      857.58514     -153116.21      195.68813      198.18574      830.76086    
     28500  -153936.13      864.52971     -153071.6       195.67205      198.17715      831.12459    
     28600  -153897         867.54423     -153029.45      195.65602      198.16846      831.48832    
     28700  -153855.36      857.93658     -152997.43      195.6398       198.1595       831.85205    
     28800  -153816.88      854.31169     -152962.57      195.62279      198.15013      832.21578    
     28900  -153771.07      854.00924     -152917.06      195.6083       198.14142      832.57951    
     29000  -153729.67      863.48644     -152866.18      195.59241      198.13103      832.94324    
     29100  -153686.3       862.83526     -152823.47      195.57599      198.11999      833.30697    
     29200  -153641.78      857.9929      -152783.79      195.56257      198.10958      833.6707     
     29300  -153603.88      857.67119     -152746.2       195.54925      198.0965       834.03443    
     29400  -153568.87      857.31314     -152711.56      195.53839      198.08166      834.39816    
     29500  -153529.53      853.33067     -152676.19      195.52827      198.06594      834.76189    
     29600  -153488.07      860.37299     -152627.7       195.51401      198.04968      835.12562    
     29700  -153439.02      864.10782     -152574.92      195.50036      198.03681      835.48935    
     29800  -153395.56      864.27818     -152531.28      195.48434      198.02466      835.85309    
     29900  -153348.81      858.48509     -152490.32      195.46907      198.01313      836.21682    
     30000  -153307.18      856.75651     -152450.43      195.45754      198.00373      836.58055    
     30100  -153265.17      857.52498     -152407.64      195.44399      197.99256      836.94428    
     30200  -153225.36      865.47368     -152359.88      195.43247      197.98222      837.30801    
     30300  -153174.93      862.17459     -152312.75      195.41985      197.9719       837.67174    
     30400  -153135.42      863.4279      -152271.99      195.40199      197.96075      838.03547    
     30500  -153094.68      853.92749     -152240.75      195.38572      197.95115      838.3992     
     30600  -153052.82      854.35346     -152198.46      195.36839      197.93999      838.76293    
     30700  -153007.28      859.25883     -152148.02      195.35296      197.92785      839.12666    
     30800  -152961.14      859.15582     -152101.98      195.3422       197.91754      839.49039    
     30900  -152919.09      862.79988     -152056.29      195.32702      197.90558      839.85412    
     31000  -152880.66      870.09635     -152010.56      195.31217      197.89325      840.21785    
     31100  -152830.97      863.74399     -151967.23      195.30082      197.88308      840.58158    
     31200  -152784.66      856.4632      -151928.2       195.28494      197.87234      840.94531    
     31300  -152748.36      859.54965     -151888.81      195.26909      197.86273      841.30905    
     31400  -152704.19      862.48667     -151841.71      195.25456      197.8539       841.67278    
     31500  -152656.45      867.43762     -151789.02      195.23644      197.84357      842.03651    
     31600  -152604.62      861.25624     -151743.37      195.22157      197.83433      842.40024    
     31700  -152572.4       867.40577     -151705         195.20911      197.825        842.76397    
     31800  -152528.7       860.35214     -151668.35      195.19196      197.81149      843.1277     
     31900  -152486.56      849.8431      -151636.72      195.17768      197.79875      843.49143    
     32000  -152447.23      852.10959     -151595.12      195.16454      197.78683      843.85516    
     32100  -152398.91      859.69304     -151539.21      195.1472       197.77407      844.21889    
     32200  -152345.28      857.23272     -151488.04      195.13377      197.76369      844.58262    
     32300  -152296.73      859.16969     -151437.56      195.12004      197.75422      844.94635    
     32400  -152254.27      865.98972     -151388.28      195.10127      197.74338      845.31008    
     32500  -152209.24      863.44449     -151345.8       195.08591      197.73422      845.67381    
     32600  -152173.81      859.06696     -151314.74      195.07109      197.72465      846.03754    
     32700  -152124.98      851.90439     -151273.07      195.0534       197.71331      846.40127    
     32800  -152082.58      862.23708     -151220.34      195.03839      197.70315      846.76501    
     32900  -152035.31      863.3812      -151171.93      195.02466      197.69278      847.12874    
     33000  -151986.84      860.34919     -151126.49      195.00808      197.67901      847.49247    
     33100  -151938.52      856.48755     -151082.03      194.99559      197.6654       847.8562     
     33200  -151892.04      856.97758     -151035.07      194.98464      197.65143      848.21993    
     33300  -151855.51      867.87855     -150987.64      194.9709       197.63605      848.58366    
     33400  -151804.11      860.34627     -150943.76      194.95716      197.62139      848.94739    
     33500  -151763.43      860.39006     -150903.04      194.94395      197.60891      849.31112    
     33600  -151725.27      861.94993     -150863.32      194.92642      197.5962       849.67485    
     33700  -151682.25      863.31766     -150818.93      194.91049      197.58473      850.03858    
     33800  -151626.2       862.17778     -150764.02      194.89635      197.57504      850.40231    
     33900  -151575.99      863.03467     -150712.96      194.87939      197.56554      850.76604    
     34000  -151529.12      858.94108     -150670.18      194.86392      197.55821      851.12977    
     34100  -151497.38      865.54535     -150631.83      194.84762      197.55136      851.4935     
     34200  -151447.81      849.24867     -150598.57      194.82768      197.54329      851.85723    
     34300  -151406.3       854.10506     -150552.19      194.8087       197.53571      852.22097    
     34400  -151351.59      851.43646     -150500.15      194.79079      197.52813      852.5847     
     34500  -151307.51      860.19252     -150447.31      194.77345      197.51956      852.94843    
     34600  -151261.52      866.29815     -150395.22      194.75786      197.50985      853.31216    
     34700  -151206         860.04025     -150345.96      194.744        197.49863      853.67589    
     34800  -151167.09      867.015       -150300.08      194.72937      197.4846       854.03962    
     34900  -151125.57      862.7437      -150262.82      194.71769      197.47104      854.40335    
     35000  -151075.99      851.31134     -150224.68      194.70681      197.45784      854.76708    
     35100  -151030.55      857.78551     -150172.76      194.6911       197.44173      855.13081    
     35200  -150984.37      864.73177     -150119.64      194.67654      197.42586      855.49454    
     35300  -150937.81      863.87169     -150073.94      194.66349      197.411        855.85827    
     35400  -150889.83      859.30716     -150030.53      194.64912      197.39517      856.222      
     35500  -150849         858.1902      -149990.81      194.63831      197.38054      856.58573    
     35600  -150803.74      852.71726     -149951.02      194.62512      197.36555      856.94946    
     35700  -150751.59      855.30479     -149896.28      194.6097       197.35064      857.3132     
     35800  -150698.58      856.8878      -149841.69      194.59795      197.33892      857.67693    
     35900  -150658.36      865.39581     -149792.97      194.58245      197.32864      858.04066    
     36000  -150601.15      853.71184     -149747.43      194.5638       197.3196       858.40439    
     36100  -150565.55      859.76181     -149705.79      194.54573      197.31198      858.76812    
     36200  -150518.8       851.88084     -149666.92      194.52505      197.30406      859.13185    
     36300  -150475.11      855.24685     -149619.86      194.50302      197.29669      859.49558    
     36400  -150422.15      860.33336     -149561.81      194.48314      197.2909       859.85931    
     36500  -150375.34      863.93926     -149511.4       194.46405      197.28395      860.22304    
     36600  -150327.76      858.98226     -149468.78      194.44589      197.27501      860.58677    
     36700  -150287.49      859.12854     -149428.36      194.42981      197.26563      860.9505     
     36800  -150242.23      859.93789     -149382.29      194.41394      197.25516      861.31423    
     36900  -150182.1       860.45162     -149321.65      194.39595      197.24272      861.67796    
     37000  -150139.12      867.4392      -149271.68      194.37875      197.22945      862.04169    
     37100  -150092.08      860.72433     -149231.36      194.36312      197.21673      862.40542    
     37200  -150048.49      856.71968     -149191.77      194.34571      197.20335      862.76916    
     37300  -150005.77      859.45944     -149146.31      194.33137      197.19106      863.13289    
     37400  -149946.57      859.86202     -149086.71      194.31832      197.1792       863.49662    
     37500  -149898.22      864.17519     -149034.05      194.3019       197.16549      863.86035    
     37600  -149853.58      862.23634     -148991.35      194.28819      197.15284      864.22408    
     37700  -149810.49      858.29883     -148952.19      194.27396      197.13966      864.58781    
     37800  -149770.44      861.84378     -148908.59      194.25775      197.12428      864.95154    
     37900  -149707.64      853.9169      -148853.72      194.24299      197.10902      865.31527    
     38000  -149657.55      862.16061     -148795.39      194.22705      197.09373      865.679      
     38100  -149612.76      863.18014     -148749.58      194.21094      197.07935      866.04273    
     38200  -149570.24      860.42958     -148709.81      194.19685      197.06657      866.40646    
     38300  -149528.33      860.52975     -148667.8       194.1822       197.05381      866.77019    
     38400  -149470.93      854.9763      -148615.96      194.16576      197.04121      867.13392    
     38500  -149424.38      867.14363     -148557.24      194.14901      197.03046      867.49765    
     38600  -149372.05      863.43363     -148508.61      194.13313      197.02077      867.86138    
     38700  -149328.39      863.46634     -148464.92      194.1168       197.00953      868.22512    
     38800  -149278.25      856.904       -148421.35      194.09915      196.99873      868.58885    
     38900  -149230.46      857.04923     -148373.41      194.08132      196.98891      868.95258    
     39000  -149186.42      869.12199     -148317.3       194.06117      196.97834      869.31631    
     39100  -149127.78      863.5144      -148264.27      194.0403       196.96716      869.68004    
     39200  -149081.58      858.92621     -148222.65      194.02246      196.95706      870.04377    
     39300  -149052.31      865.56098     -148186.75      194.0042       196.94674      870.4075     
     39400  -148993.11      856.18788     -148136.93      193.98601      196.93589      870.77123    
     39500  -148946.4       863.71586     -148082.69      193.96959      196.92508      871.13496    
     39600  -148889.2       859.82139     -148029.38      193.9519       196.91297      871.49869    
     39700  -148843.58      866.16688     -147977.42      193.93358      196.8995       871.86242    
     39800  -148786.04      858.82406     -147927.21      193.92017      196.88628      872.22615    
     39900  -148752.89      866.78232     -147886.11      193.9041       196.87066      872.58988    
     40000  -148705.05      858.22634     -147846.83      193.88692      196.85478      872.95361    
     40100  -148657.02      856.17094     -147800.85      193.87375      196.84037      873.31734    
     40200  -148605.44      859.69689     -147745.74      193.85676      196.82326      873.68108    
     40300  -148554.95      866.99315     -147687.96      193.84026      196.8069       874.04481    
     40400  -148507.59      865.3899      -147642.2       193.82585      196.79278      874.40854    
     40500  -148457.01      857.17497     -147599.83      193.80813      196.77777      874.77227    
     40600  -148423.28      868.34672     -147554.93      193.79258      196.76433      875.136      
     40700  -148361.07      853.11114     -147507.96      193.77898      196.75214      875.49973    
     40800  -148311.35      861.35461     -147449.99      193.76353      196.73995      875.86346    
     40900  -148256.84      863.47065     -147393.37      193.74693      196.72819      876.22719    
     41000  -148209.99      859.8441      -147350.15      193.72728      196.71705      876.59092    
     41100  -148167.39      858.12828     -147309.26      193.70665      196.70784      876.95465    
     41200  -148117.69      855.48895     -147262.2       193.68508      196.6989       877.31838    
     41300  -148071.05      860.7402      -147210.31      193.66296      196.68909      877.68211    
     41400  -148025.71      866.08466     -147159.63      193.64573      196.67978      878.04584    
     41500  -147972.31      861.15627     -147111.16      193.62878      196.66859      878.40957    
     41600  -147927.71      865.91243     -147061.8       193.61209      196.65513      878.7733     
     41700  -147876.45      864.36702     -147012.08      193.5988       196.64288      879.13704    
     41800  -147827.41      863.30446     -146964.11      193.58202      196.62958      879.50077    
     41900  -147777.07      858.32497     -146918.74      193.56302      196.61561      879.8645     
     42000  -147729.27      857.49474     -146871.78      193.54621      196.60274      880.22823    
     42100  -147683.18      864.1643      -146819.01      193.52564      196.58763      880.59196    
     42200  -147631.39      869.88286     -146761.5       193.50737      196.57253      880.95569    
     42300  -147565.12      855.72808     -146709.39      193.49589      196.55992      881.31942    
     42400  -147525.94      860.91397     -146665.03      193.48091      196.54572      881.68315    
     42500  -147482.99      854.47061     -146628.52      193.46588      196.53211      882.04688    
     42600  -147438.14      860.94417     -146577.2       193.45172      196.51983      882.41061    
     42700  -147385.44      866.30073     -146519.14      193.43333      196.50685      882.77434    
     42800  -147331.66      863.74193     -146467.92      193.41231      196.4946       883.13807    
     42900  -147284.25      862.11526     -146422.13      193.39244      196.48343      883.5018     
     43000  -147233.12      856.04708     -146377.07      193.37311      196.47105      883.86553    
     43100  -147192.12      853.15105     -146338.97      193.35635      196.45849      884.22926    
     43200  -147147.46      851.64856     -146295.81      193.34199      196.44595      884.593      
     43300  -147087.91      851.23467     -146236.68      193.32678      196.43297      884.95673    
     43400  -147039.37      860.59429     -146178.78      193.30929      196.42025      885.32046    
     43500  -146979.65      855.19426     -146124.45      193.29006      196.4083       885.68419    
     43600  -146934.29      859.51388     -146074.78      193.27069      196.39759      886.04792    
     43700  -146893.04      861.99358     -146031.05      193.25165      196.38677      886.41165    
     43800  -146844.03      853.82613     -145990.2       193.23316      196.37458      886.77538    
     43900  -146793.12      856.06806     -145937.05      193.21747      196.36189      887.13911    
     44000  -146735.11      858.99536     -145876.11      193.20222      196.34811      887.50284    
     44100  -146687.68      862.30122     -145825.38      193.18524      196.33278      887.86657    
     44200  -146641.23      863.06172     -145778.17      193.16995      196.31888      888.2303     
     44300  -146589.31      853.97603     -145735.33      193.15358      196.30492      888.59403    
     44400  -146542.73      851.63746     -145691.09      193.13611      196.29045      888.95776    
     44500  -146493.45      858.88015     -145634.57      193.12141      196.27773      889.32149    
     44600  -146435.71      862.48352     -145573.22      193.1022       196.26486      889.68522    
     44700  -146390.7       867.86209     -145522.84      193.08345      196.25338      890.04896    
     44800  -146334.03      855.34258     -145478.68      193.06756      196.24303      890.41269    
     44900  -146294.59      857.86967     -145436.72      193.04778      196.23024      890.77642    
     45000  -146245.42      856.27688     -145389.14      193.03012      196.21804      891.14015    
     45100  -146187.06      861.07758     -145325.98      193.01327      196.20565      891.50388    
     45200  -146141.19      870.24518     -145270.95      192.99604      196.19149      891.86761    
     45300  -146087.39      861.84207     -145225.55      192.98229      196.17866      892.23134    
     45400  -146039.57      855.99314     -145183.57      192.96761      196.16472      892.59507    
     45500  -145989.62      855.52931     -145134.09      192.94975      196.15026      892.9588     
     45600  -145939.82      863.35515     -145076.47      192.93365      196.13824      893.32253    
     45700  -145883.13      867.09534     -145016.03      192.9136       196.12535      893.68626    
     45800  -145831.7       863.1959      -144968.5       192.89213      196.11247      894.04999    
     45900  -145789.42      865.87592     -144923.55      192.87449      196.10228      894.41372    
     46000  -145738.56      860.4591      -144878.1       192.85425      196.09172      894.77745    
     46100  -145692.35      862.08776     -144830.27      192.83495      196.08137      895.14119    
     46200  -145636.43      854.10475     -144782.33      192.81948      196.0725       895.50492    
     46300  -145594.9       858.85652     -144736.04      192.79916      196.06141      895.86865    
     46400  -145539.03      856.16235     -144682.87      192.77901      196.05058      896.23238    
     46500  -145482.23      858.70434     -144623.53      192.7617       196.04068      896.59611    
     46600  -145431.01      862.58026     -144568.43      192.74175      196.0271       896.95984    
     46700  -145385.77      862.57968     -144523.19      192.72643      196.01342      897.32357    
     46800  -145339.56      855.3159      -144484.25      192.71245      195.99883      897.6873     
     46900  -145286.21      853.56232     -144432.64      192.69458      195.9817       898.05103    
     47000  -145235.28      859.49405     -144375.79      192.68068      195.96734      898.41476    
     47100  -145189.65      870.55071     -144319.1       192.66527      195.95241      898.77849    
     47200  -145128.83      858.11283     -144270.72      192.6458       195.9354       899.14222    
     47300  -145091.91      858.36671     -144233.55      192.63213      195.921        899.50595    
     47400  -145032.75      849.30488     -144183.44      192.61899      195.90595      899.86968    
     47500  -144985.07      860.74322     -144124.33      192.60152      195.88907      900.23341    
     47600  -144933.3       865.70299     -144067.59      192.58806      195.87532      900.59715    
     47700  -144882.47      864.16778     -144018.3       192.57498      195.86239      900.96088    
     47800  -144828.5       854.85637     -143973.65      192.55718      195.84726      901.32461    
     47900  -144780.94      855.58315     -143925.36      192.54093      195.83396      901.68834    
     48000  -144728.42      855.33156     -143873.08      192.52493      195.82142      902.05207    
     48100  -144680.88      862.50234     -143818.38      192.50709      195.80776      902.4158     
     48200  -144623.53      860.51503     -143763.01      192.49153      195.79491      902.77953    
     48300  -144575.59      863.54618     -143712.05      192.47738      195.78337      903.14326    
     48400  -144534.45      862.70691     -143671.74      192.45917      195.77131      903.50699    
     48500  -144482.75      858.08892     -143624.67      192.43798      195.76016      903.87072    
     48600  -144426.55      856.66586     -143569.88      192.41826      195.75191      904.23445    
     48700  -144369.1       858.6572      -143510.45      192.39905      195.74368      904.59818    
     48800  -144319.5       869.69285     -143449.8       192.37834      195.7332       904.96191    
     48900  -144269.59      868.85669     -143400.73      192.3623       195.72444      905.32564    
     49000  -144222.28      859.28523     -143363         192.34346      195.71445      905.68937    
     49100  -144168.76      853.98929     -143314.77      192.32249      195.70243      906.05311    
     49200  -144115.21      853.46714     -143261.74      192.30679      195.69178      906.41684    
     49300  -144071.12      863.8914      -143207.23      192.28971      195.6792       906.78057    
     49400  -144008.83      858.9043      -143149.93      192.27115      195.66473      907.1443     
     49500  -143963         867.82879     -143095.17      192.25759      195.65151      907.50803    
     49600  -143912.54      859.49719     -143053.04      192.24092      195.63556      907.87176    
     49700  -143869.33      860.96803     -143008.36      192.22301      195.6193       908.23549    
     49800  -143817.58      860.53753     -142957.04      192.21001      195.60577      908.59922    
     49900  -143767.29      862.56549     -142904.72      192.19441      195.59012      908.96295    
     50000  -143713.55      860.64867     -142852.9       192.17828      195.57366      909.32668    
     50100  -143658.55      855.37854     -142803.17      192.16492      195.55849      909.69041    
     50200  -143617.06      860.6379      -142756.43      192.15066      195.54379      910.05414    
     50300  -143567.69      858.32223     -142709.37      192.13349      195.52966      910.41787    
     50400  -143513.63      856.13253     -142657.5       192.11584      195.51783      910.7816     
     50500  -143455.8       861.80931     -142593.99      192.09585      195.5064       911.14533    
     50600  -143406.5       869.26856     -142537.24      192.07611      195.49491      911.50907    
     50700  -143360.1       869.19333     -142490.9       192.0591       195.48391      911.8728     
     50800  -143305.25      859.87862     -142445.37      192.04354      195.47248      912.23653    
     50900  -143251         857.6403      -142393.36      192.02942      195.46105      912.60026    
     51000  -143196.23      855.93765     -142340.29      192.01415      195.44909      912.96399    
     51100  -143151.92      864.77964     -142287.14      191.99549      195.43719      913.32772    
     51200  -143101.55      862.73933     -142238.81      191.97575      195.42658      913.69145    
     51300  -143054.8       861.21671     -142193.58      191.95544      195.41565      914.05518    
     51400  -143001.04      858.5389      -142142.5       191.93584      195.4039       914.41891    
     51500  -142945.36      864.91256     -142080.45      191.91865      195.39211      914.78264    
     51600  -142887.03      865.70462     -142021.32      191.90248      195.37998      915.14637    
     51700  -142837.83      864.86929     -141972.96      191.88623      195.36743      915.5101     
     51800  -142791.35      866.08248     -141925.27      191.8711       195.35588      915.87383    
     51900  -142736.25      858.94218     -141877.31      191.85492      195.34398      916.23756    
     52000  -142686.32      858.01568     -141828.31      191.83732      195.33135      916.60129    
     52100  -142638.87      860.97559     -141777.9       191.81946      195.31836      916.96503    
     52200  -142584.33      854.95518     -141729.37      191.80066      195.30472      917.32876    
     52300  -142535.51      854.15339     -141681.36      191.78348      195.29097      917.69249    
     52400  -142485.33      861.42422     -141623.9       191.76821      195.27742      918.05622    
     52500  -142431.58      870.63723     -141560.94      191.75418      195.26473      918.41995    
     52600  -142375.37      868.12233     -141507.24      191.73967      195.25185      918.78368    
     52700  -142328.52      866.27661     -141462.24      191.72239      195.23816      919.14741    
     52800  -142270.98      859.05467     -141411.92      191.70429      195.22504      919.51114    
     52900  -142221.18      860.52054     -141360.66      191.6854       195.21138      919.87487    
     53000  -142171.26      860.11213     -141311.14      191.66721      195.19817      920.2386     
     53100  -142125.18      860.66774     -141264.51      191.64968      195.18567      920.60233    
     53200  -142070.94      856.54091     -141214.4       191.63349      195.17328      920.96606    
     53300  -142020.66      862.23946     -141158.42      191.61721      195.16019      921.32979    
     53400  -141963.67      867.76747     -141095.91      191.60092      195.14614      921.69352    
     53500  -141904.82      863.2597      -141041.56      191.58406      195.13162      922.05725    
     53600  -141859.68      861.17925     -140998.5       191.56778      195.11669      922.42099    
     53700  -141810.72      861.79575     -140948.92      191.55375      195.10302      922.78472    
     53800  -141760.75      863.7467      -140897.01      191.53642      195.0891       923.14845    
     53900  -141708.79      862.46308     -140846.33      191.51803      195.07607      923.51218    
     54000  -141653.65      852.12696     -140801.52      191.50049      195.06444      923.87591    
     54100  -141601.34      848.78873     -140752.55      191.48014      195.05143      924.23964    
     54200  -141546.04      856.00954     -140690.03      191.46244      195.03885      924.60337    
     54300  -141497.11      870.27808     -140626.83      191.44668      195.02588      924.9671     
     54400  -141444.72      868.84199     -140575.88      191.4294       195.01155      925.33083    
     54500  -141396.46      866.29788     -140530.16      191.41407      194.99831      925.69456    
     54600  -141342.21      860.66264     -140481.55      191.39738      194.98472      926.05829    
     54700  -141285.11      856.59662     -140428.52      191.3796       194.97107      926.42202    
     54800  -141238.75      865.74627     -140373         191.36522      194.95958      926.78575    
     54900  -141183.96      862.44713     -140321.51      191.34664      194.94605      927.14948    
     55000  -141137.62      863.87344     -140273.75      191.32634      194.93197      927.51321    
     55100  -141081.45      858.74263     -140222.7       191.30889      194.92006      927.87695    
     55200  -141026.04      858.55166     -140167.49      191.28852      194.90705      928.24068    
     55300  -140973.85      868.1531      -140105.69      191.26994      194.89543      928.60441    
     55400  -140918.93      874.31941     -140044.61      191.25452      194.88505      928.96814    
     55500  -140868.23      868.70903     -139999.52      191.23662      194.87414      929.33187    
     55600  -140815.18      864.00454     -139951.18      191.21886      194.8635       929.6956     
     55700  -140757.77      855.83012     -139901.94      191.19982      194.85291      930.05933    
     55800  -140702.89      853.33904     -139849.55      191.18008      194.84081      930.42306    
     55900  -140658.24      862.5104      -139795.73      191.16203      194.82879      930.78679    
     56000  -140605.04      857.60065     -139747.44      191.14363      194.81576      931.15052    
     56100  -140553.25      854.38908     -139698.86      191.12592      194.80195      931.51425    
     56200  -140497.01      857.13914     -139639.88      191.10963      194.78776      931.87798    
     56300  -140439.24      865.8434      -139573.4       191.09017      194.77168      932.24171    
     56400  -140382.32      871.30033     -139511.02      191.07115      194.75737      932.60544    
     56500  -140333.25      862.75286     -139470.49      191.05365      194.74544      932.96917    
     56600  -140285.1       862.94247     -139422.16      191.03457      194.73265      933.33291    
     56700  -140234.86      860.61309     -139374.25      191.01741      194.72022      933.69664    
     56800  -140182.39      857.21301     -139325.18      191.00141      194.70808      934.06037    
     56900  -140129.83      857.56693     -139272.26      190.98327      194.69434      934.4241     
     57000  -140077.48      860.82831     -139216.65      190.9663       194.68186      934.78783    
     57100  -140020.57      858.47678     -139162.09      190.94871      194.66971      935.15156    
     57200  -139970.65      857.01896     -139113.63      190.92795      194.65625      935.51529    
     57300  -139917.04      856.73933     -139060.3       190.91019      194.64326      935.87902    
     57400  -139862.12      859.03046     -139003.09      190.89335      194.62972      936.24275    
     57500  -139812.26      863.0604      -138949.2       190.87591      194.6139       936.60648    
     57600  -139767.47      866.86998     -138900.6       190.86046      194.59776      936.97021    
     57700  -139713.97      865.48985     -138848.48      190.84402      194.58089      937.33394    
     57800  -139652.7       860.9498      -138791.75      190.82693      194.56502      937.69767    
     57900  -139592.07      857.03407     -138735.04      190.80921      194.55075      938.0614     
     58000  -139543.57      859.29962     -138684.27      190.79055      194.53714      938.42514    
     58100  -139490.77      856.90642     -138633.87      190.7738       194.52542      938.78887    
     58200  -139441.85      862.10859     -138579.74      190.75422      194.51326      939.1526     
     58300  -139388.63      865.15067     -138523.47      190.73394      194.50093      939.51633    
     58400  -139328.9       858.19342     -138470.7       190.7157       194.48915      939.88006    
     58500  -139275.34      854.66589     -138420.68      190.69476      194.47508      940.24379    
     58600  -139221.5       859.62557     -138361.87      190.67652      194.46171      940.60752    
     58700  -139162.71      865.76483     -138296.94      190.66155      194.45075      940.97125    
     58800  -139103.88      865.88463     -138238         190.63944      194.4371       941.33498    
     58900  -139053.89      861.53989     -138192.35      190.61912      194.42554      941.69871    
     59000  -139008.42      869.36739     -138139.06      190.60053      194.41545      942.06244    
     59100  -138947.73      860.2876      -138087.44      190.57629      194.40214      942.42617    
     59200  -138901.4       867.5293      -138033.87      190.55789      194.39158      942.7899     
     59300  -138846.43      867.4366      -137978.99      190.54089      194.38103      943.15363    
     59400  -138783.19      857.89004     -137925.3       190.51884      194.36723      943.51736    
     59500  -138729.12      860.15515     -137868.97      190.50092      194.3563       943.8811     
     59600  -138679.61      868.73838     -137810.87      190.48145      194.34477      944.24483    
     59700  -138614.96      859.88185     -137755.08      190.45935      194.33036      944.60856    
     59800  -138568.77      865.55868     -137703.21      190.44186      194.31622      944.97229    
     59900  -138508.39      858.21079     -137650.18      190.42345      194.30046      945.33602    
     60000  -138458.96      865.56937     -137593.4       190.40285      194.28403      945.69975    
     60100  -138401.94      864.21133     -137537.73      190.3846       194.27024      946.06348    
     60200  -138345.34      861.77711     -137483.57      190.36562      194.25721      946.42721    
     60300  -138290.71      864.69301     -137426.02      190.34619      194.24513      946.79094    
     60400  -138232.79      862.10868     -137370.68      190.32599      194.23273      947.15467    
     60500  -138181.91      863.91312     -137318         190.30697      194.22136      947.5184     
     60600  -138128.2       866.65464     -137261.55      190.28525      194.20919      947.88213    
     60700  -138065.09      860.15281     -137204.94      190.26335      194.19644      948.24586    
     60800  -138018.97      870.17703     -137148.79      190.24511      194.1847       948.60959    
     60900  -137965.78      873.13521     -137092.65      190.22583      194.17095      948.97332    
     61000  -137902.01      866.96816     -137035.04      190.2062       194.15504      949.33706    
     61100  -137843.55      864.03222     -136979.52      190.1916       194.14053      949.70079    
     61200  -137792.68      867.57416     -136925.11      190.17343      194.12369      950.06452    
     61300  -137732.23      864.56937     -136867.66      190.15468      194.10693      950.42825    
     61400  -137678.81      866.21315     -136812.6       190.14         194.09309      950.79198    
     61500  -137622.95      865.00601     -136757.94      190.11907      194.07597      951.15571    
     61600  -137560.43      861.9549      -136698.47      190.10013      194.05974      951.51944    
     61700  -137504.72      862.67245     -136642.05      190.08491      194.04633      951.88317    
     61800  -137449.6       864.70912     -136584.89      190.06369      194.03011      952.2469     
     61900  -137389.54      864.04113     -136525.5       190.04862      194.01706      952.61063    
     62000  -137331.97      861.98148     -136469.98      190.03337      194.00266      952.97436    
     62100  -137271.56      858.76654     -136412.79      190.01292      193.98444      953.33809    
     62200  -137219.86      865.49169     -136354.37      189.99786      193.97044      953.70182    
     62300  -137161.68      863.80806     -136297.87      189.97676      193.95536      954.06555    
     62400  -137100.55      862.11948     -136238.44      189.95356      193.94065      954.42928    
     62500  -137045.19      866.32722     -136178.86      189.93486      193.92861      954.79302    
     62600  -136983.65      862.18335     -136121.47      189.91327      193.91385      955.15675    
     62700  -136924.25      862.92867     -136061.32      189.89436      193.8993       955.52048    
     62800  -136863.32      860.81985     -136002.5       189.87688      193.88564      955.88421    
     62900  -136810.16      864.87248     -135945.28      189.85683      193.87185      956.24794    
     63000  -136752.16      865.35927     -135886.8       189.83768      193.86051      956.61167    
     63100  -136696.41      867.20987     -135829.2       189.81672      193.84913      956.9754     
     63200  -136638.97      869.73659     -135769.24      189.7952       193.83703      957.33913    
     63300  -136571.96      862.90129     -135709.06      189.77373      193.82332      957.70286    
     63400  -136516.94      868.19928     -135648.74      189.75345      193.80935      958.06659    
     63500  -136454.6       866.4401      -135588.16      189.73339      193.79583      958.43032    
     63600  -136399.17      871.44464     -135527.73      189.71281      193.78164      958.79405    
     63700  -136336.11      868.59375     -135467.52      189.69445      193.76917      959.15778    
     63800  -136278.94      871.61005     -135407.33      189.67321      193.75556      959.52151    
     63900  -136210.14      864.45911     -135345.68      189.65142      193.74269      959.88524    
     64000  -136154.6       869.81056     -135284.79      189.63064      193.73003      960.24898    
     64100  -136092.75      869.04312     -135223.71      189.60977      193.71582      960.61271    
     64200  -136033.8       872.5274      -135161.28      189.59185      193.70205      960.97644    
     64300  -135970.21      869.28573     -135100.92      189.57371      193.68775      961.34017    
     64400  -135899.82      861.00307     -135038.82      189.55338      193.67219      961.7039     
     64500  -135845.26      868.54938     -134976.71      189.53562      193.65805      962.06763    
     64600  -135778.21      862.98433     -134915.23      189.51587      193.64225      962.43136    
     64700  -135713.87      861.4809      -134852.39      189.49593      193.62623      962.79509    
     64800  -135653.76      864.91867     -134788.84      189.47668      193.61144      963.15882    
     64900  -135593.78      868.55836     -134725.22      189.45695      193.59719      963.52255    
     65000  -135522.51      860.85135     -134661.65      189.43801      193.58298      963.88628    
     65100  -135462.84      864.95027     -134597.89      189.42043      193.56805      964.25001    
     65200  -135394.39      861.55589     -134532.83      189.40269      193.55237      964.61374    
     65300  -135330.26      861.32728     -134468.93      189.38425      193.53669      964.97747    
     65400  -135277.42      872.03299     -134405.38      189.36439      193.52089      965.3412     
     65500  -135208.12      867.48856     -134340.63      189.34416      193.50582      965.70494    
     65600  -135146.6       869.86638     -134276.74      189.32371      193.49057      966.06867    
     65700  -135081.41      869.59487     -134211.81      189.30404      193.47508      966.4324     
     65800  -135015.35      868.68976     -134146.66      189.2858       193.45939      966.79613    
     65900  -134942.38      861.42257     -134080.96      189.26869      193.44377      967.15986    
     66000  -134880.99      866.20723     -134014.79      189.25108      193.42828      967.52359    
     66100  -134816.64      868.67999     -133947.96      189.23138      193.4132       967.88732    
     66200  -134746.7       864.99701     -133881.71      189.21147      193.40014      968.25105    
     66300  -134683.28      867.66455     -133815.62      189.18911      193.38626      968.61478    
     66400  -134613.01      864.43017     -133748.58      189.16754      193.37237      968.97851    
     66500  -134540.05      859.70569     -133680.35      189.1475       193.35806      969.34224    
     66600  -134483.19      869.09061     -133614.1       189.1274       193.34233      969.70597    
     66700  -134415.68      868.93951     -133546.74      189.10968      193.32813      970.0697     
     66800  -134347.01      866.78171     -133480.23      189.09007      193.31372      970.43343    
     66900  -134285.71      873.22626     -133412.48      189.06966      193.30017      970.79716    
     67000  -134212.16      869.34356     -133342.82      189.05067      193.28803      971.1609     
     67100  -134140.64      866.81768     -133273.83      189.02924      193.27425      971.52463    
     67200  -134076.06      870.4927      -133205.57      189.0085       193.26024      971.88836    
     67300  -134006.68      871.31814     -133135.36      188.98942      193.24688      972.25209    
     67400  -133935.29      868.95176     -133066.34      188.96918      193.23273      972.61582    
     67500  -133863.73      868.31351     -132995.41      188.94964      193.21909      972.97955    
     67600  -133794.73      869.09452     -132925.63      188.93022      193.20531      973.34328    
     67700  -133713.04      859.47408     -132853.57      188.90884      193.19012      973.70701    
     67800  -133650.78      868.11559     -132782.66      188.88924      193.1767       974.07074    
     67900  -133580.09      868.07887     -132712.01      188.86845      193.16346      974.43447    
     68000  -133504.94      864.00233     -132640.93      188.84852      193.15094      974.7982     
     68100  -133431.38      863.12028     -132568.26      188.82972      193.13843      975.16193    
     68200  -133361.51      866.07509     -132495.44      188.80809      193.12336      975.52566    
     68300  -133284.33      862.59526     -132421.74      188.79112      193.1104       975.88939    
     68400  -133217.36      869.57747     -132347.78      188.77289      193.09617      976.25312    
     68500  -133138.68      864.57474     -132274.1       188.75311      193.08075      976.61686    
     68600  -133071.2       868.27169     -132202.93      188.73646      193.06685      976.98059    
     68700  -132997.95      867.70155     -132130.25      188.71593      193.04976      977.34432    
     68800  -132924.62      870.35328     -132054.27      188.69674      193.03307      977.70805    
     68900  -132851.4       870.77782     -131980.62      188.67997      193.01818      978.07178    
     69000  -132776.14      870.45813     -131905.68      188.65906      193.00095      978.43551    
     69100  -132697.98      869.34601     -131828.64      188.64191      192.98565      978.79924    
     69200  -132620.87      869.42102     -131751.45      188.6249       192.97075      979.16297    
     69300  -132549.59      873.42486     -131676.16      188.60458      192.95443      979.5267     
     69400  -132471.11      868.69085     -131602.42      188.58769      192.9409       979.89043    
     69500  -132396.94      870.72656     -131526.21      188.56869      192.92595      980.25416    
     69600  -132321.87      873.59843     -131448.27      188.54892      192.91059      980.61789    
     69700  -132243.62      870.16317     -131373.46      188.53141      192.89734      980.98162    
     69800  -132175.75      878.03923     -131297.71      188.51163      192.88349      981.34535    
     69900  -132093.11      871.8811      -131221.23      188.49105      192.8691       981.70909    
     70000  -132016.4       872.84317     -131143.56      188.47268      192.85609      982.07282    
     70100  -131930.19      864.33524     -131065.85      188.45358      192.84187      982.43655    
     70200  -131856.17      867.11409     -130989.06      188.43483      192.82732      982.80028    
     70300  -131782.8       872.91279     -130909.88      188.41697      192.81338      983.16401    
     70400  -131702.28      872.43493     -130829.85      188.39667      192.7976       983.52774    
     70500  -131629.5       879.16694     -130750.33      188.37816      192.78294      983.89147    
     70600  -131549.71      882.12958     -130667.58      188.36034      192.76914      984.2552     
     70700  -131467.33      878.91668     -130588.42      188.33996      192.75429      984.61893    
     70800  -131381.16      875.39806     -130505.76      188.32206      192.74147      984.98266    
     70900  -131296.49      873.68553     -130422.81      188.30369      192.72844      985.34639    
     71000  -131230.77      889.59438     -130341.17      188.28395      192.71434      985.71012    
     71100  -131141.32      880.16479     -130261.16      188.26684      192.7018       986.07385    
     71200  -131055.11      877.12211     -130177.99      188.24677      192.68775      986.43758    
     71300  -130973.1       880.6403      -130092.46      188.22613      192.67394      986.80131    
     71400  -130893.68      884.8064      -130008.87      188.2067       192.66094      987.16505    
     71500  -130818.79      890.09306     -129928.69      188.1855       192.6466       987.52878    
     71600  -130728.07      883.27856     -129844.79      188.16729      192.63372      987.89251    
     71700  -130645.16      884.99885     -129760.16      188.14954      192.61986      988.25624    
     71800  -130561.71      883.60248     -129678.1       188.13146      192.60503      988.61997    
     71900  -130479.66      887.42794     -129592.23      188.11468      192.59138      988.9837     
     72000  -130393.76      885.45124     -129508.31      188.09622      192.57743      989.34743    
     72100  -130310.41      888.44197     -129421.97      188.07651      192.56295      989.71116    
     72200  -130221.68      883.393       -129338.28      188.05795      192.54908      990.07489    
     72300  -130142.71      888.75137     -129253.95      188.03866      192.53452      990.43862    
     72400  -130058.78      895.80542     -129162.97      188.01968      192.51951      990.80235    
     72500  -129964.28      892.04454     -129072.24      188.00281      192.505        991.16608    
     72600  -129890.83      904.11944     -128986.71      187.98579      192.49064      991.52981    
     72700  -129797.13      899.03842     -128898.1       187.96758      192.47618      991.89354    
     72800  -129707.03      898.74657     -128808.29      187.95046      192.46289      992.25727    
     72900  -129631.53      910.48203     -128721.05      187.93162      192.44835      992.62101    
     73000  -129531.09      899.24095     -128631.85      187.9124       192.4332       992.98474    
     73100  -129448.38      905.00217     -128543.38      187.89497      192.41896      993.34847    
     73200  -129347.56      895.0909      -128452.47      187.87572      192.40358      993.7122     
     73300  -129265.38      902.5694      -128362.81      187.85795      192.38893      994.07593    
     73400  -129177.74      902.28684     -128275.45      187.84136      192.37453      994.43966    
     73500  -129087.78      906.16548     -128181.62      187.82295      192.35915      994.80339    
     73600  -128997.74      911.12125     -128086.61      187.80638      192.34536      995.16712    
     73700  -128904.14      910.53359     -127993.61      187.78793      192.33153      995.53085    
     73800  -128813.23      918.68476     -127894.55      187.76711      192.31723      995.89458    
     73900  -128721.14      925.66081     -127795.48      187.74908      192.3055       996.25831    
     74000  -128629.71      925.99605     -127703.72      187.72938      192.29284      996.62204    
     74100  -128540.17      932.36447     -127607.81      187.70917      192.27954      996.98577    
     74200  -128437.05      926.9078      -127510.14      187.69181      192.26791      997.3495     
     74300  -128348.7       934.74711     -127413.95      187.67275      192.2549       997.71323    
     74400  -128258.01      939.23308     -127318.78      187.65276      192.24099      998.07697    
     74500  -128161.02      945.78244     -127215.23      187.63536      192.2284       998.4407     
     74600  -128057.86      940.43916     -127117.42      187.61591      192.21435      998.80443    
     74700  -127972.43      944.97076     -127027.46      187.59625      192.20014      999.16816    
     74800  -127876.85      947.16203     -126929.69      187.57845      192.18726      999.53189    
     74900  -127775.39      947.40901     -126827.98      187.55876      192.17325      999.89562    
     75000  -127676.94      949.76085     -126727.18      187.53968      192.15987      1000.2593    
     75100  -127584.17      956.34384     -126627.82      187.52193      192.14733      1000.6231    
     75200  -127490.09      960.58839     -126529.5       187.50177      192.13293      1000.9868    
     75300  -127389.94      965.94588     -126423.99      187.4829       192.11932      1001.3505    
     75400  -127286.6       971.70925     -126314.89      187.46484      192.10672      1001.7143    
     75500  -127183.07      971.67062     -126211.4       187.44491      192.09302      1002.078     
     75600  -127085.55      987.4723      -126098.08      187.42628      192.08004      1002.4417    
     75700  -126991.12      998.73294     -125992.39      187.40814      192.0671       1002.8055    
     75800  -126892.74      999.59497     -125893.14      187.38854      192.05313      1003.1692    
     75900  -126797         1008.3216     -125788.67      187.36952      192.03948      1003.5329    
     76000  -126780.24      1092.3369     -125687.91      187.35086      192.02586      1003.8967    
     76100  -127137.86      1454.1225     -125683.74      187.33312      192.01255      1004.2604    
     76200  -127814.39      1953.6524     -125860.74      187.31913      192.00211      1004.6241    
     76300  -128958.28      2556.7167     -126401.56      187.30698      191.99506      1004.9878    
     76400  -130417.52      2984.1157     -127433.4       187.30349      191.99582      1005.3516    
     76500  -131763.01      2981.7979     -128781.22      187.3078       192.00378      1005.7153    
     76600  -132975.34      2809.5794     -130165.76      187.30576      192.00586      1006.079     
     76700  -134083.29      2597.1124     -131486.17      187.30336      192.00529      1006.4428    
     76800  -135076.44      2384.7765     -132691.66      187.30796      192.00899      1006.8065    
     76900  -136007.56      2215.043      -133792.52      187.31219      192.0116       1007.1702    
     77000  -136876.7       2074.426      -134802.27      187.319        192.01574      1007.534     
     77100  -137688.46      1956.8119     -135731.65      187.32841      192.02214      1007.8977    
     77200  -138462.51      1861.926      -136600.58      187.33625      192.02783      1008.2614    
     77300  -139193         1778.507      -137414.49      187.34762      192.03576      1008.6252    
     77400  -139896.93      1710.5715     -138186.36      187.36074      192.04417      1008.9889    
     77500  -140567.51      1650.5895     -138916.92      187.37423      192.05181      1009.3526    
     77600  -141208.99      1595.0081     -139613.98      187.39095      192.0608       1009.7163    
     77700  -141823.26      1545.9109     -140277.35      187.40809      192.06943      1010.0801    
     77800  -142409.67      1498.4176     -140911.26      187.42609      192.07875      1010.4438    
     77900  -142971.84      1454.9428     -141516.89      187.4461       192.08966      1010.8075    
     78000  -143511.37      1416.5325     -142094.84      187.46658      192.1014       1011.1713    
     78100  -144028.29      1379.637      -142648.66      187.48766      192.11376      1011.535     
     78200  -144524.01      1345.8156     -143178.19      187.50959      192.1266       1011.8987    
     78300  -144999.58      1314.3412     -143685.24      187.53232      192.13927      1012.2625    
     78400  -145459.13      1287.2438     -144171.89      187.55549      192.15143      1012.6262    
     78500  -145901.46      1261.0837     -144640.37      187.57915      192.16371      1012.9899    
     78600  -146328.23      1237.3239     -145090.91      187.60331      192.17651      1013.3537    
     78700  -146742.6       1216.8537     -145525.74      187.62706      192.18982      1013.7174    
     78800  -147144.19      1198.0451     -145946.15      187.65109      192.20406      1014.0811    
     78900  -147536.14      1181.9251     -146354.21      187.6747       192.2189       1014.4448    
     79000  -147918.39      1167.325      -146751.06      187.69705      192.23325      1014.8086    
     79100  -148291.61      1153.894      -147137.71      187.71927      192.2473       1015.1723    
     79200  -148656.25      1141.3983     -147514.85      187.74116      192.26055      1015.536     
     79300  -149014.84      1131.2722     -147883.57      187.76211      192.27333      1015.8998    
     79400  -149366.89      1121.6966     -148245.2       187.78175      192.28588      1016.2635    
     79500  -149709.72      1110.708      -148599.01      187.80037      192.2987       1016.6272    
     79600  -150047.77      1102.1836     -148945.59      187.81856      192.31228      1016.991     
     79700  -150379.07      1094.0533     -149285.02      187.83636      192.3262       1017.3547    
     79800  -150703.66      1085.2179     -149618.45      187.85364      192.34037      1017.7184    
     79900  -151022.72      1076.8253     -149945.9       187.87029      192.35453      1018.0822    
     80000  -151337.56      1070.4951     -150267.06      187.88679      192.36898      1018.4459    
     80100  -151645.69      1063.3116     -150582.38      187.90326      192.38303      1018.8096    
     80200  -151949.67      1057.1097     -150892.56      187.92008      192.39672      1019.1733    
     80300  -152250.81      1052.0434     -151198.77      187.9368       192.40966      1019.5371    
     80400  -152547.81      1046.8268     -151500.98      187.95355      192.42236      1019.9008    
     80500  -152839.01      1040.4173     -151798.59      187.97031      192.43529      1020.2645    
     80600  -153128.32      1036.3721     -152091.95      187.98662      192.44851      1020.6283    
     80700  -153412.87      1031.1563     -152381.72      188.00278      192.4618       1020.992     
     80800  -153696.81      1028.5611     -152668.24      188.01896      192.47527      1021.3557    
     80900  -153977.53      1025.4155     -152952.12      188.03455      192.48864      1021.7195    
     81000  -154254.69      1021.0928     -153233.6       188.04981      192.50188      1022.0832    
     81100  -154530.05      1017.7918     -153512.25      188.06455      192.51502      1022.4469    
     81200  -154801.81      1014.008      -153787.81      188.07917      192.52774      1022.8107    
     81300  -155072.47      1011.9891     -154060.48      188.09401      192.53989      1023.1744    
     81400  -155339.11      1008.2526     -154330.86      188.10882      192.55154      1023.5381    
     81500  -155604.75      1005.7678     -154598.99      188.12352      192.56305      1023.9018    
     81600  -155868.39      1003.2861     -154865.1       188.13801      192.5746       1024.2656    
     81700  -156128.85      999.69357     -155129.16      188.15177      192.58628      1024.6293    
     81800  -156388.71      997.90788     -155390.8       188.16515      192.59808      1024.993     
     81900  -156645.25      994.80516     -155650.45      188.17861      192.61007      1025.3568    
     82000  -156901.31      993.09128     -155908.21      188.19239      192.62233      1025.7205    
     82100  -157156.03      991.68295     -156164.34      188.20638      192.63481      1026.0842    
     82200  -157404.86      986.26031     -156418.6       188.21985      192.64704      1026.448     
     82300  -157640.72      974.89642     -156665.83      188.2333       192.65909      1026.8117    
     82400  -157871.11      967.08977     -156904.02      188.24678      192.6707       1027.1754    
     82500  -158092.92      959.03749     -157133.88      188.26024      192.68145      1027.5391    
     82600  -158308.37      952.26682     -157356.1       188.27377      192.69189      1027.9029    
     82700  -158514.78      943.8937      -157570.89      188.28729      192.70223      1028.2666    
     82800  -158714.85      937.08498     -157777.77      188.30107      192.71287      1028.6303    
     82900  -158908.06      930.68042     -157977.38      188.3145       192.72376      1028.9941    
     83000  -159093.95      924.1567      -158169.79      188.32793      192.73515      1029.3578    
     83100  -159271.59      917.10232     -158354.48      188.34136      192.74683      1029.7215    
     83200  -159442.86      911.48631     -158531.38      188.35475      192.75851      1030.0853    
     83300  -159607.07      906.03094     -158701.04      188.3688       192.77068      1030.449     
     83400  -159763.37      899.98763     -158863.38      188.38339      192.78319      1030.8127    
     83500  -159912.25      894.49432     -159017.76      188.39769      192.79581      1031.1765    
     83600  -160053.91      889.55614     -159164.35      188.41173      192.80832      1031.5402    
     83700  -160187.08      884.17665     -159302.91      188.4258       192.82053      1031.9039    
     83800  -160312.31      879.32732     -159432.98      188.44011      192.83229      1032.2676    
     83900  -160429.48      875.20645     -159554.28      188.45491      192.8438       1032.6314    
     84000  -160537.3       870.59366     -159666.71      188.47032      192.85558      1032.9951    
     84100  -160635.26      866.21742     -159769.04      188.48582      192.8678       1033.3588    
     84200  -160724         863.38124     -159860.62      188.50121      192.88079      1033.7226    
     84300  -160802.9       860.76575     -159942.13      188.51709      192.89455      1034.0863    
     84400  -160870.13      857.13638     -160012.99      188.53302      192.90858      1034.45      
     84500  -160929.38      857.8702      -160071.51      188.54956      192.92298      1034.8138    
     84600  -160980.8       859.31357     -160121.49      188.56652      192.93755      1035.1775    
     84700  -161021.5       855.91406     -160165.59      188.58229      192.95156      1035.5412    
     84800  -161053.47      853.89637     -160199.57      188.59741      192.96507      1035.905     
     84900  -161075.97      855.23406     -160220.73      188.61256      192.97865      1036.2687    
     85000  -161089.5       857.57671     -160231.92      188.62851      192.99252      1036.6324    
     85100  -161093.17      856.55799     -160236.61      188.64541      193.0069       1036.9961    
     85200  -161087.43      854.34102     -160233.09      188.66099      193.02099      1037.3599    
     85300  -161070.24      852.93401     -160217.31      188.67492      193.03473      1037.7236    
     85400  -161041.31      853.91323     -160187.4       188.68751      193.04859      1038.0873    
     85500  -161000.08      854.35709     -160145.72      188.69913      193.06275      1038.4511    
     85600  -160945.46      851.28309     -160094.18      188.70967      193.07725      1038.8148    
     85700  -160883.19      852.25927     -160030.93      188.71752      193.09138      1039.1785    
     85800  -160812.06      852.72223     -159959.34      188.72286      193.10533      1039.5423    
     85900  -160737.6       854.71575     -159882.89      188.72664      193.12135      1039.906     
     86000  -160664.31      857.79767     -159806.51      188.72881      193.14146      1040.2697    
     86100  -160593.06      858.90515     -159734.16      188.72418      193.162        1040.6335    
     86200  -160542.51      873.0961      -159669.42      188.71598      193.18318      1040.9972    
     86300  -160511.12      879.77618     -159631.34      188.70482      193.20319      1041.3609    
     86400  -160493.01      865.70063     -159627.31      188.69199      193.22112      1041.7246    
     86500  -160484.97      850.83421     -159634.14      188.67786      193.23339      1042.0884    
     86600  -160480.4       856.94374     -159623.45      188.66554      193.24528      1042.4521    
     86700  -160482.9       876.98372     -159605.92      188.65795      193.25873      1042.8158    
     86800  -160467.89      855.79051     -159612.1       188.65566      193.27007      1043.1796    
     86900  -160448.54      837.79962     -159610.74      188.66235      193.28046      1043.5433    
     87000  -160427.55      854.65259     -159572.9       188.68094      193.29059      1043.907     
     87100  -160395.89      870.94907     -159524.94      188.70213      193.29811      1044.2708    
     87200  -160353.89      859.0859      -159494.81      188.71891      193.30088      1044.6345    
     87300  -160321.42      855.33445     -159466.09      188.73796      193.31089      1044.9982    
     87400  -160299.53      866.93974     -159432.59      188.75446      193.31838      1045.362     
     87500  -160276.77      868.33432     -159408.44      188.76928      193.32376      1045.7257    
     87600  -160257.73      862.30423     -159395.43      188.79144      193.33116      1046.0894    
     87700  -160237.95      853.60701     -159384.34      188.81295      193.33524      1046.4531    
     87800  -160236.6       869.83581     -159366.77      188.83729      193.34012      1046.8169    
     87900  -160225.07      864.2442      -159360.82      188.86682      193.34683      1047.1806    
     88000  -160229.75      864.50418     -159365.25      188.89623      193.35333      1047.5443    
     88100  -160225.66      857.56759     -159368.1       188.92921      193.36197      1047.9081    
     88200  -160225.59      860.28391     -159365.31      188.96933      193.37191      1048.2718    
     88300  -160222.53      863.26864     -159359.26      189.01077      193.37811      1048.6355    
     88400  -160231.99      869.86237     -159362.13      189.06093      193.38813      1048.9993    
     88500  -160232.86      851.33975     -159381.52      189.11013      193.40263      1049.363     
     88600  -160238.81      852.62691     -159386.18      189.1588       193.41691      1049.7267    
     88700  -160241.88      864.27036     -159377.61      189.20996      193.42994      1050.0905    
     88800  -160224.47      851.99498     -159372.47      189.26625      193.44422      1050.4542    
     88900  -160220.95      859.0141      -159361.93      189.32185      193.46209      1050.8179    
     89000  -160215.37      863.59667     -159351.77      189.37663      193.48059      1051.1816    
     89100  -160191.28      853.33954     -159337.94      189.43018      193.50229      1051.5454    
     89200  -160180.26      862.97645     -159317.29      189.47489      193.52343      1051.9091    
     89300  -160163.02      861.24417     -159301.78      189.51382      193.54897      1052.2728    
     89400  -160162.77      870.64615     -159292.12      189.54356      193.57274      1052.6366    
     89500  -160146.04      850.76471     -159295.28      189.56465      193.59707      1053.0003    
     89600  -160144.04      856.99433     -159287.04      189.57612      193.61559      1053.364     
     89700  -160143.06      870.0859      -159272.98      189.58242      193.63192      1053.7278    
     89800  -160136.83      866.15413     -159270.68      189.5911       193.64119      1054.0915    
     89900  -160119.64      848.65091     -159270.99      189.60491      193.64518      1054.4552    
     90000  -160112.91      862.68939     -159250.23      189.61637      193.65306      1054.819     
     90100  -160104.1       873.56184     -159230.54      189.62545      193.66238      1055.1827    
     90200  -160094.69      861.21294     -159233.48      189.64185      193.67254      1055.5464    
     90300  -160107.07      864.73637     -159242.34      189.66216      193.68857      1055.9101    
     90400  -160097.47      848.661       -159248.81      189.68541      193.70826      1056.2739    
     90500  -160093.39      857.17666     -159236.21      189.70985      193.72452      1056.6376    
     90600  -160102.41      875.91077     -159226.5       189.73513      193.74232      1057.0013    
     90700  -160101.21      859.8118      -159241.4       189.76442      193.76345      1057.3651    
     90800  -160097.65      845.65237     -159252         189.78915      193.78266      1057.7288    
     90900  -160098.3       858.56678     -159239.74      189.82162      193.80175      1058.0925    
     91000  -160092.19      866.50338     -159225.69      189.8509       193.81751      1058.4563    
     91100  -160081.05      858.00822     -159223.04      189.87062      193.83503      1058.82      
     91200  -160080.6       858.60605     -159222         189.89082      193.85202      1059.1837    
     91300  -160073.27      857.95385     -159215.31      189.90573      193.86435      1059.5474    
     91400  -160068.48      858.95562     -159209.53      189.91686      193.87873      1059.9112    
     91500  -160064.83      860.06057     -159204.77      189.92715      193.88873      1060.2749    
     91600  -160064.94      864.18183     -159200.76      189.93807      193.90278      1060.6386    
     91700  -160063.84      863.41786     -159200.43      189.94891      193.92756      1061.0024    
     91800  -160057.55      851.25445     -159206.3       189.96021      193.95447      1061.3661    
     91900  -160067.31      863.2937      -159204.02      189.97805      193.98428      1061.7298    
     92000  -160069.09      866.70364     -159202.38      189.99273      194.01025      1062.0936    
     92100  -160054.31      849.35181     -159204.96      190.00784      194.03105      1062.4573    
     92200  -160059.27      865.20536     -159194.07      190.02341      194.04955      1062.821     
     92300  -160054.14      864.92219     -159189.21      190.04412      194.07095      1063.1848    
     92400  -160050.27      854.54567     -159195.73      190.06233      194.09288      1063.5485    
     92500  -160049.21      857.23316     -159191.98      190.07208      194.11046      1063.9122    
     92600  -160034.74      858.91273     -159175.82      190.08851      194.13286      1064.2759    
     92700  -160038.22      875.02053     -159163.2       190.10365      194.15737      1064.6397    
     92800  -160043.11      868.01627     -159175.09      190.11496      194.17989      1065.0034    
     92900  -160046.83      852.81555     -159194.02      190.13546      194.20842      1065.3671    
     93000  -160038.67      843.71262     -159194.95      190.1535       194.22493      1065.7309    
     93100  -160035.09      863.68758     -159171.4       190.17545      194.24194      1066.0946    
     93200  -160021.11      874.25629     -159146.85      190.1974       194.26232      1066.4583    
     93300  -160017.73      872.95946     -159144.77      190.21773      194.28793      1066.8221    
     93400  -160021.91      859.28041     -159162.63      190.23935      194.31787      1067.1858    
     93500  -160030.63      851.75587     -159178.87      190.25826      194.3416       1067.5495    
     93600  -160026.94      852.13437     -159174.8       190.28157      194.37169      1067.9133    
     93700  -160017.83      860.51109     -159157.32      190.30554      194.4001       1068.277     
     93800  -160017.5       877.41747     -159140.08      190.32556      194.43334      1068.6407    
     93900  -160007.16      867.27778     -159139.89      190.34724      194.47396      1069.0044    
     94000  -160008.23      849.68215     -159158.55      190.36925      194.50672      1069.3682    
     94100  -160014.08      856.00928     -159158.07      190.38965      194.54272      1069.7319    
     94200  -160009.98      864.915       -159145.07      190.40938      194.57678      1070.0956    
     94300  -159997.71      874.53292     -159123.18      190.42267      194.60024      1070.4594    
     94400  -159992.98      850.10247     -159142.88      190.43299      194.62537      1070.8231    
     94500  -159999.94      863.60438     -159136.34      190.44484      194.65057      1071.1868    
     94600  -159996.24      855.5707      -159140.67      190.45129      194.66952      1071.5506    
     94700  -159997.29      859.16386     -159138.13      190.454        194.68715      1071.9143    
     94800  -159990.88      860.27421     -159130.61      190.46007      194.7006       1072.278     
     94900  -159981.89      856.7522      -159125.14      190.46742      194.70844      1072.6418    
     95000  -159985.71      875.08864     -159110.63      190.48294      194.72097      1073.0055    
     95100  -159983.4       854.4464      -159128.96      190.49844      194.72948      1073.3692    
     95200  -159991.34      848.24137     -159143.1       190.51472      194.73956      1073.7329    
     95300  -159990.17      855.72841     -159134.45      190.5338       194.75534      1074.0967    
     95400  -159984.44      869.66542     -159114.78      190.5506       194.77069      1074.4604    
     95500  -159977.74      871.31505     -159106.43      190.57067      194.79111      1074.8241    
     95600  -159984.78      868.5577      -159116.23      190.58431      194.81078      1075.1879    
     95700  -159987.76      857.4121      -159130.35      190.59345      194.82703      1075.5516    
     95800  -159981.64      851.73333     -159129.9       190.60611      194.84222      1075.9153    
     95900  -159944.61      951.20852     -158993.4       190.61668      194.85495      1076.2791    
     96000  -159945.23      913.66327     -159031.56      190.63314      194.87448      1076.6428    
     96100  -159987.21      832.97686     -159154.23      190.6495       194.89229      1077.0065    
     96200  -160002.82      800.33112     -159202.49      190.66683      194.90485      1077.3703    
     96300  -159985.77      835.39964     -159150.37      190.68328      194.91783      1077.734     
     96400  -159953.73      887.6916      -159066.04      190.69975      194.93354      1078.0977    
     96500  -159950.37      905.88845     -159044.48      190.72032      194.94972      1078.4614    
     96600  -159967.17      865.17755     -159101.99      190.7413       194.96934      1078.8252    
     96700  -159991.83      827.77039     -159164.06      190.75989      194.99374      1079.1889    
     96800  -159983.74      820.63741     -159163.1       190.78022      195.01869      1079.5526    
     96900  -159957.94      856.62911     -159101.31      190.80326      195.04555      1079.9164    
     97000  -159939.05      892.61601     -159046.43      190.82346      195.06595      1080.2801    
     97100  -159943.35      886.64725     -159056.7       190.84437      195.08647      1080.6438    
     97200  -159965.76      853.95791     -159111.8       190.86711      195.11286      1081.0076    
     97300  -159974.49      827.80275     -159146.68      190.89436      195.13965      1081.3713    
     97400  -159967.9       843.16154     -159124.74      190.92326      195.16734      1081.735     
     97500  -159878.8       981.5744      -158897.23      190.95085      195.1961       1082.0988    
     97600  -159930.74      883.64484     -159047.09      190.97652      195.22854      1082.4625    
     97700  -159968.7       802.77223     -159165.92      191.00894      195.26624      1082.8262    
     97800  -159978.3       804.2269      -159174.08      191.04647      195.30376      1083.1899    
     97900  -159953.12      861.48969     -159091.63      191.08626      195.34226      1083.5537    
     98000  -159920.5       904.50796     -159015.99      191.12766      195.38067      1083.9174    
     98100  -159931.7       901.74349     -159029.95      191.17226      195.41994      1084.2811    
     98200  -159955.5       849.34472     -159106.16      191.21785      195.46162      1084.6449    
     98300  -159973.61      822.11894     -159151.49      191.2589       195.49871      1085.0086    
     98400  -159964.51      837.72148     -159126.79      191.29976      195.53418      1085.3723    
     98500  -159937.1       876.00361     -159061.09      191.33651      195.57262      1085.7361    
     98600  -159926.96      899.87937     -159027.09      191.3721       195.61474      1086.0998    
     98700  -159932.5       869.1992      -159063.3       191.40882      195.65749      1086.4635    
     98800  -159955.74      837.73461     -159118.01      191.44653      195.70115      1086.8272    
     98900  -159955.16      826.82661     -159128.33      191.4867       195.74338      1087.191     
     99000  -159938.03      854.43661     -159083.6       191.52521      195.78189      1087.5547    
     99100  -159923.56      889.85082     -159033.71      191.56624      195.82305      1087.9184    
     99200  -159922.61      888.55476     -159034.05      191.61364      195.86494      1088.2822    
     99300  -159940.39      857.10122     -159083.29      191.65986      195.90484      1088.6459    
     99400  -159957.87      836.07643     -159121.79      191.70438      195.94408      1089.0096    
     99500  -159951.4       839.87319     -159111.52      191.74232      195.97974      1089.3734    
     99600  -159935.75      870.91779     -159064.83      191.77928      196.01666      1089.7371    
     99700  -159923.16      889.6842      -159033.48      191.82316      196.05886      1090.1008    
     99800  -159924.26      869.29615     -159054.97      191.86359      196.10082      1090.4646    
     99900  -159945.58      846.84017     -159098.74      191.90682      196.14424      1090.8283    
    100000  -159950.12      835.75413     -159114.37      191.95407      196.18319      1091.192     
Loop time of 4935.51 on 10 procs for 100000 steps with 22200 atoms

Performance: 1.751 ns/day, 13.710 hours/ns, 20.261 timesteps/s, 449.801 katom-step/s
93.3% CPU use with 10 MPI tasks x 1 OpenMP threads

MPI task timing breakdown:
Section |  min time  |  avg time  |  max time  |%varavg| %total
---------------------------------------------------------------
Pair    | 3008.9     | 3572.6     | 4598.6     | 731.8 | 72.39
Neigh   | 21.007     | 42.697     | 86.362     | 299.3 |  0.87
Comm    | 162.86     | 941.2      | 1386.8     |1052.4 | 19.07
Output  | 1.256      | 1.3225     | 1.3959     |   3.9 |  0.03
Modify  | 65         | 373.9      | 906.42     |1881.0 |  7.58
Other   |            | 3.824      |            |       |  0.08

Nlocal:           2220 ave        5234 max          79 min
Histogram: 3 1 0 0 2 1 0 2 0 1
Nghost:         2178.9 ave        4445 max         397 min
Histogram: 3 1 0 0 2 0 1 1 1 1
Neighs:              0 ave           0 max           0 min
Histogram: 10 0 0 0 0 0 0 0 0 0

Total # of neighbors = 0
Ave neighs/atom = 0
Neighbor list builds = 1504
Dangerous builds = 0
Total wall time: 1:22:16
